Authorization required, but no authorization protocol specified

Authorization required, but no authorization protocol specified

Authorization required, but no authorization protocol specified

Authorization required, but no authorization protocol specified

Authorization required, but no authorization protocol specified

Authorization required, but no authorization protocol specified

Authorization required, but no authorization protocol specified

Authorization required, but no authorization protocol specified


     Program PWSCF v.7.3 starts on 14Jun2026 at 13:57:27 

     This program is part of the open-source Quantum ESPRESSO suite
     for quantum simulation of materials; please cite
         "P. Giannozzi et al., J. Phys.:Condens. Matter 21 395502 (2009);
         "P. Giannozzi et al., J. Phys.:Condens. Matter 29 465901 (2017);
         "P. Giannozzi et al., J. Chem. Phys. 152 154105 (2020);
          URL http://www.quantum-espresso.org", 
     in publications or presentations arising from this work. More details at
     http://www.quantum-espresso.org/quote

     Parallel version (MPI), running on     1 processors

     MPI processes distributed on     1 nodes
     8997 MiB available memory on the printing compute node when the environment starts

     Waiting for input...
     Reading input from standard input

     Current dimensions of program PWSCF are:
     Max number of different atomic species (ntypx) = 10
     Max number of k-points (npk) =  40000
     Max angular momentum in pseudopotentials (lmaxx) =  4
     file Mo.pbe-spn-kjpaw_psl.1.0.0.UPF: wavefunction(s)  4S 4D renormalized
     file S.pbe-n-kjpaw_psl.1.0.0.UPF: wavefunction(s)  3S 3P renormalized

     IMPORTANT: XC functional enforced from input :
     Exchange-correlation= VDW-DF2-B86R
                           (   1   4  26   0   2   0   0)
     Any further DFT definition will be discarded
     Please, verify this is what you really want


     Subspace diagonalization in iterative solution of the eigenvalue problem:
     a serial algorithm will be used


     G-vector sticks info
     --------------------
     sticks:   dense  smooth     PW     G-vecs:    dense   smooth      PW
     Sum        1573     769    223               797393   281171   43435

     Using Slab Decomposition



     bravais-lattice index     =            4
     lattice parameter (alat)  =       5.9715  a.u.
     unit-cell volume          =    2917.9067 (a.u.)^3
     number of atoms/cell      =            6
     number of atomic types    =            2
     number of electrons       =        52.00
     number of Kohn-Sham states=           31
     kinetic-energy cutoff     =      80.0000  Ry
     charge density cutoff     =     640.0000  Ry
     scf convergence threshold =      1.0E-08
     mixing beta               =       0.3000
     number of iterations used =            8  local-TF  mixing
     Exchange-correlation= VDW-DF2-B86R
                           (   1   4  26   0   2   0   0)

     celldm(1)=   5.971535  celldm(2)=   0.000000  celldm(3)=  15.822785
     celldm(4)=   0.000000  celldm(5)=   0.000000  celldm(6)=   0.000000

     crystal axes: (cart. coord. in units of alat)
               a(1) = (   1.000000   0.000000   0.000000 )  
               a(2) = (  -0.500000   0.866025   0.000000 )  
               a(3) = (   0.000000   0.000000  15.822785 )  

     reciprocal axes: (cart. coord. in units 2 pi/alat)
               b(1) = (  1.000000  0.577350 -0.000000 )  
               b(2) = (  0.000000  1.154701  0.000000 )  
               b(3) = (  0.000000 -0.000000  0.063200 )  


     PseudoPot. # 1 for Mo read from file:
     ./pseudo/Mo.pbe-spn-kjpaw_psl.1.0.0.UPF
     MD5 check sum: 4396e0c640fcce5c25f020efccf1ab12
     Pseudo is Projector augmented-wave + core cor, Zval = 14.0
     Generated using &quot;atomic&quot; code by A. Dal Corso  v.6.3
     Shape of augmentation charge: PSQ
     Using radial grid of 1229 points,  6 beta functions with: 
                l(1) =   0
                l(2) =   0
                l(3) =   1
                l(4) =   1
                l(5) =   2
                l(6) =   2
     Q(r) pseudized with 0 coefficients 


     PseudoPot. # 2 for S  read from file:
     ./pseudo/S.pbe-n-kjpaw_psl.1.0.0.UPF
     MD5 check sum: fb45dfebcf3e72a4e1bd4a866ec2e262
     Pseudo is Projector augmented-wave + core cor, Zval =  6.0
     Generated using &quot;atomic&quot; code by A. Dal Corso  v.6.3
     Shape of augmentation charge: PSQ
     Using radial grid of 1151 points,  6 beta functions with: 
                l(1) =   0
                l(2) =   0
                l(3) =   1
                l(4) =   1
                l(5) =   2
                l(6) =   2
     Q(r) pseudized with 0 coefficients 


     atomic species   valence    mass     pseudopotential
     Mo               14.00    95.96000     Mo( 1.00)
     S                 6.00    32.06000     S ( 1.00)

      2 Sym. Ops. (no inversion) found



   Cartesian axes

     site n.     atom                  positions (alat units)
         1        S      tau(   1) = (  -0.0000005   0.5773506   6.4231013  )
         2        Mo     tau(   2) = (   0.0000000   0.0000000   6.9204905  )
         3        S      tau(   3) = (  -0.0000005   0.5773506   7.4181013  )
         4        S      tau(   4) = (   0.5000005   0.2020723   8.4034019  )
         5        Mo     tau(   5) = (  -0.0000005   0.4907480   8.9017247  )
         6        S      tau(   6) = (   0.5000005   0.2020723   9.3996835  )

     number of k points=    73  Methfessel-Paxton smearing, width (Ry)=  0.0200
                       cart. coord. in units 2pi/alat
        k(    1) = (   0.0000000   0.0000000   0.0000000), wk =   0.0078125
        k(    2) = (   0.0000000   0.0721688   0.0000000), wk =   0.0156250
        k(    3) = (   0.0000000   0.1443376   0.0000000), wk =   0.0156250
        k(    4) = (   0.0000000   0.2165064   0.0000000), wk =   0.0156250
        k(    5) = (   0.0000000   0.2886751   0.0000000), wk =   0.0156250
        k(    6) = (   0.0000000   0.3608439   0.0000000), wk =   0.0156250
        k(    7) = (   0.0000000   0.4330127   0.0000000), wk =   0.0156250
        k(    8) = (   0.0000000   0.5051815   0.0000000), wk =   0.0156250
        k(    9) = (   0.0000000  -0.5773503   0.0000000), wk =   0.0078125
        k(   10) = (   0.0625000   0.1082532   0.0000000), wk =   0.0312500
        k(   11) = (   0.0625000   0.1804220   0.0000000), wk =   0.0312500
        k(   12) = (   0.0625000   0.2525907   0.0000000), wk =   0.0312500
        k(   13) = (   0.0625000   0.3247595   0.0000000), wk =   0.0312500
        k(   14) = (   0.0625000   0.3969283   0.0000000), wk =   0.0312500
        k(   15) = (   0.0625000   0.4690971   0.0000000), wk =   0.0312500
        k(   16) = (   0.0625000   0.5412659   0.0000000), wk =   0.0312500
        k(   17) = (   0.1250000   0.2165064   0.0000000), wk =   0.0312500
        k(   18) = (   0.1250000   0.2886751   0.0000000), wk =   0.0312500
        k(   19) = (   0.1250000   0.3608439   0.0000000), wk =   0.0312500
        k(   20) = (   0.1250000   0.4330127   0.0000000), wk =   0.0312500
        k(   21) = (   0.1250000   0.5051815   0.0000000), wk =   0.0312500
        k(   22) = (   0.1250000   0.5773503   0.0000000), wk =   0.0156250
        k(   23) = (   0.1875000   0.3247595   0.0000000), wk =   0.0312500
        k(   24) = (   0.1875000   0.3969283   0.0000000), wk =   0.0312500
        k(   25) = (   0.1875000   0.4690971   0.0000000), wk =   0.0312500
        k(   26) = (   0.1875000   0.5412659   0.0000000), wk =   0.0312500
        k(   27) = (   0.2500000   0.4330127   0.0000000), wk =   0.0312500
        k(   28) = (   0.2500000   0.5051815   0.0000000), wk =   0.0312500
        k(   29) = (   0.2500000   0.5773503   0.0000000), wk =   0.0156250
        k(   30) = (   0.3125000   0.5412659   0.0000000), wk =   0.0312500
        k(   31) = (  -0.0625000   0.0360844   0.0000000), wk =   0.0312500
        k(   32) = (  -0.1250000   0.0721688   0.0000000), wk =   0.0312500
        k(   33) = (  -0.1875000   0.1082532   0.0000000), wk =   0.0312500
        k(   34) = (  -0.2500000   0.1443376   0.0000000), wk =   0.0312500
        k(   35) = (  -0.3125000   0.1804220   0.0000000), wk =   0.0312500
        k(   36) = (  -0.3750000   0.2165064   0.0000000), wk =   0.0312500
        k(   37) = (  -0.4375000   0.2525907   0.0000000), wk =   0.0312500
        k(   38) = (   0.5000000  -0.2886751   0.0000000), wk =   0.0156250
        k(   39) = (   0.1250000   0.0000000   0.0000000), wk =   0.0156250
        k(   40) = (  -0.1250000   0.1443376   0.0000000), wk =   0.0312500
        k(   41) = (   0.1875000   0.0360844   0.0000000), wk =   0.0312500
        k(   42) = (  -0.1875000   0.1804220   0.0000000), wk =   0.0312500
        k(   43) = (   0.2500000   0.0721688   0.0000000), wk =   0.0312500
        k(   44) = (  -0.2500000   0.2165064   0.0000000), wk =   0.0312500
        k(   45) = (   0.3125000   0.1082532   0.0000000), wk =   0.0312500
        k(   46) = (  -0.3125000   0.2525907   0.0000000), wk =   0.0312500
        k(   47) = (   0.3750000   0.1443376   0.0000000), wk =   0.0312500
        k(   48) = (  -0.3750000   0.2886751   0.0000000), wk =   0.0312500
        k(   49) = (   0.4375000   0.1804220   0.0000000), wk =   0.0312500
        k(   50) = (  -0.4375000   0.3247595   0.0000000), wk =   0.0312500
        k(   51) = (   0.5000000   0.2165064   0.0000000), wk =   0.0312500
        k(   52) = (   0.2500000   0.0000000   0.0000000), wk =   0.0156250
        k(   53) = (  -0.1875000   0.2525907   0.0000000), wk =   0.0312500
        k(   54) = (   0.3125000   0.0360844   0.0000000), wk =   0.0312500
        k(   55) = (  -0.2500000   0.2886751   0.0000000), wk =   0.0312500
        k(   56) = (   0.3750000   0.0721688   0.0000000), wk =   0.0312500
        k(   57) = (  -0.3125000   0.3247595   0.0000000), wk =   0.0312500
        k(   58) = (   0.4375000   0.1082532   0.0000000), wk =   0.0312500
        k(   59) = (  -0.3750000   0.3608439   0.0000000), wk =   0.0312500
        k(   60) = (   0.5000000   0.1443376   0.0000000), wk =   0.0312500
        k(   61) = (  -0.4375000   0.3969283   0.0000000), wk =   0.0312500
        k(   62) = (   0.3750000   0.0000000   0.0000000), wk =   0.0156250
        k(   63) = (  -0.2500000   0.3608439   0.0000000), wk =   0.0312500
        k(   64) = (   0.4375000   0.0360844   0.0000000), wk =   0.0312500
        k(   65) = (  -0.3125000   0.3969283   0.0000000), wk =   0.0312500
        k(   66) = (   0.5000000   0.0721688   0.0000000), wk =   0.0312500
        k(   67) = (  -0.3750000   0.4330127   0.0000000), wk =   0.0312500
        k(   68) = (   0.5625000   0.1082532   0.0000000), wk =   0.0312500
        k(   69) = (   0.5000000   0.0000000   0.0000000), wk =   0.0156250
        k(   70) = (  -0.3125000   0.4690971   0.0000000), wk =   0.0312500
        k(   71) = (   0.5625000   0.0360844   0.0000000), wk =   0.0312500
        k(   72) = (  -0.3750000   0.5051815   0.0000000), wk =   0.0312500
        k(   73) = (   0.6250000   0.0000000   0.0000000), wk =   0.0156250

     Dense  grid:   797393 G-vectors     FFT dimensions: (  50,  50, 768)

     Smooth grid:   281171 G-vectors     FFT dimensions: (  36,  36, 540)

     Estimated max dynamical RAM per process >       4.00 GB

     Initial potential from superposition of free atoms

     starting charge      51.9981, renormalised to      52.0000

     negative rho (up, down):  1.917E-04 0.000E+00


     %%%%%%%%%%%%%%%%%%%%%%%%%%%%%%%%%%%%%%%%%%%%%%%%%%%%%%%%%%%%%%%%%%%%%%%%
     %                                                                      %
     % You are using vdW-DF, which was implemented by the Thonhauser group. %
     % Please cite the following two papers that made this development      %
     % possible and the two reviews that describe the various versions:     %
     %                                                                      %
     %   T. Thonhauser et al., PRL 115, 136402 (2015).                      %
     %   T. Thonhauser et al., PRB 76, 125112 (2007).                       %
     %   K. Berland et al., Rep. Prog. Phys. 78, 066501 (2015).             %
     %   D.C. Langreth et al., J. Phys.: Condens. Matter 21, 084203 (2009). %
     %                                                                      %
     % If you are calculating stress with vdW-DF, please also cite:         %
     %                                                                      %
     %   R. Sabatini et al., J. Phys.: Condens. Matter 24, 424209 (2012).   %
     %                                                                      %
     %%%%%%%%%%%%%%%%%%%%%%%%%%%%%%%%%%%%%%%%%%%%%%%%%%%%%%%%%%%%%%%%%%%%%%%%

     %%%%%%%%%%%%%%%%%%%%%%%%%%%%%%%%%%%%%%%%%%%%%%%%%%%%%%%%%%%%%%%%%%%%%%%%
     %                                                                      %
     %  vdW-DF NEWS:                                                        %
     %                                                                      %
     %  * vdW-DF3 is now available. DOI: 10.1021/acs.jctc.0c00471           %
     %    use with input_dft = 'vdW-DF3-opt1' or 'vdW-DF3-opt2'             %
     %                                                                      %
     %  * Unscreened and range-separated hybrid vdW-DF-cx functionals       %
     %    DOI: 10.1063/1.4986522 and 10.1088/1361-648X/ac2ad2               %
     %    use with input_dft = 'vdW-DF-cx0'    and 'vdW-DF-ahcx'            %
     %  * Unscreened and range-separated hybrid vdW-DF2-b86r functionals    %
     %    DOI: 10.1063/1.4986522 and DOI: 10.1103/PhysRevX.12.041003        %
     %    use with input_dft = 'vdW-DF2-br0' and 'vdW-DF2-ahbr'             %
     %                                                                      %
     %%%%%%%%%%%%%%%%%%%%%%%%%%%%%%%%%%%%%%%%%%%%%%%%%%%%%%%%%%%%%%%%%%%%%%%%


     Starting wfcs are   36 randomized atomic wfcs
     Checking if some PAW data can be deallocated... 

     total cpu time spent up to now is      102.2 secs

     Self-consistent Calculation

     iteration #  1     ecut=    80.00 Ry     beta= 0.30
     Davidson diagonalization with overlap
     ethr =  1.00E-02,  avg # of iterations =  2.2

     Threshold (ethr) on eigenvalues was too large:
     Diagonalizing with lowered threshold

     Davidson diagonalization with overlap
     ethr =  2.73E-04,  avg # of iterations =  3.8

     negative rho (up, down):  7.308E-05 0.000E+00

     total cpu time spent up to now is      454.6 secs

     total energy              =    -989.21746976 Ry
     estimated scf accuracy    <       0.22759831 Ry

     iteration #  2     ecut=    80.00 Ry     beta= 0.30
     Davidson diagonalization with overlap
     ethr =  4.38E-04,  avg # of iterations =  1.0

     negative rho (up, down):  8.738E-05 0.000E+00

     total cpu time spent up to now is      587.7 secs

     total energy              =    -989.14534765 Ry
     estimated scf accuracy    <       0.16144977 Ry

     iteration #  3     ecut=    80.00 Ry     beta= 0.30
     Davidson diagonalization with overlap
     ethr =  3.10E-04,  avg # of iterations =  2.0

     negative rho (up, down):  3.221E-05 0.000E+00

     total cpu time spent up to now is      754.7 secs

     total energy              =    -989.17760307 Ry
     estimated scf accuracy    <       0.01477842 Ry

     iteration #  4     ecut=    80.00 Ry     beta= 0.30
     Davidson diagonalization with overlap
     ethr =  2.84E-05,  avg # of iterations =  2.5

     negative rho (up, down):  1.149E-05 0.000E+00

     total cpu time spent up to now is      928.2 secs

     total energy              =    -989.17800570 Ry
     estimated scf accuracy    <       0.00802692 Ry

     iteration #  5     ecut=    80.00 Ry     beta= 0.30
     Davidson diagonalization with overlap
     ethr =  1.54E-05,  avg # of iterations =  3.2

     negative rho (up, down):  3.746E-06 0.000E+00

     total cpu time spent up to now is     1081.9 secs

     total energy              =    -989.17829403 Ry
     estimated scf accuracy    <       0.00283705 Ry

     iteration #  6     ecut=    80.00 Ry     beta= 0.30
     Davidson diagonalization with overlap
     ethr =  5.46E-06,  avg # of iterations =  3.8

     negative rho (up, down):  6.237E-07 0.000E+00

     total cpu time spent up to now is     1228.0 secs

     total energy              =    -989.17802580 Ry
     estimated scf accuracy    <       0.00254130 Ry

     iteration #  7     ecut=    80.00 Ry     beta= 0.30
     Davidson diagonalization with overlap
     ethr =  4.89E-06,  avg # of iterations =  1.4

     negative rho (up, down):  4.763E-07 0.000E+00

     total cpu time spent up to now is     1366.2 secs

     total energy              =    -989.17773673 Ry
     estimated scf accuracy    <       0.00235434 Ry

     iteration #  8     ecut=    80.00 Ry     beta= 0.30
     Davidson diagonalization with overlap
     ethr =  4.53E-06,  avg # of iterations =  3.6

     negative rho (up, down):  5.315E-04 0.000E+00

     total cpu time spent up to now is     1542.2 secs

     total energy              =    -989.17713771 Ry
     estimated scf accuracy    <       0.00425329 Ry

     iteration #  9     ecut=    80.00 Ry     beta= 0.30
     Davidson diagonalization with overlap
     ethr =  4.53E-06,  avg # of iterations =  2.7

     negative rho (up, down):  1.986E-03 0.000E+00

     total cpu time spent up to now is     1715.0 secs

     total energy              =    -989.17764722 Ry
     estimated scf accuracy    <       0.00068501 Ry

     iteration # 10     ecut=    80.00 Ry     beta= 0.30
     Davidson diagonalization with overlap
     c_bands:  1 eigenvalues not converged
     ethr =  1.32E-06,  avg # of iterations =  4.2

     negative rho (up, down):  4.173E-03 0.000E+00

     total cpu time spent up to now is     1867.9 secs

     total energy              =    -989.17764876 Ry
     estimated scf accuracy    <       0.00046631 Ry

     iteration # 11     ecut=    80.00 Ry     beta= 0.30
     Davidson diagonalization with overlap
     ethr =  8.97E-07,  avg # of iterations =  2.3

     negative rho (up, down):  4.592E-03 0.000E+00

     total cpu time spent up to now is     2039.0 secs

     total energy              =    -989.17764867 Ry
     estimated scf accuracy    <       0.00072062 Ry

     iteration # 12     ecut=    80.00 Ry     beta= 0.30
     Davidson diagonalization with overlap
     ethr =  8.97E-07,  avg # of iterations =  2.6

     negative rho (up, down):  6.037E-03 0.000E+00

     total cpu time spent up to now is     2207.2 secs

     total energy              =    -989.17756365 Ry
     estimated scf accuracy    <       0.00059554 Ry

     iteration # 13     ecut=    80.00 Ry     beta= 0.30
     Davidson diagonalization with overlap
     ethr =  8.97E-07,  avg # of iterations =  1.7

     negative rho (up, down):  6.277E-03 0.000E+00

     total cpu time spent up to now is     2347.8 secs

     total energy              =    -989.17759349 Ry
     estimated scf accuracy    <       0.00021201 Ry

     iteration # 14     ecut=    80.00 Ry     beta= 0.30
     Davidson diagonalization with overlap
     ethr =  4.08E-07,  avg # of iterations =  1.8

     negative rho (up, down):  4.755E-03 0.000E+00

     total cpu time spent up to now is     2490.3 secs

     total energy              =    -989.17756144 Ry
     estimated scf accuracy    <       0.00018107 Ry

     iteration # 15     ecut=    80.00 Ry     beta= 0.30
     Davidson diagonalization with overlap
     ethr =  3.48E-07,  avg # of iterations =  1.2

     negative rho (up, down):  3.772E-03 0.000E+00

     total cpu time spent up to now is     2626.0 secs

     total energy              =    -989.17755074 Ry
     estimated scf accuracy    <       0.00011123 Ry

     iteration # 16     ecut=    80.00 Ry     beta= 0.30
     Davidson diagonalization with overlap
     ethr =  2.14E-07,  avg # of iterations =  1.2

     negative rho (up, down):  2.852E-03 0.000E+00

     total cpu time spent up to now is     2762.1 secs

     total energy              =    -989.17757692 Ry
     estimated scf accuracy    <       0.00008936 Ry

     iteration # 17     ecut=    80.00 Ry     beta= 0.30
     Davidson diagonalization with overlap
     ethr =  1.72E-07,  avg # of iterations =  2.1

     negative rho (up, down):  2.472E-03 0.000E+00

     total cpu time spent up to now is     2926.3 secs

     total energy              =    -989.17758138 Ry
     estimated scf accuracy    <       0.00011586 Ry

     iteration # 18     ecut=    80.00 Ry     beta= 0.30
     Davidson diagonalization with overlap
     ethr =  1.72E-07,  avg # of iterations =  2.0

     negative rho (up, down):  1.330E-03 0.000E+00

     total cpu time spent up to now is     3090.3 secs

     total energy              =    -989.17761733 Ry
     estimated scf accuracy    <       0.00002080 Ry

     iteration # 19     ecut=    80.00 Ry     beta= 0.30
     Davidson diagonalization with overlap
     ethr =  4.00E-08,  avg # of iterations =  2.9

     negative rho (up, down):  9.795E-04 0.000E+00

     total cpu time spent up to now is     3263.9 secs

     total energy              =    -989.17762845 Ry
     estimated scf accuracy    <       0.00003384 Ry

     iteration # 20     ecut=    80.00 Ry     beta= 0.30
     Davidson diagonalization with overlap
     ethr =  4.00E-08,  avg # of iterations =  2.0

     negative rho (up, down):  6.927E-04 0.000E+00

     total cpu time spent up to now is     3426.5 secs

     total energy              =    -989.17763361 Ry
     estimated scf accuracy    <       0.00000288 Ry

     iteration # 21     ecut=    80.00 Ry     beta= 0.30
     Davidson diagonalization with overlap
     ethr =  5.54E-09,  avg # of iterations =  2.9

     negative rho (up, down):  4.621E-04 0.000E+00

     total cpu time spent up to now is     3595.4 secs

     total energy              =    -989.17763540 Ry
     estimated scf accuracy    <       0.00000208 Ry

     iteration # 22     ecut=    80.00 Ry     beta= 0.30
     Davidson diagonalization with overlap
     ethr =  4.00E-09,  avg # of iterations =  1.6

     negative rho (up, down):  3.803E-04 0.000E+00

     total cpu time spent up to now is     3735.5 secs

     total energy              =    -989.17763506 Ry
     estimated scf accuracy    <       0.00000148 Ry

     iteration # 23     ecut=    80.00 Ry     beta= 0.30
     Davidson diagonalization with overlap
     ethr =  2.85E-09,  avg # of iterations =  1.2

     negative rho (up, down):  4.152E-04 0.000E+00

     total cpu time spent up to now is     3870.4 secs

     total energy              =    -989.17763540 Ry
     estimated scf accuracy    <       0.00000124 Ry

     iteration # 24     ecut=    80.00 Ry     beta= 0.30
     Davidson diagonalization with overlap
     ethr =  2.38E-09,  avg # of iterations =  1.0

     negative rho (up, down):  3.050E-04 0.000E+00

     total cpu time spent up to now is     4003.1 secs

     total energy              =    -989.17763520 Ry
     estimated scf accuracy    <       0.00000123 Ry

     iteration # 25     ecut=    80.00 Ry     beta= 0.30
     Davidson diagonalization with overlap
     ethr =  2.36E-09,  avg # of iterations =  1.0

     negative rho (up, down):  2.406E-04 0.000E+00

     total cpu time spent up to now is     4136.5 secs

     total energy              =    -989.17763671 Ry
     estimated scf accuracy    <       0.00000112 Ry

     iteration # 26     ecut=    80.00 Ry     beta= 0.30
     Davidson diagonalization with overlap
     ethr =  2.15E-09,  avg # of iterations =  2.4

     negative rho (up, down):  2.536E-04 0.000E+00

     total cpu time spent up to now is     4296.8 secs

     total energy              =    -989.17763600 Ry
     estimated scf accuracy    <       0.00000135 Ry

     iteration # 27     ecut=    80.00 Ry     beta= 0.30
     Davidson diagonalization with overlap
     ethr =  2.15E-09,  avg # of iterations =  1.3

     negative rho (up, down):  2.458E-04 0.000E+00

     total cpu time spent up to now is     4433.2 secs

     total energy              =    -989.17763595 Ry
     estimated scf accuracy    <       0.00000075 Ry

     iteration # 28     ecut=    80.00 Ry     beta= 0.30
     Davidson diagonalization with overlap
     ethr =  1.44E-09,  avg # of iterations =  1.0

     negative rho (up, down):  2.564E-04 0.000E+00

     total cpu time spent up to now is     4566.2 secs

     total energy              =    -989.17763664 Ry
     estimated scf accuracy    <       0.00000067 Ry

     iteration # 29     ecut=    80.00 Ry     beta= 0.30
     Davidson diagonalization with overlap
     ethr =  1.29E-09,  avg # of iterations =  1.3

     negative rho (up, down):  2.770E-04 0.000E+00

     total cpu time spent up to now is     4702.8 secs

     total energy              =    -989.17763657 Ry
     estimated scf accuracy    <       0.00000050 Ry

     iteration # 30     ecut=    80.00 Ry     beta= 0.30
     Davidson diagonalization with overlap
     ethr =  9.60E-10,  avg # of iterations =  1.3

     negative rho (up, down):  2.651E-04 0.000E+00

     total cpu time spent up to now is     4839.7 secs

     total energy              =    -989.17763557 Ry
     estimated scf accuracy    <       0.00000025 Ry

     iteration # 31     ecut=    80.00 Ry     beta= 0.30
     Davidson diagonalization with overlap
     ethr =  4.77E-10,  avg # of iterations =  2.7

     negative rho (up, down):  2.602E-04 0.000E+00

     total cpu time spent up to now is     5001.3 secs

     total energy              =    -989.17763571 Ry
     estimated scf accuracy    <       0.00000017 Ry

     iteration # 32     ecut=    80.00 Ry     beta= 0.30
     Davidson diagonalization with overlap
     ethr =  3.28E-10,  avg # of iterations =  1.4

     negative rho (up, down):  2.323E-04 0.000E+00

     total cpu time spent up to now is     5142.1 secs

     total energy              =    -989.17763578 Ry
     estimated scf accuracy    <       0.00000009 Ry

     iteration # 33     ecut=    80.00 Ry     beta= 0.30
     Davidson diagonalization with overlap
     ethr =  1.64E-10,  avg # of iterations =  2.0

     negative rho (up, down):  2.253E-04 0.000E+00

     total cpu time spent up to now is     5298.7 secs

     total energy              =    -989.17763569 Ry
     estimated scf accuracy    <       0.00000004 Ry

     iteration # 34     ecut=    80.00 Ry     beta= 0.30
     Davidson diagonalization with overlap
     ethr =  7.51E-11,  avg # of iterations =  1.5

     negative rho (up, down):  2.130E-04 0.000E+00

     total cpu time spent up to now is     5437.1 secs

     total energy              =    -989.17763562 Ry
     estimated scf accuracy    <       0.00000002 Ry

     iteration # 35     ecut=    80.00 Ry     beta= 0.30
     Davidson diagonalization with overlap
     ethr =  4.27E-11,  avg # of iterations =  2.7

     negative rho (up, down):  2.176E-04 0.000E+00

     total cpu time spent up to now is     5601.9 secs

     total energy              =    -989.17763571 Ry
     estimated scf accuracy    <       0.00000002 Ry

     iteration # 36     ecut=    80.00 Ry     beta= 0.30
     Davidson diagonalization with overlap
     ethr =  3.10E-11,  avg # of iterations =  2.7

     negative rho (up, down):  2.237E-04 0.000E+00

     total cpu time spent up to now is     5769.2 secs

     total energy              =    -989.17763555 Ry
     estimated scf accuracy    <       0.00000001 Ry

     iteration # 37     ecut=    80.00 Ry     beta= 0.30
     Davidson diagonalization with overlap
     ethr =  2.50E-11,  avg # of iterations =  2.1

     negative rho (up, down):  2.242E-04 0.000E+00

     total cpu time spent up to now is     5931.7 secs

     End of self-consistent calculation

          k = 0.0000 0.0000 0.0000 ( 35507 PWs)   bands (ev):

   -62.9277 -62.8845 -37.1017 -37.0590 -36.8643 -36.8640 -36.8221 -36.8220
   -16.2583 -16.1314 -15.0065 -14.8110  -7.9845  -7.5016  -4.6491  -4.6485
    -4.6177  -4.6174  -4.4621  -3.5362  -3.5337  -3.5001  -3.4984  -3.4569
    -2.3760  -1.7153   0.6889   0.7079   0.7527   0.7616   0.9053

          k = 0.0000 0.0722 0.0000 ( 35493 PWs)   bands (ev):

   -62.9261 -62.8829 -37.0986 -37.0559 -36.8798 -36.8675 -36.8376 -36.8257
   -16.1987 -16.0722 -14.9795 -14.7874  -7.9159  -7.4335  -4.7845  -4.7524
    -4.6242  -4.5863  -4.5552  -3.9582  -3.6310  -3.5962  -3.4251  -3.1281
    -2.3805  -1.7804   0.6182   0.6714   0.7573   0.8018   0.8065

          k = 0.0000 0.1443 0.0000 ( 35435 PWs)   bands (ev):

   -62.9217 -62.8785 -37.0900 -37.0472 -36.9239 -36.8817 -36.8776 -36.8357
   -16.0249 -15.8999 -14.9011 -14.7189  -7.7253  -7.2470  -5.1342  -5.1020
    -4.9714  -4.4694  -4.4072  -4.3750  -3.8827  -3.8451  -3.3356  -2.9602
    -2.4284  -2.0066   0.3573   0.4595   0.5223   0.6209   0.6536

          k = 0.0000 0.2165 0.0000 ( 35345 PWs)   bands (ev):

   -62.9151 -62.8718 -37.0770 -37.0342 -36.9892 -36.9471 -36.8926 -36.8507
   -15.7519 -15.6303 -14.7780 -14.6122  -7.4704  -7.0142  -5.5645  -5.5361
    -5.3722  -5.0000  -4.2093  -4.1696  -4.1321  -4.0987  -3.3970  -3.0345
    -2.5941  -2.3945  -0.0041   0.2766   0.4300   0.5282   0.5388

          k = 0.0000 0.2887 0.0000 ( 35323 PWs)   bands (ev):

   -62.9072 -62.8640 -37.0655 -37.0617 -37.0237 -37.0187 -36.9102 -36.8683
   -15.4052 -15.2903 -14.6227 -14.4792  -7.2875  -6.9246  -5.9397  -5.8687
    -5.7522  -5.5210  -4.5376  -4.4948  -3.8096  -3.7681  -3.5915  -3.2768
    -2.8770  -2.8040  -0.1262   0.2393   0.2517   0.3369   0.7736

          k = 0.0000 0.3608 0.0000 ( 35299 PWs)   bands (ev):

   -62.8993 -62.8561 -37.1409 -37.0990 -37.0463 -37.0034 -36.9277 -36.8859
   -15.0230 -14.9204 -14.4539 -14.3380  -7.3532  -7.1501  -6.2950  -6.1170
    -5.9562  -5.8459  -4.8261  -4.7816  -3.8113  -3.5547  -3.4898  -3.4361
    -3.0956  -3.0300  -0.0124   0.1321   0.2173   0.3549   1.1178

          k = 0.0000 0.4330 0.0000 ( 35224 PWs)   bands (ev):

   -62.8927 -62.8494 -37.2041 -37.1623 -37.0332 -36.9903 -36.9426 -36.9007
   -14.6596 -14.5766 -14.2968 -14.2124  -7.6003  -7.4952  -6.6380  -6.5132
    -6.0334  -5.9457  -5.0469  -5.0013  -3.9724  -3.7778  -3.2338  -3.1634
    -3.0743  -2.9749   0.1226   0.1884   0.2361   0.5205   1.4441

          k = 0.0000 0.5052 0.0000 ( 35152 PWs)   bands (ev):

   -62.8882 -62.8449 -37.2460 -37.2042 -37.0245 -36.9816 -36.9524 -36.9106
   -14.3853 -14.3288 -14.1822 -14.1280  -7.8284  -7.7681  -6.8768  -6.7991
    -6.1285  -6.0601  -5.1846  -5.1383  -4.0495  -3.9223  -3.0776  -2.9923
    -2.8808  -2.7898   0.1696   0.2195   0.5130   0.6791   1.6628

          k = 0.0000-0.5774 0.0000 ( 35026 PWs)   bands (ev):

   -62.8866 -62.8434 -37.2606 -37.2189 -37.0214 -36.9785 -36.9559 -36.9141
   -14.2775 -14.2395 -14.1404 -14.0996  -7.9181  -7.8709  -6.9610  -6.9025
    -6.1763  -6.1114  -5.2314  -5.1848  -4.0650  -3.9776  -3.0267  -2.9354
    -2.7557  -2.7123   0.1979   0.2428   0.6682   0.7298   1.7380

          k = 0.0625 0.1083 0.0000 ( 35467 PWs)   bands (ev):

   -62.9231 -62.8799 -37.0928 -37.0501 -36.9091 -36.8748 -36.8670 -36.8329
   -16.0821 -15.9564 -14.9269 -14.7412  -7.7859  -7.3053  -5.0247  -4.9922
    -4.8627  -4.4675  -4.4362  -4.3095  -3.8463  -3.8108  -3.3160  -2.9510
    -2.4064  -1.9197   0.4656   0.4924   0.5423   0.6196   0.7177

          k = 0.0625 0.1804 0.0000 ( 35370 PWs)   bands (ev):

   -62.9176 -62.8744 -37.0820 -37.0392 -36.9626 -36.9205 -36.8885 -36.8466
   -15.8585 -15.7352 -14.8260 -14.6534  -7.5587  -7.0887  -5.4079  -5.3759
    -5.1985  -4.7570  -4.2519  -4.2253  -4.2054  -4.1746  -3.2459  -2.8935
    -2.5127  -2.2303   0.0927   0.3044   0.4269   0.5014   0.5648

          k = 0.0625 0.2526 0.0000 ( 35362 PWs)   bands (ev):

   -62.9103 -62.8671 -37.0678 -37.0318 -37.0251 -36.9897 -36.9065 -36.8646
   -15.5481 -15.4298 -14.6862 -14.5328  -7.3249  -6.9054  -5.7869  -5.7535
    -5.5674  -5.2600  -4.5924  -4.5403  -3.9840  -3.9456  -3.3325  -3.0382
    -2.7415  -2.6370  -0.1554   0.1528   0.3451   0.4124   0.5486

          k = 0.0625 0.3248 0.0000 ( 35310 PWs)   bands (ev):

   -62.9025 -62.8592 -37.1058 -37.0639 -37.0525 -37.0096 -36.9258 -36.8840
   -15.1822 -15.0733 -14.5228 -14.3942  -7.2610  -6.9849  -6.1034  -5.9595
    -5.8706  -5.7377  -4.8970  -4.8220  -3.7508  -3.7029  -3.5354  -3.3114
    -2.9727  -2.9250  -0.1931   0.0900   0.2829   0.3887   0.8276

          k = 0.0625 0.3969 0.0000 ( 35243 PWs)   bands (ev):

   -62.8952 -62.8520 -37.1735 -37.1316 -37.0382 -36.9954 -36.9436 -36.9018
   -14.8064 -14.7133 -14.3576 -14.2585  -7.4386  -7.2925  -6.4749  -6.3410
    -5.9705  -5.8714  -5.0951  -5.0179  -3.7799  -3.6315  -3.5919  -3.5238
    -2.9663  -2.9214  -0.0753   0.1263   0.3250   0.4719   1.1765

          k = 0.0625 0.4691 0.0000 ( 35169 PWs)   bands (ev):

   -62.8896 -62.8464 -37.2248 -37.1830 -37.0273 -36.9844 -36.9572 -36.9154
   -14.4828 -14.4131 -14.2187 -14.1510  -7.6818  -7.6014  -6.7956  -6.7121
    -6.0545  -5.9819  -5.2034  -5.1414  -3.9481  -3.8291  -3.4860  -3.3934
    -2.7911  -2.7405   0.0949   0.2041   0.4690   0.6164   1.4990

          k = 0.0625 0.5413 0.0000 ( 35128 PWs)   bands (ev):

   -62.8866 -62.8434 -37.2524 -37.2106 -37.0214 -36.9785 -36.9646 -36.9228
   -14.2853 -14.2419 -14.1380 -14.0942  -7.8391  -7.7881  -6.9745  -6.9178
    -6.1416  -6.0769  -5.2468  -5.2020  -4.0339  -3.9513  -3.3944  -3.2910
    -2.6283  -2.5824   0.1957   0.2423   0.6559   0.7426   1.7471

          k = 0.1250 0.2165 0.0000 ( 35331 PWs)   bands (ev):

   -62.9115 -62.8682 -37.0700 -37.0272 -37.0177 -36.9758 -36.9074 -36.8654
   -15.5975 -15.4776 -14.7083 -14.5507  -7.3410  -6.9026  -5.7291  -5.6906
    -5.4453  -5.0753  -4.7295  -4.6853  -4.0632  -4.0267  -3.1734  -2.8774
    -2.6870  -2.5487  -0.1768   0.1096   0.3548   0.3808   0.4471

          k = 0.1250 0.2887 0.0000 ( 35357 PWs)   bands (ev):

   -62.9042 -62.8610 -37.0811 -37.0558 -37.0392 -37.0129 -36.9306 -36.8888
   -15.2664 -15.1538 -14.5589 -14.4228  -7.2024  -6.8703  -5.9677  -5.8729
    -5.7294  -5.5486  -5.1605  -5.0205  -3.9609  -3.9137  -3.2399  -3.0350
    -2.8841  -2.8386  -0.3270  -0.0135   0.3417   0.4068   0.5513

          k = 0.1250 0.3608 0.0000 ( 35341 PWs)   bands (ev):

   -62.8969 -62.8537 -37.1433 -37.1015 -37.0416 -36.9987 -36.9543 -36.9125
   -14.9030 -14.8031 -14.3960 -14.2863  -7.2753  -7.0806  -6.2845  -6.1796
    -5.8919  -5.7890  -5.3424  -5.1541  -4.0203  -3.9588  -3.4474  -3.3280
    -2.9191  -2.8718  -0.2895   0.0482   0.4127   0.4854   0.8140

          k = 0.1250 0.4330 0.0000 ( 35215 PWs)   bands (ev):

   -62.8908 -62.8475 -37.1954 -37.1537 -37.0295 -36.9866 -36.9745 -36.9327
   -14.5598 -14.4795 -14.2439 -14.1640  -7.4681  -7.3537  -6.7042  -6.6437
    -5.9270  -5.8527  -5.3692  -5.2061  -4.0765  -3.9767  -3.7015  -3.6354
    -2.7765  -2.7336  -0.0888   0.2198   0.5231   0.5787   1.1273

          k = 0.1250 0.5052 0.0000 ( 35141 PWs)   bands (ev):

   -62.8866 -62.8434 -37.2300 -37.1882 -37.0214 -36.9879 -36.9785 -36.9462
   -14.3028 -14.2483 -14.1327 -14.0811  -7.6319  -7.5640  -7.0013  -6.9558
    -6.0374  -5.9766  -5.3229  -5.2186  -4.0629  -3.9588  -3.8740  -3.8540
    -2.5806  -2.5391   0.1059   0.2479   0.6806   0.7711   1.3979

          k = 0.1250 0.5774 0.0000 ( 35180 PWs)   bands (ev):

   -62.8852 -62.8419 -37.2421 -37.2003 -37.0186 -36.9927 -36.9757 -36.9509
   -14.2021 -14.1653 -14.0927 -14.0529  -7.6926  -7.6444  -7.1071  -7.0647
    -6.0992  -6.0368  -5.2748  -5.2321  -4.0809  -3.9772  -3.9574  -3.8562
    -2.4828  -2.4386   0.1679   0.2054   0.8102   0.8672   1.5205

          k = 0.1875 0.3248 0.0000 ( 35337 PWs)   bands (ev):

   -62.8975 -62.8543 -37.1297 -37.0879 -37.0428 -36.9999 -36.9611 -36.9192
   -14.9373 -14.8339 -14.4097 -14.2946  -7.2042  -6.9855  -6.1625  -6.0910
    -5.8784  -5.7494  -5.4871  -5.2315  -4.1931  -4.1333  -3.3259  -3.1769
    -2.9137  -2.8526  -0.3691   0.0077   0.4373   0.4796   0.6666

          k = 0.1875 0.3969 0.0000 ( 35241 PWs)   bands (ev):

   -62.8914 -62.8481 -37.1716 -37.1299 -37.0307 -36.9919 -36.9878 -36.9501
   -14.6029 -14.5156 -14.2570 -14.1686  -7.3040  -7.1560  -6.6257  -6.5944
    -5.8223  -5.7119  -5.4936  -5.2590  -4.5095  -4.4344  -3.5503  -3.4571
    -2.8091  -2.7460  -0.2124   0.2123   0.5457   0.5887   0.8567

          k = 0.1875 0.4691 0.0000 ( 35167 PWs)   bands (ev):

   -62.8866 -62.8434 -37.2021 -37.1604 -37.0214 -37.0168 -36.9785 -36.9751
   -14.3197 -14.2549 -14.1279 -14.0675  -7.3948  -7.2919  -7.0234  -6.9914
    -5.8585  -5.8177  -5.4141  -5.2205  -4.6915  -4.5568  -3.8363  -3.7484
    -2.6041  -2.5572  -0.0174   0.2291   0.7169   0.8107   1.0514

          k = 0.1875 0.5413 0.0000 ( 35162 PWs)   bands (ev):

   -62.8841 -62.8408 -37.2181 -37.1764 -37.0307 -37.0164 -36.9890 -36.9735
   -14.1492 -14.1085 -14.0538 -14.0129  -7.4304  -7.3685  -7.2405  -7.2030
    -6.0074  -5.9470  -5.2795  -5.1834  -4.7331  -4.5693  -4.0325  -3.9580
    -2.4127  -2.3685   0.0216   0.0907   0.9328   1.0409   1.1640

          k = 0.2500 0.4330 0.0000 ( 35195 PWs)   bands (ev):

   -62.8866 -62.8434 -37.1876 -37.1459 -37.0318 -37.0215 -36.9900 -36.9785
   -14.3286 -14.2567 -14.1269 -14.0599  -7.2865  -7.1585  -7.0309  -7.0010
    -5.7626  -5.6490  -5.4210  -5.2006  -5.0142  -4.9516  -3.8166  -3.6773
    -2.6230  -2.5688  -0.0700   0.2144   0.7246   0.8237   0.9389

          k = 0.2500 0.5052 0.0000 ( 35193 PWs)   bands (ev):

   -62.8835 -62.8402 -37.1924 -37.1506 -37.0643 -37.0226 -37.0153 -36.9723
   -14.1277 -14.0782 -14.0304 -13.9861  -7.3318  -7.3004  -7.1731  -7.0841
    -5.8496  -5.7968  -5.3646  -5.2668  -5.1699  -5.0884  -4.0840  -3.9412
    -2.3794  -2.3348  -0.1083  -0.0101   0.8770   0.9680   1.1269

          k = 0.2500 0.5774 0.0000 ( 35190 PWs)   bands (ev):

   -62.8824 -62.8391 -37.1922 -37.1504 -37.0775 -37.0359 -37.0131 -36.9702
   -14.0500 -14.0147 -13.9979 -13.9595  -7.4322  -7.4022  -7.0865  -7.0420
    -6.0028  -5.9421  -5.3998  -5.2244  -5.1012  -5.0779  -4.2050  -4.0763
    -2.2502  -2.2057  -0.1859  -0.1476   0.8964   0.9965   1.3053

          k = 0.3125 0.5413 0.0000 ( 35172 PWs)   bands (ev):

   -62.8818 -62.8385 -37.1711 -37.1294 -37.1060 -37.0643 -37.0119 -36.9690
   -14.0238 -13.9864 -13.9678 -13.9365  -7.5028  -7.4695  -6.8647  -6.7862
    -6.0674  -6.0275  -5.6307  -5.5238  -5.0712  -4.9756  -4.3053  -4.1373
    -2.1727  -2.1252  -0.3028  -0.2622   0.8260   0.9060   1.3858

          k =-0.0625 0.0361 0.0000 ( 35493 PWs)   bands (ev):

   -62.9261 -62.8829 -37.0986 -37.0559 -36.8796 -36.8677 -36.8377 -36.8256
   -16.1988 -16.0722 -14.9797 -14.7873  -7.9160  -7.4333  -4.7841  -4.7526
    -4.6239  -4.5863  -4.5549  -3.9574  -3.6324  -3.5952  -3.4336  -3.1220
    -2.3809  -1.7748   0.6208   0.6670   0.7450   0.7776   0.8163

          k =-0.1250 0.0722 0.0000 ( 35435 PWs)   bands (ev):

   -62.9217 -62.8785 -37.0900 -37.0472 -36.9237 -36.8818 -36.8778 -36.8356
   -16.0253 -15.8997 -14.9015 -14.7184  -7.7260  -7.2465  -5.1347  -5.1015
    -4.9701  -4.4686  -4.4075  -4.3748  -3.8835  -3.8447  -3.3561  -2.9465
    -2.4307  -1.9850   0.3274   0.4565   0.5123   0.6407   0.6544

          k =-0.1875 0.1083 0.0000 ( 35345 PWs)   bands (ev):

   -62.9151 -62.8718 -37.0770 -37.0342 -36.9890 -36.9472 -36.8928 -36.8506
   -15.7528 -15.6297 -14.7791 -14.6109  -7.4713  -7.0135  -5.5721  -5.5283
    -5.3719  -4.9973  -4.2097  -4.1696  -4.1324  -4.0985  -3.4364  -3.0079
    -2.6019  -2.3547  -0.0300   0.2774   0.4285   0.5219   0.5365

          k =-0.2500 0.1443 0.0000 ( 35323 PWs)   bands (ev):

   -62.9072 -62.8640 -37.0653 -37.0617 -37.0236 -37.0188 -36.9104 -36.8682
   -15.4072 -15.2890 -14.6249 -14.4765  -7.2871  -6.9246  -5.9629  -5.8469
    -5.7547  -5.5136  -4.5375  -4.4952  -3.8101  -3.7687  -3.6512  -3.2300
    -2.8918  -2.7563  -0.1446   0.2403   0.2506   0.3354   0.7637

          k =-0.3125 0.1804 0.0000 ( 35299 PWs)   bands (ev):

   -62.8993 -62.8561 -37.1407 -37.0991 -37.0463 -37.0034 -36.9279 -36.8858
   -15.0272 -14.9179 -14.4576 -14.3329  -7.3525  -7.1464  -6.3121  -6.0983
    -5.9991  -5.8044  -4.8256  -4.7823  -3.8917  -3.4928  -3.4808  -3.4349
    -3.1103  -2.9894  -0.0258   0.1343   0.2147   0.3526   1.0990

          k =-0.3750 0.2165 0.0000 ( 35224 PWs)   bands (ev):

   -62.8927 -62.8494 -37.2039 -37.1624 -37.0332 -36.9903 -36.9427 -36.9006
   -14.6682 -14.5718 -14.3027 -14.2032  -7.6055  -7.4833  -6.6603  -6.4862
    -6.1046  -5.8813  -5.0462  -5.0021  -4.0743  -3.6806  -3.2322  -3.1661
    -3.0836  -2.9406   0.1240   0.1864   0.2253   0.5189   1.4023

          k =-0.4375 0.2526 0.0000 ( 35152 PWs)   bands (ev):

   -62.8882 -62.8449 -37.2458 -37.2043 -37.0245 -36.9816 -36.9526 -36.9105
   -14.4021 -14.3204 -14.1898 -14.1124  -7.8424  -7.7469  -6.9087  -6.7623
    -6.2059  -5.9901  -5.1839  -5.1393  -4.1776  -3.7983  -3.0756  -2.9963
    -2.8957  -2.7465   0.1703   0.2188   0.4991   0.6850   1.5821

          k = 0.5000-0.2887 0.0000 ( 35026 PWs)   bands (ev):

   -62.8866 -62.8434 -37.2604 -37.2190 -37.0214 -36.9785 -36.9561 -36.9140
   -14.3024 -14.2279 -14.1473 -14.0799  -7.9364  -7.8454  -6.9983  -6.8602
    -6.2532  -6.0419  -5.2306  -5.1858  -4.2098  -3.8370  -3.0243  -2.9397
    -2.7881  -2.6496   0.1984   0.2424   0.6403   0.7543   1.6334

          k = 0.1250 0.0000 0.0000 ( 35467 PWs)   bands (ev):

   -62.9231 -62.8799 -37.0928 -37.0501 -36.9089 -36.8750 -36.8671 -36.8328
   -16.0823 -15.9562 -14.9273 -14.7409  -7.7864  -7.3049  -5.0239  -4.9931
    -4.8610  -4.4680  -4.4358  -4.3103  -3.8477  -3.8103  -3.3268  -2.9432
    -2.4079  -1.9050   0.4387   0.4908   0.5386   0.6407   0.7083

          k =-0.1250 0.1443 0.0000 ( 35370 PWs)   bands (ev):

   -62.9176 -62.8744 -37.0820 -37.0392 -36.9625 -36.9206 -36.8886 -36.8466
   -15.8588 -15.7350 -14.8264 -14.6529  -7.5591  -7.0884  -5.4096  -5.3741
    -5.1982  -4.7557  -4.2519  -4.2235  -4.2065  -4.1767  -3.2604  -2.8841
    -2.5149  -2.2136   0.0784   0.3051   0.4255   0.4900   0.5673

          k = 0.1875 0.0361 0.0000 ( 35370 PWs)   bands (ev):

   -62.9176 -62.8744 -37.0820 -37.0392 -36.9624 -36.9206 -36.8887 -36.8465
   -15.8593 -15.7348 -14.8269 -14.6523  -7.5597  -7.0879  -5.4084  -5.3753
    -5.1964  -4.7571  -4.2526  -4.2268  -4.2041  -4.1760  -3.2709  -2.8775
    -2.5173  -2.1961   0.0669   0.3021   0.4152   0.5018   0.5689

          k =-0.1875 0.1804 0.0000 ( 35362 PWs)   bands (ev):

   -62.9103 -62.8671 -37.0678 -37.0317 -37.0250 -36.9898 -36.9066 -36.8645
   -15.5491 -15.4292 -14.6873 -14.5315  -7.3251  -6.9054  -5.8017  -5.7377
    -5.5692  -5.2565  -4.5903  -4.5447  -3.9834  -3.9459  -3.3681  -3.0145
    -2.7498  -2.6019  -0.1679   0.1508   0.3523   0.3976   0.5523

          k = 0.2500 0.0722 0.0000 ( 35362 PWs)   bands (ev):

   -62.9103 -62.8671 -37.0678 -37.0316 -37.0250 -36.9899 -36.9067 -36.8645
   -15.5497 -15.4288 -14.6880 -14.5306  -7.3255  -6.9053  -5.8029  -5.7362
    -5.5684  -5.2567  -4.5940  -4.5423  -3.9842  -3.9461  -3.3765  -3.0083
    -2.7508  -2.5894  -0.1741   0.1496   0.3538   0.4020   0.5413

          k =-0.2500 0.2165 0.0000 ( 35310 PWs)   bands (ev):

   -62.9025 -62.8592 -37.1057 -37.0640 -37.0525 -37.0096 -36.9260 -36.8839
   -15.1846 -15.0718 -14.5251 -14.3913  -7.2597  -6.9842  -6.1190  -5.9530
    -5.8739  -5.7255  -4.8947  -4.8250  -3.7468  -3.7052  -3.5944  -3.2622
    -2.9835  -2.8906  -0.1962   0.0828   0.2873   0.3789   0.8335

          k = 0.3125 0.1083 0.0000 ( 35310 PWs)   bands (ev):

   -62.9025 -62.8592 -37.1056 -37.0640 -37.0525 -37.0096 -36.9260 -36.8839
   -15.1855 -15.0712 -14.5260 -14.3902  -7.2595  -6.9841  -6.1216  -5.9505
    -5.8759  -5.7222  -4.8980  -4.8242  -3.7499  -3.7116  -3.5928  -3.2539
    -2.9811  -2.8871  -0.2022   0.0847   0.2896   0.3797   0.8182

          k =-0.3125 0.2526 0.0000 ( 35243 PWs)   bands (ev):

   -62.8952 -62.8520 -37.1733 -37.1317 -37.0382 -36.9954 -36.9438 -36.9017
   -14.8117 -14.7102 -14.3618 -14.2525  -7.4398  -7.2860  -6.4899  -6.3189
    -6.0352  -5.8184  -5.0919  -5.0197  -3.8543  -3.6064  -3.5632  -3.5056
    -2.9731  -2.8971  -0.0710   0.1208   0.3208   0.4667   1.1803

          k = 0.3750 0.1443 0.0000 ( 35243 PWs)   bands (ev):

   -62.8952 -62.8520 -37.1732 -37.1317 -37.0382 -36.9954 -36.9438 -36.9017
   -14.8129 -14.7095 -14.3626 -14.2513  -7.4397  -7.2854  -6.4914  -6.3180
    -6.0357  -5.8162  -5.0938  -5.0205  -3.8654  -3.6047  -3.5792  -3.4762
    -2.9698  -2.8990  -0.0751   0.1191   0.3232   0.4683   1.1614

          k =-0.3750 0.2887 0.0000 ( 35169 PWs)   bands (ev):

   -62.8896 -62.8464 -37.2246 -37.1831 -37.0273 -36.9844 -36.9574 -36.9153
   -14.4941 -14.4071 -14.2250 -14.1398  -7.6908  -7.5858  -6.8188  -6.6827
    -6.1349  -5.9138  -5.2002  -5.1424  -4.0534  -3.7211  -3.4670  -3.4163
    -2.8010  -2.7118   0.0992   0.2036   0.4599   0.6163   1.4894

          k = 0.4375 0.1804 0.0000 ( 35169 PWs)   bands (ev):

   -62.8896 -62.8464 -37.2246 -37.1831 -37.0273 -36.9844 -36.9574 -36.9153
   -14.4953 -14.4065 -14.2256 -14.1387  -7.6908  -7.5852  -6.8198  -6.6819
    -6.1348  -5.9130  -5.2006  -5.1437  -4.0598  -3.7216  -3.4828  -3.3896
    -2.7965  -2.7168   0.1014   0.1971   0.4593   0.6192   1.4700

          k =-0.4375 0.3248 0.0000 ( 35128 PWs)   bands (ev):

   -62.8866 -62.8434 -37.2522 -37.2107 -37.0214 -36.9785 -36.9648 -36.9227
   -14.3069 -14.2319 -14.1446 -14.0764  -7.8559  -7.7641  -7.0049  -6.8818
    -6.2222  -6.0080  -5.2447  -5.2017  -4.1631  -3.8230  -3.3795  -3.3060
    -2.6476  -2.5417   0.1973   0.2425   0.6379   0.7599   1.6901

          k = 0.5000 0.2165 0.0000 ( 35128 PWs)   bands (ev):

   -62.8866 -62.8434 -37.2522 -37.2107 -37.0214 -36.9785 -36.9648 -36.9227
   -14.3075 -14.2316 -14.1448 -14.0759  -7.8560  -7.7639  -7.0053  -6.8815
    -6.2221  -6.0079  -5.2444  -5.2024  -4.1653  -3.8228  -3.3871  -3.2951
    -2.6447  -2.5448   0.1999   0.2390   0.6375   0.7602   1.6798

          k = 0.2500 0.0000 0.0000 ( 35331 PWs)   bands (ev):

   -62.9115 -62.8682 -37.0700 -37.0272 -37.0175 -36.9759 -36.9076 -36.8653
   -15.5987 -15.4768 -14.7096 -14.5491  -7.3417  -6.9023  -5.7322  -5.6863
    -5.4436  -5.0772  -4.7332  -4.6833  -4.0634  -4.0271  -3.1980  -2.8654
    -2.6901  -2.5144  -0.1904   0.1076   0.3483   0.3888   0.4417

          k =-0.1875 0.2526 0.0000 ( 35357 PWs)   bands (ev):

   -62.9042 -62.8610 -37.0810 -37.0558 -37.0392 -37.0130 -36.9307 -36.8887
   -15.2671 -15.1533 -14.5597 -14.4218  -7.2017  -6.8706  -5.9764  -5.8615
    -5.7330  -5.5492  -5.1595  -5.0198  -3.9602  -3.9138  -3.2653  -3.0184
    -2.8868  -2.8219  -0.3267  -0.0155   0.3421   0.3980   0.5591

          k = 0.3125 0.0361 0.0000 ( 35357 PWs)   bands (ev):

   -62.9042 -62.8610 -37.0808 -37.0558 -37.0393 -37.0130 -36.9308 -36.8887
   -15.2688 -15.1523 -14.5614 -14.4198  -7.2012  -6.8712  -5.9834  -5.8493
    -5.7376  -5.5481  -5.1659  -5.0167  -3.9584  -3.9177  -3.2819  -3.0073
    -2.8779  -2.8103  -0.3347  -0.0140   0.3423   0.4025   0.5464

          k =-0.2500 0.2887 0.0000 ( 35341 PWs)   bands (ev):

   -62.8969 -62.8537 -37.1432 -37.1015 -37.0416 -36.9987 -36.9544 -36.9124
   -14.9055 -14.8016 -14.3981 -14.2833  -7.2744  -7.0788  -6.2883  -6.1640
    -5.9434  -5.7595  -5.3382  -5.1486  -4.0150  -3.9614  -3.5047  -3.2778
    -2.9191  -2.8613  -0.2848   0.0472   0.4101   0.4765   0.8342

          k = 0.3750 0.0722 0.0000 ( 35341 PWs)   bands (ev):

   -62.8969 -62.8537 -37.1431 -37.1016 -37.0416 -36.9987 -36.9545 -36.9124
   -14.9078 -14.8003 -14.3999 -14.2808  -7.2736  -7.0783  -6.2903  -6.1602
    -5.9503  -5.7541  -5.3422  -5.1486  -4.0166  -3.9650  -3.5079  -3.2617
    -2.9093  -2.8683  -0.2896   0.0467   0.4108   0.4813   0.8110

          k =-0.3125 0.3248 0.0000 ( 35215 PWs)   bands (ev):

   -62.8908 -62.8475 -37.1953 -37.1537 -37.0295 -36.9866 -36.9746 -36.9326
   -14.5662 -14.4760 -14.2479 -14.1573  -7.4714  -7.3457  -6.7158  -6.6233
    -6.0124  -5.7904  -5.3652  -5.1976  -4.0527  -3.9883  -3.7939  -3.5581
    -2.7792  -2.7205  -0.0843   0.2247   0.5173   0.5744   1.1642

          k = 0.4375 0.1083 0.0000 ( 35215 PWs)   bands (ev):

   -62.8908 -62.8475 -37.1952 -37.1538 -37.0295 -36.9866 -36.9747 -36.9326
   -14.5689 -14.4746 -14.2494 -14.1546  -7.4712  -7.3444  -6.7175  -6.6214
    -6.0142  -5.7887  -5.3674  -5.1994  -4.0788  -3.9788  -3.7820  -3.5444
    -2.7764  -2.7243  -0.0836   0.2173   0.5173   0.5794   1.1251

          k =-0.3750 0.3608 0.0000 ( 35141 PWs)   bands (ev):

   -62.8866 -62.8434 -37.2298 -37.1883 -37.0214 -36.9881 -36.9785 -36.9461
   -14.3174 -14.2415 -14.1380 -14.0683  -7.6437  -7.5461  -7.0178  -6.9321
    -6.1274  -5.9075  -5.3258  -5.2056  -4.0539  -3.9990  -3.9274  -3.7704
    -2.5939  -2.5137   0.1056   0.2530   0.6700   0.7836   1.4481

          k = 0.5000 0.1443 0.0000 ( 35141 PWs)   bands (ev):

   -62.8866 -62.8434 -37.2298 -37.1883 -37.0214 -36.9881 -36.9785 -36.9461
   -14.3197 -14.2406 -14.1387 -14.0663  -7.6437  -7.5451  -7.0187  -6.9314
    -6.1274  -5.9073  -5.3255  -5.2079  -4.0910  -3.9823  -3.9182  -3.7540
    -2.5934  -2.5153   0.1095   0.2474   0.6686   0.7850   1.4001

          k =-0.4375 0.3969 0.0000 ( 35180 PWs)   bands (ev):

   -62.8852 -62.8419 -37.2419 -37.2004 -37.0186 -36.9929 -36.9757 -36.9508
   -14.2259 -14.1559 -14.0963 -14.0354  -7.7103  -7.6197  -7.1254  -7.0400
    -6.1862  -5.9695  -5.2899  -5.2081  -4.1432  -3.9909  -3.9062  -3.8307
    -2.5015  -2.4071   0.1617   0.2128   0.7841   0.9029   1.5409

          k = 0.3750 0.0000 0.0000 ( 35337 PWs)   bands (ev):

   -62.8975 -62.8543 -37.1295 -37.0880 -37.0428 -36.9999 -36.9613 -36.9191
   -14.9408 -14.8319 -14.4125 -14.2907  -7.2021  -6.9854  -6.1600  -6.0767
    -5.9166  -5.7382  -5.4865  -5.2257  -4.1862  -4.1417  -3.3503  -3.1445
    -2.8957  -2.8640  -0.3716   0.0075   0.4371   0.4829   0.6550

          k =-0.2500 0.3608 0.0000 ( 35241 PWs)   bands (ev):

   -62.8914 -62.8481 -37.1716 -37.1299 -37.0307 -36.9920 -36.9878 -36.9501
   -14.6050 -14.5145 -14.2584 -14.1664  -7.3044  -7.1542  -6.6285  -6.5859
    -5.8734  -5.6794  -5.4890  -5.2479  -4.5073  -4.4374  -3.5838  -3.4277
    -2.8080  -2.7436  -0.2101   0.2152   0.5437   0.5853   0.8759

          k = 0.4375 0.0361 0.0000 ( 35241 PWs)   bands (ev):

   -62.8914 -62.8481 -37.1714 -37.1300 -37.0307 -36.9921 -36.9878 -36.9500
   -14.6094 -14.5121 -14.2611 -14.1619  -7.3032  -7.1527  -6.6282  -6.5820
    -5.8923  -5.6733  -5.4897  -5.2459  -4.5066  -4.4389  -3.5813  -3.4160
    -2.7995  -2.7539  -0.2085   0.2106   0.5485   0.5854   0.8495

          k =-0.3125 0.3969 0.0000 ( 35167 PWs)   bands (ev):

   -62.8866 -62.8434 -37.2020 -37.1604 -37.0214 -37.0169 -36.9787 -36.9749
   -14.3269 -14.2515 -14.1309 -14.0609  -7.4000  -7.2842  -7.0275  -6.9795
    -5.9570  -5.7433  -5.4109  -5.2060  -4.6727  -4.5701  -3.8908  -3.7030
    -2.6071  -2.5491  -0.0164   0.2325   0.7123   0.8156   1.0945

          k = 0.5000 0.0722 0.0000 ( 35167 PWs)   bands (ev):

   -62.8866 -62.8434 -37.2019 -37.1605 -37.0214 -37.0170 -36.9788 -36.9747
   -14.3317 -14.2495 -14.1325 -14.0566  -7.3994  -7.2821  -7.0272  -6.9793
    -5.9597  -5.7449  -5.4130  -5.2066  -4.6928  -4.5550  -3.8729  -3.7058
    -2.6060  -2.5526  -0.0130   0.2295   0.7072   0.8196   1.0494

          k =-0.3750 0.4330 0.0000 ( 35162 PWs)   bands (ev):

   -62.8841 -62.8408 -37.2180 -37.1765 -37.0309 -37.0164 -36.9890 -36.9735
   -14.1669 -14.1028 -14.0546 -14.0004  -7.4470  -7.3485  -7.2433  -7.1905
    -6.0974  -5.8810  -5.2970  -5.1553  -4.7118  -4.5753  -4.1027  -3.9008
    -2.4246  -2.3508   0.0188   0.0947   0.9116   1.0668   1.1989

          k = 0.5625 0.1083 0.0000 ( 35162 PWs)   bands (ev):

   -62.8841 -62.8408 -37.2179 -37.1765 -37.0309 -37.0164 -36.9890 -36.9735
   -14.1696 -14.1022 -14.0545 -13.9984  -7.4467  -7.3473  -7.2434  -7.1910
    -6.0976  -5.8813  -5.2975  -5.1563  -4.7244  -4.5678  -4.0912  -3.9040
    -2.4248  -2.3514   0.0203   0.0936   0.9086   1.0727   1.1730

          k = 0.5000 0.0000 0.0000 ( 35195 PWs)   bands (ev):

   -62.8866 -62.8434 -37.1874 -37.1460 -37.0320 -37.0215 -36.9900 -36.9785
   -14.3366 -14.2532 -14.1300 -14.0526  -7.2864  -7.1561  -7.0263  -7.0000
    -5.8042  -5.6316  -5.4210  -5.1950  -4.9949  -4.9646  -3.8005  -3.6822
    -2.6197  -2.5742  -0.0659   0.2142   0.7148   0.8308   0.9189

          k =-0.3125 0.4691 0.0000 ( 35193 PWs)   bands (ev):

   -62.8835 -62.8402 -37.1923 -37.1507 -37.0644 -37.0226 -37.0153 -36.9723
   -14.1340 -14.0764 -14.0305 -13.9816  -7.3371  -7.2982  -7.1707  -7.0768
    -5.9215  -5.7414  -5.3308  -5.3003  -5.1662  -5.0767  -4.1019  -3.9287
    -2.3827  -2.3301  -0.1082  -0.0094   0.8930   0.9500   1.1249

          k = 0.5625 0.0361 0.0000 ( 35193 PWs)   bands (ev):

   -62.8835 -62.8402 -37.1921 -37.1507 -37.0645 -37.0225 -37.0153 -36.9723
   -14.1414 -14.0748 -14.0303 -13.9761  -7.3374  -7.2952  -7.1728  -7.0732
    -5.9228  -5.7487  -5.3640  -5.2756  -5.1680  -5.0683  -4.0702  -3.9504
    -2.3828  -2.3316  -0.1064  -0.0098   0.8670   0.9771   1.1119

          k =-0.3750 0.5052 0.0000 ( 35190 PWs)   bands (ev):

   -62.8824 -62.8391 -37.1920 -37.1505 -37.0777 -37.0358 -37.0131 -36.9702
   -14.0669 -14.0153 -13.9892 -13.9509  -7.4368  -7.3982  -7.0943  -7.0208
    -6.0769  -5.8933  -5.3834  -5.2591  -5.1176  -5.0222  -4.2207  -4.0673
    -2.2573  -2.1972  -0.1870  -0.1458   0.9133   0.9773   1.2671

          k = 0.6250 0.0000 0.0000 ( 35172 PWs)   bands (ev):

   -62.8818 -62.8385 -37.1709 -37.1295 -37.1062 -37.0642 -37.0119 -36.9690
   -14.0320 -13.9874 -13.9625 -13.9326  -7.5033  -7.4685  -6.8675  -6.7767
    -6.0583  -6.0553  -5.6142  -5.5355  -5.0776  -4.9644  -4.2861  -4.1534
    -2.1740  -2.1242  -0.3023  -0.2622   0.8260   0.9065   1.3653

     the Fermi energy is    -1.0933 ev

!    total energy              =    -989.17763552 Ry
     total all-electron energy =    -19385.838058 Ry
     estimated scf accuracy    <          1.8E-09 Ry
     smearing contrib. (-TS)   =       0.00000899 Ry
     internal energy E=F+TS    =    -989.17764451 Ry

     The total energy is F=E-TS. E is the sum of the following terms:
     one-electron contribution =  -10389.68556023 Ry
     hartree contribution      =    5197.90914528 Ry
     xc contribution           =     -59.61178554 Ry
     ewald contribution        =    4897.13708681 Ry
     one-center paw contrib.   =    -634.92653083 Ry

     convergence has been achieved in  37 iterations

     Writing all to output data dir ./tmp/gsfe_003/mos2_gsfe_003.save/ :
     XML data file, charge density, pseudopotentials, collected wavefunctions

     init_run     :    100.41s CPU    102.14s WALL (       1 calls)
     electrons    :   5712.08s CPU   5829.52s WALL (       1 calls)

     Called by init_run:
     wfcinit      :     54.53s CPU     54.78s WALL (       1 calls)
     potinit      :     43.11s CPU     43.51s WALL (       1 calls)
     hinit0       :      0.34s CPU      0.36s WALL (       1 calls)

     Called by electrons:
     c_bands      :   4648.31s CPU   4675.86s WALL (      38 calls)
     sum_band     :    798.50s CPU    840.30s WALL (      38 calls)
     v_of_rho     :    165.29s CPU    178.05s WALL (      38 calls)
     newd         :     85.36s CPU    121.30s WALL (      38 calls)
     PAW_pot      :      7.76s CPU      7.77s WALL (      38 calls)
     mix_rho      :     50.58s CPU     51.33s WALL (      38 calls)
     vdW_kernel   :     39.63s CPU     39.64s WALL (       1 calls)

     Called by c_bands:
     init_us_2    :     42.43s CPU     42.47s WALL (    5621 calls)
     init_us_2:cp :     42.43s CPU     42.46s WALL (    5621 calls)
     cegterg      :   4308.30s CPU   4335.21s WALL (    2774 calls)

     Called by *egterg:
     cdiaghg      :      4.07s CPU      4.08s WALL (    8564 calls)
     h_psi        :   2707.18s CPU   2709.52s WALL (    8710 calls)
     s_psi        :    587.55s CPU    588.14s WALL (    8710 calls)
     g_psi        :     18.33s CPU     18.34s WALL (    5863 calls)

     Called by h_psi:
     h_psi:calbec :    769.63s CPU    769.86s WALL (    8710 calls)
     vloc_psi     :   1341.25s CPU   1342.18s WALL (    8710 calls)
     add_vuspsi   :    587.67s CPU    587.84s WALL (    8710 calls)

     General routines
     calbec       :   1105.81s CPU   1106.13s WALL (   11484 calls)
     fft          :     48.21s CPU     48.22s WALL (    2393 calls)
     ffts         :     24.84s CPU     24.85s WALL (    4504 calls)
     fftw         :   1201.67s CPU   1202.31s WALL (  483696 calls)
     interpolate  :      1.15s CPU      1.16s WALL (      38 calls)

     Parallel routines

     PWSCF        :      1h36m CPU      1h38m WALL


   This run was terminated on:  15:36:19  14Jun2026            

=------------------------------------------------------------------------------=
   JOB DONE.
=------------------------------------------------------------------------------=
Note: The following floating-point exceptions are signalling: IEEE_UNDERFLOW_FLAG IEEE_DENORMAL
