Authorization required, but no authorization protocol specified

Authorization required, but no authorization protocol specified

Authorization required, but no authorization protocol specified

Authorization required, but no authorization protocol specified

Authorization required, but no authorization protocol specified

Authorization required, but no authorization protocol specified

Authorization required, but no authorization protocol specified

Authorization required, but no authorization protocol specified


     Program PWSCF v.7.3 starts on 15Jun2026 at 14:48: 4 

     This program is part of the open-source Quantum ESPRESSO suite
     for quantum simulation of materials; please cite
         "P. Giannozzi et al., J. Phys.:Condens. Matter 21 395502 (2009);
         "P. Giannozzi et al., J. Phys.:Condens. Matter 29 465901 (2017);
         "P. Giannozzi et al., J. Chem. Phys. 152 154105 (2020);
          URL http://www.quantum-espresso.org", 
     in publications or presentations arising from this work. More details at
     http://www.quantum-espresso.org/quote

     Parallel version (MPI), running on     1 processors

     MPI processes distributed on     1 nodes
     11336 MiB available memory on the printing compute node when the environment starts

     Waiting for input...
     Reading input from standard input

     Current dimensions of program PWSCF are:
     Max number of different atomic species (ntypx) = 10
     Max number of k-points (npk) =  40000
     Max angular momentum in pseudopotentials (lmaxx) =  4
     file Mo.pbe-spn-kjpaw_psl.1.0.0.UPF: wavefunction(s)  4S 4D renormalized
     file S.pbe-n-kjpaw_psl.1.0.0.UPF: wavefunction(s)  3S 3P renormalized

     IMPORTANT: XC functional enforced from input :
     Exchange-correlation= VDW-DF2-B86R
                           (   1   4  26   0   2   0   0)
     Any further DFT definition will be discarded
     Please, verify this is what you really want


     Subspace diagonalization in iterative solution of the eigenvalue problem:
     a serial algorithm will be used


     G-vector sticks info
     --------------------
     sticks:   dense  smooth     PW     G-vecs:    dense   smooth      PW
     Sum        1573     769    223               797393   281171   43435

     Using Slab Decomposition



     bravais-lattice index     =            4
     lattice parameter (alat)  =       5.9715  a.u.
     unit-cell volume          =    2917.9067 (a.u.)^3
     number of atoms/cell      =            6
     number of atomic types    =            2
     number of electrons       =        52.00
     number of Kohn-Sham states=           31
     kinetic-energy cutoff     =      80.0000  Ry
     charge density cutoff     =     640.0000  Ry
     scf convergence threshold =      1.0E-08
     mixing beta               =       0.3000
     number of iterations used =            8  local-TF  mixing
     Exchange-correlation= VDW-DF2-B86R
                           (   1   4  26   0   2   0   0)

     celldm(1)=   5.971535  celldm(2)=   0.000000  celldm(3)=  15.822785
     celldm(4)=   0.000000  celldm(5)=   0.000000  celldm(6)=   0.000000

     crystal axes: (cart. coord. in units of alat)
               a(1) = (   1.000000   0.000000   0.000000 )  
               a(2) = (  -0.500000   0.866025   0.000000 )  
               a(3) = (   0.000000   0.000000  15.822785 )  

     reciprocal axes: (cart. coord. in units 2 pi/alat)
               b(1) = (  1.000000  0.577350 -0.000000 )  
               b(2) = (  0.000000  1.154701  0.000000 )  
               b(3) = (  0.000000 -0.000000  0.063200 )  


     PseudoPot. # 1 for Mo read from file:
     ./pseudo/Mo.pbe-spn-kjpaw_psl.1.0.0.UPF
     MD5 check sum: 4396e0c640fcce5c25f020efccf1ab12
     Pseudo is Projector augmented-wave + core cor, Zval = 14.0
     Generated using &quot;atomic&quot; code by A. Dal Corso  v.6.3
     Shape of augmentation charge: PSQ
     Using radial grid of 1229 points,  6 beta functions with: 
                l(1) =   0
                l(2) =   0
                l(3) =   1
                l(4) =   1
                l(5) =   2
                l(6) =   2
     Q(r) pseudized with 0 coefficients 


     PseudoPot. # 2 for S  read from file:
     ./pseudo/S.pbe-n-kjpaw_psl.1.0.0.UPF
     MD5 check sum: fb45dfebcf3e72a4e1bd4a866ec2e262
     Pseudo is Projector augmented-wave + core cor, Zval =  6.0
     Generated using &quot;atomic&quot; code by A. Dal Corso  v.6.3
     Shape of augmentation charge: PSQ
     Using radial grid of 1151 points,  6 beta functions with: 
                l(1) =   0
                l(2) =   0
                l(3) =   1
                l(4) =   1
                l(5) =   2
                l(6) =   2
     Q(r) pseudized with 0 coefficients 


     atomic species   valence    mass     pseudopotential
     Mo               14.00    95.96000     Mo( 1.00)
     S                 6.00    32.06000     S ( 1.00)

      6 Sym. Ops. (no inversion) found



   Cartesian axes

     site n.     atom                  positions (alat units)
         1        S      tau(   1) = (  -0.0000005   0.5773506   6.4231013  )
         2        Mo     tau(   2) = (   0.0000000   0.0000000   6.9204905  )
         3        S      tau(   3) = (  -0.0000005   0.5773506   7.4181013  )
         4        S      tau(   4) = (  -0.0000005   0.5773506   8.4034019  )
         5        Mo     tau(   5) = (   0.0000000   0.0000000   8.9017247  )
         6        S      tau(   6) = (  -0.0000005   0.5773506   9.3996835  )

     number of k points=    30  Methfessel-Paxton smearing, width (Ry)=  0.0200
                       cart. coord. in units 2pi/alat
        k(    1) = (   0.0000000   0.0000000   0.0000000), wk =   0.0078125
        k(    2) = (   0.0000000   0.0721688   0.0000000), wk =   0.0468750
        k(    3) = (   0.0000000   0.1443376   0.0000000), wk =   0.0468750
        k(    4) = (   0.0000000   0.2165064   0.0000000), wk =   0.0468750
        k(    5) = (   0.0000000   0.2886751   0.0000000), wk =   0.0468750
        k(    6) = (   0.0000000   0.3608439   0.0000000), wk =   0.0468750
        k(    7) = (   0.0000000   0.4330127   0.0000000), wk =   0.0468750
        k(    8) = (   0.0000000   0.5051815   0.0000000), wk =   0.0468750
        k(    9) = (   0.0000000  -0.5773503   0.0000000), wk =   0.0234375
        k(   10) = (   0.0625000   0.1082532   0.0000000), wk =   0.0468750
        k(   11) = (   0.0625000   0.1804220   0.0000000), wk =   0.0937500
        k(   12) = (   0.0625000   0.2525907   0.0000000), wk =   0.0937500
        k(   13) = (   0.0625000   0.3247595   0.0000000), wk =   0.0937500
        k(   14) = (   0.0625000   0.3969283   0.0000000), wk =   0.0937500
        k(   15) = (   0.0625000   0.4690971   0.0000000), wk =   0.0937500
        k(   16) = (   0.0625000   0.5412659   0.0000000), wk =   0.0937500
        k(   17) = (   0.1250000   0.2165064   0.0000000), wk =   0.0468750
        k(   18) = (   0.1250000   0.2886751   0.0000000), wk =   0.0937500
        k(   19) = (   0.1250000   0.3608439   0.0000000), wk =   0.0937500
        k(   20) = (   0.1250000   0.4330127   0.0000000), wk =   0.0937500
        k(   21) = (   0.1250000   0.5051815   0.0000000), wk =   0.0937500
        k(   22) = (   0.1250000   0.5773503   0.0000000), wk =   0.0468750
        k(   23) = (   0.1875000   0.3247595   0.0000000), wk =   0.0468750
        k(   24) = (   0.1875000   0.3969283   0.0000000), wk =   0.0937500
        k(   25) = (   0.1875000   0.4690971   0.0000000), wk =   0.0937500
        k(   26) = (   0.1875000   0.5412659   0.0000000), wk =   0.0937500
        k(   27) = (   0.2500000   0.4330127   0.0000000), wk =   0.0468750
        k(   28) = (   0.2500000   0.5051815   0.0000000), wk =   0.0937500
        k(   29) = (   0.2500000   0.5773503   0.0000000), wk =   0.0468750
        k(   30) = (   0.3125000   0.5412659   0.0000000), wk =   0.0468750

     Dense  grid:   797393 G-vectors     FFT dimensions: (  50,  50, 768)

     Smooth grid:   281171 G-vectors     FFT dimensions: (  36,  36, 540)

     Estimated max dynamical RAM per process >       3.30 GB

     Initial potential from superposition of free atoms

     starting charge      51.9981, renormalised to      52.0000

     negative rho (up, down):  1.890E-04 0.000E+00


     %%%%%%%%%%%%%%%%%%%%%%%%%%%%%%%%%%%%%%%%%%%%%%%%%%%%%%%%%%%%%%%%%%%%%%%%
     %                                                                      %
     % You are using vdW-DF, which was implemented by the Thonhauser group. %
     % Please cite the following two papers that made this development      %
     % possible and the two reviews that describe the various versions:     %
     %                                                                      %
     %   T. Thonhauser et al., PRL 115, 136402 (2015).                      %
     %   T. Thonhauser et al., PRB 76, 125112 (2007).                       %
     %   K. Berland et al., Rep. Prog. Phys. 78, 066501 (2015).             %
     %   D.C. Langreth et al., J. Phys.: Condens. Matter 21, 084203 (2009). %
     %                                                                      %
     % If you are calculating stress with vdW-DF, please also cite:         %
     %                                                                      %
     %   R. Sabatini et al., J. Phys.: Condens. Matter 24, 424209 (2012).   %
     %                                                                      %
     %%%%%%%%%%%%%%%%%%%%%%%%%%%%%%%%%%%%%%%%%%%%%%%%%%%%%%%%%%%%%%%%%%%%%%%%

     %%%%%%%%%%%%%%%%%%%%%%%%%%%%%%%%%%%%%%%%%%%%%%%%%%%%%%%%%%%%%%%%%%%%%%%%
     %                                                                      %
     %  vdW-DF NEWS:                                                        %
     %                                                                      %
     %  * vdW-DF3 is now available. DOI: 10.1021/acs.jctc.0c00471           %
     %    use with input_dft = 'vdW-DF3-opt1' or 'vdW-DF3-opt2'             %
     %                                                                      %
     %  * Unscreened and range-separated hybrid vdW-DF-cx functionals       %
     %    DOI: 10.1063/1.4986522 and 10.1088/1361-648X/ac2ad2               %
     %    use with input_dft = 'vdW-DF-cx0'    and 'vdW-DF-ahcx'            %
     %  * Unscreened and range-separated hybrid vdW-DF2-b86r functionals    %
     %    DOI: 10.1063/1.4986522 and DOI: 10.1103/PhysRevX.12.041003        %
     %    use with input_dft = 'vdW-DF2-br0' and 'vdW-DF2-ahbr'             %
     %                                                                      %
     %%%%%%%%%%%%%%%%%%%%%%%%%%%%%%%%%%%%%%%%%%%%%%%%%%%%%%%%%%%%%%%%%%%%%%%%


     Starting wfcs are   36 randomized atomic wfcs
     Checking if some PAW data can be deallocated... 

     total cpu time spent up to now is       71.0 secs

     Self-consistent Calculation

     iteration #  1     ecut=    80.00 Ry     beta= 0.30
     Davidson diagonalization with overlap
     ethr =  1.00E-02,  avg # of iterations =  2.5

     Threshold (ethr) on eigenvalues was too large:
     Diagonalizing with lowered threshold

     Davidson diagonalization with overlap
     ethr =  2.85E-04,  avg # of iterations =  3.8

     negative rho (up, down):  1.070E-04 0.000E+00

     total cpu time spent up to now is      235.1 secs

     total energy              =    -989.20911838 Ry
     estimated scf accuracy    <       0.23386962 Ry

     iteration #  2     ecut=    80.00 Ry     beta= 0.30
     Davidson diagonalization with overlap
     ethr =  4.50E-04,  avg # of iterations =  1.0

     negative rho (up, down):  1.694E-04 0.000E+00

     total cpu time spent up to now is      301.2 secs

     total energy              =    -989.13267044 Ry
     estimated scf accuracy    <       0.16882891 Ry

     iteration #  3     ecut=    80.00 Ry     beta= 0.30
     Davidson diagonalization with overlap
     ethr =  3.25E-04,  avg # of iterations =  2.0

     negative rho (up, down):  2.816E-05 0.000E+00

     total cpu time spent up to now is      383.2 secs

     total energy              =    -989.16662447 Ry
     estimated scf accuracy    <       0.01564194 Ry

     iteration #  4     ecut=    80.00 Ry     beta= 0.30
     Davidson diagonalization with overlap
     ethr =  3.01E-05,  avg # of iterations =  2.0

     negative rho (up, down):  7.531E-06 0.000E+00

     total cpu time spent up to now is      466.4 secs

     total energy              =    -989.16711739 Ry
     estimated scf accuracy    <       0.00815779 Ry

     iteration #  5     ecut=    80.00 Ry     beta= 0.30
     Davidson diagonalization with overlap
     ethr =  1.57E-05,  avg # of iterations =  3.4

     negative rho (up, down):  2.818E-06 0.000E+00

     total cpu time spent up to now is      542.2 secs

     total energy              =    -989.16749153 Ry
     estimated scf accuracy    <       0.00269561 Ry

     iteration #  6     ecut=    80.00 Ry     beta= 0.30
     Davidson diagonalization with overlap
     ethr =  5.18E-06,  avg # of iterations =  4.5

     negative rho (up, down):  7.113E-07 0.000E+00

     total cpu time spent up to now is      613.8 secs

     total energy              =    -989.16725300 Ry
     estimated scf accuracy    <       0.00242462 Ry

     iteration #  7     ecut=    80.00 Ry     beta= 0.30
     Davidson diagonalization with overlap
     ethr =  4.66E-06,  avg # of iterations =  1.4

     negative rho (up, down):  5.112E-07 0.000E+00

     total cpu time spent up to now is      678.4 secs

     total energy              =    -989.16693436 Ry
     estimated scf accuracy    <       0.00250995 Ry

     iteration #  8     ecut=    80.00 Ry     beta= 0.30
     Davidson diagonalization with overlap
     ethr =  4.66E-06,  avg # of iterations =  3.3

     negative rho (up, down):  8.601E-04 0.000E+00

     total cpu time spent up to now is      756.2 secs

     total energy              =    -989.16641839 Ry
     estimated scf accuracy    <       0.00384653 Ry

     iteration #  9     ecut=    80.00 Ry     beta= 0.30
     Davidson diagonalization with overlap
     ethr =  4.66E-06,  avg # of iterations =  2.4

     negative rho (up, down):  1.877E-03 0.000E+00

     total cpu time spent up to now is      831.1 secs

     total energy              =    -989.16680787 Ry
     estimated scf accuracy    <       0.00074191 Ry

     iteration # 10     ecut=    80.00 Ry     beta= 0.30
     Davidson diagonalization with overlap
     ethr =  1.43E-06,  avg # of iterations =  3.0

     negative rho (up, down):  3.256E-03 0.000E+00

     total cpu time spent up to now is      899.7 secs

     total energy              =    -989.16682190 Ry
     estimated scf accuracy    <       0.00051137 Ry

     iteration # 11     ecut=    80.00 Ry     beta= 0.30
     Davidson diagonalization with overlap
     ethr =  9.83E-07,  avg # of iterations =  2.8

     negative rho (up, down):  4.693E-03 0.000E+00

     total cpu time spent up to now is      975.4 secs

     total energy              =    -989.16686129 Ry
     estimated scf accuracy    <       0.00048353 Ry

     iteration # 12     ecut=    80.00 Ry     beta= 0.30
     Davidson diagonalization with overlap
     ethr =  9.30E-07,  avg # of iterations =  3.3

     negative rho (up, down):  5.260E-03 0.000E+00

     total cpu time spent up to now is     1048.5 secs

     total energy              =    -989.16672816 Ry
     estimated scf accuracy    <       0.00082708 Ry

     iteration # 13     ecut=    80.00 Ry     beta= 0.30
     Davidson diagonalization with overlap
     ethr =  9.30E-07,  avg # of iterations =  2.0

     negative rho (up, down):  5.835E-03 0.000E+00

     total cpu time spent up to now is     1122.7 secs

     total energy              =    -989.16672079 Ry
     estimated scf accuracy    <       0.00037717 Ry

     iteration # 14     ecut=    80.00 Ry     beta= 0.30
     Davidson diagonalization with overlap
     ethr =  7.25E-07,  avg # of iterations =  2.1

     negative rho (up, down):  5.358E-03 0.000E+00

     total cpu time spent up to now is     1192.7 secs

     total energy              =    -989.16675875 Ry
     estimated scf accuracy    <       0.00019125 Ry

     iteration # 15     ecut=    80.00 Ry     beta= 0.30
     Davidson diagonalization with overlap
     ethr =  3.68E-07,  avg # of iterations =  2.9

     negative rho (up, down):  5.207E-03 0.000E+00

     total cpu time spent up to now is     1262.3 secs

     total energy              =    -989.16676484 Ry
     estimated scf accuracy    <       0.00020741 Ry

     iteration # 16     ecut=    80.00 Ry     beta= 0.30
     Davidson diagonalization with overlap
     ethr =  3.68E-07,  avg # of iterations =  1.0

     negative rho (up, down):  3.510E-03 0.000E+00

     total cpu time spent up to now is     1325.5 secs

     total energy              =    -989.16668526 Ry
     estimated scf accuracy    <       0.00016588 Ry

     iteration # 17     ecut=    80.00 Ry     beta= 0.30
     Davidson diagonalization with overlap
     ethr =  3.19E-07,  avg # of iterations =  3.0

     negative rho (up, down):  3.021E-03 0.000E+00

     total cpu time spent up to now is     1398.5 secs

     total energy              =    -989.16669225 Ry
     estimated scf accuracy    <       0.00014332 Ry

     iteration # 18     ecut=    80.00 Ry     beta= 0.30
     Davidson diagonalization with overlap
     ethr =  2.76E-07,  avg # of iterations =  3.0

     negative rho (up, down):  2.389E-03 0.000E+00

     total cpu time spent up to now is     1480.4 secs

     total energy              =    -989.16676478 Ry
     estimated scf accuracy    <       0.00010789 Ry

     iteration # 19     ecut=    80.00 Ry     beta= 0.30
     Davidson diagonalization with overlap
     ethr =  2.07E-07,  avg # of iterations =  2.0

     negative rho (up, down):  1.692E-03 0.000E+00

     total cpu time spent up to now is     1553.9 secs

     total energy              =    -989.16677469 Ry
     estimated scf accuracy    <       0.00005657 Ry

     iteration # 20     ecut=    80.00 Ry     beta= 0.30
     Davidson diagonalization with overlap
     ethr =  1.09E-07,  avg # of iterations =  2.4

     negative rho (up, down):  1.078E-03 0.000E+00

     total cpu time spent up to now is     1625.5 secs

     total energy              =    -989.16679503 Ry
     estimated scf accuracy    <       0.00001133 Ry

     iteration # 21     ecut=    80.00 Ry     beta= 0.30
     Davidson diagonalization with overlap
     ethr =  2.18E-08,  avg # of iterations =  4.9

     negative rho (up, down):  9.250E-04 0.000E+00

     total cpu time spent up to now is     1707.3 secs

     total energy              =    -989.16679451 Ry
     estimated scf accuracy    <       0.00001884 Ry

     iteration # 22     ecut=    80.00 Ry     beta= 0.30
     Davidson diagonalization with overlap
     ethr =  2.18E-08,  avg # of iterations =  3.0

     negative rho (up, down):  5.243E-04 0.000E+00

     total cpu time spent up to now is     1782.0 secs

     total energy              =    -989.16679714 Ry
     estimated scf accuracy    <       0.00000122 Ry

     iteration # 23     ecut=    80.00 Ry     beta= 0.30
     Davidson diagonalization with overlap
     ethr =  2.35E-09,  avg # of iterations =  2.2

     negative rho (up, down):  2.600E-04 0.000E+00

     total cpu time spent up to now is     1859.5 secs

     total energy              =    -989.16679821 Ry
     estimated scf accuracy    <       0.00000097 Ry

     iteration # 24     ecut=    80.00 Ry     beta= 0.30
     Davidson diagonalization with overlap
     ethr =  1.87E-09,  avg # of iterations =  2.0

     negative rho (up, down):  2.422E-04 0.000E+00

     total cpu time spent up to now is     1931.4 secs

     total energy              =    -989.16679872 Ry
     estimated scf accuracy    <       0.00000015 Ry

     iteration # 25     ecut=    80.00 Ry     beta= 0.30
     Davidson diagonalization with overlap
     ethr =  2.88E-10,  avg # of iterations =  4.2

     negative rho (up, down):  2.390E-04 0.000E+00

     total cpu time spent up to now is     2008.4 secs

     total energy              =    -989.16679858 Ry
     estimated scf accuracy    <       0.00000005 Ry

     iteration # 26     ecut=    80.00 Ry     beta= 0.30
     Davidson diagonalization with overlap
     ethr =  1.04E-10,  avg # of iterations =  2.9

     negative rho (up, down):  2.301E-04 0.000E+00

     total cpu time spent up to now is     2088.2 secs

     total energy              =    -989.16679871 Ry
     estimated scf accuracy    <       0.00000005 Ry

     iteration # 27     ecut=    80.00 Ry     beta= 0.30
     Davidson diagonalization with overlap
     ethr =  8.72E-11,  avg # of iterations =  2.2

     negative rho (up, down):  2.202E-04 0.000E+00

     total cpu time spent up to now is     2161.6 secs

     End of self-consistent calculation

          k = 0.0000 0.0000 0.0000 ( 35507 PWs)   bands (ev):

   -62.9021 -62.9008 -37.0800 -37.0780 -36.8383 -36.8383 -36.8359 -36.8359
   -16.2726 -16.1277 -15.0245 -14.8047  -8.0410  -7.4824  -4.6383  -4.6383
    -4.6190  -4.6190  -4.5547  -3.5301  -3.5300  -3.5016  -3.5016  -3.4165
    -2.4111  -1.6061   0.6667   0.6668   0.7689   0.7689   0.8976

          k = 0.0000 0.0722 0.0000 ( 35493 PWs)   bands (ev):

   -62.9006 -62.8992 -37.0770 -37.0750 -36.8539 -36.8515 -36.8419 -36.8395
   -16.2136 -16.0682 -14.9977 -14.7807  -7.9737  -7.4137  -4.7785  -4.7535
    -4.6930  -4.5764  -4.5564  -3.9365  -3.6272  -3.5980  -3.4795  -3.0814
    -2.4144  -1.6509   0.5502   0.6777   0.7210   0.7336   0.8808

          k = 0.0000 0.1443 0.0000 ( 35435 PWs)   bands (ev):

   -62.8961 -62.8948 -37.0683 -37.0663 -36.8980 -36.8955 -36.8519 -36.8495
   -16.0414 -15.8951 -14.9197 -14.7106  -7.7867  -7.2260  -5.1426  -5.0965
    -5.0085  -4.4515  -4.3984  -4.3760  -3.8783  -3.8475  -3.4572  -2.8919
    -2.4623  -1.8268   0.2250   0.4741   0.4827   0.6253   0.7250

          k = 0.0000 0.2165 0.0000 ( 35345 PWs)   bands (ev):

   -62.8895 -62.8881 -37.0553 -37.0534 -36.9634 -36.9609 -36.8669 -36.8645
   -15.7713 -15.6238 -14.7976 -14.6010  -7.5337  -6.9943  -5.6070  -5.5050
    -5.3918  -4.9792  -4.2077  -4.1717  -4.1228  -4.0988  -3.5868  -2.9360
    -2.6345  -2.1731  -0.1071   0.2963   0.4165   0.4913   0.5356

          k = 0.0000 0.2887 0.0000 ( 35323 PWs)   bands (ev):

   -62.8816 -62.8803 -37.0399 -37.0398 -37.0380 -37.0371 -36.8845 -36.8821
   -15.4297 -15.2813 -14.6436 -14.4634  -7.3381  -6.9128  -6.0459  -5.7874
    -5.7804  -5.4829  -4.5333  -4.4980  -3.8320  -3.8040  -3.7679  -3.1407
    -2.9190  -2.5796  -0.2064   0.2341   0.2717   0.3397   0.7181

          k = 0.0000 0.3608 0.0000 ( 35299 PWs)   bands (ev):

   -62.8738 -62.8724 -37.1153 -37.1125 -37.0245 -37.0226 -36.9021 -36.8996
   -15.0563 -14.9073 -14.4763 -14.3149  -7.3790  -7.1336  -6.3986  -6.0767
    -6.0641  -5.7247  -4.8216  -4.7850  -4.0862  -3.4872  -3.4356  -3.3670
    -3.1327  -2.8303  -0.0787   0.1335   0.2174   0.3742   1.0395

          k = 0.0000 0.4330 0.0000 ( 35224 PWs)   bands (ev):

   -62.8671 -62.8657 -37.1786 -37.1757 -37.0114 -37.0096 -36.9169 -36.9145
   -14.7081 -14.5578 -14.3196 -14.1781  -7.6270  -7.4613  -6.7275  -6.4538
    -6.2241  -5.7944  -5.0423  -5.0048  -4.2839  -3.5319  -3.2339  -3.1631
    -3.1166  -2.7856   0.1302   0.1795   0.1864   0.5377   1.3204

          k = 0.0000 0.5052 0.0000 ( 35152 PWs)   bands (ev):

   -62.8626 -62.8613 -37.2205 -37.2176 -37.0027 -37.0008 -36.9268 -36.9243
   -14.4584 -14.3040 -14.2007 -14.0780  -7.8686  -7.7184  -6.9721  -6.7249
    -6.3292  -5.9085  -5.1800  -5.1420  -4.4019  -3.6293  -3.0795  -2.9925
    -2.9537  -2.5677   0.1831   0.2147   0.4640   0.6999   1.4758

          k = 0.0000-0.5774 0.0000 ( 35026 PWs)   bands (ev):

   -62.8610 -62.8597 -37.2352 -37.2323 -36.9996 -36.9977 -36.9303 -36.9278
   -14.3692 -14.2116 -14.1531 -14.0396  -7.9647  -7.8152  -7.0613  -6.8211
    -6.3738  -5.9633  -5.2267  -5.1885  -4.4399  -3.6614  -3.0292  -2.9358
    -2.8634  -2.4511   0.2145   0.2363   0.6064   0.7752   1.5128

          k = 0.0625 0.1083 0.0000 ( 35467 PWs)   bands (ev):

   -62.8976 -62.8962 -37.0711 -37.0691 -36.8833 -36.8808 -36.8491 -36.8467
   -16.0979 -15.9519 -14.9453 -14.7336  -7.8461  -7.2847  -5.0269  -4.9900
    -4.9088  -4.4586  -4.4370  -4.2925  -3.8467  -3.8095  -3.4081  -2.8962
    -2.4386  -1.7596   0.3275   0.5110   0.5226   0.6663   0.7298

          k = 0.0625 0.1804 0.0000 ( 35370 PWs)   bands (ev):

   -62.8920 -62.8907 -37.0603 -37.0583 -36.9368 -36.9343 -36.8628 -36.8604
   -15.8766 -15.7295 -14.8451 -14.6435  -7.6220  -7.0678  -5.4290  -5.3604
    -5.2249  -4.7419  -4.2530  -4.2222  -4.2137  -4.1635  -3.3987  -2.8207
    -2.5460  -2.0178  -0.0149   0.3209   0.3938   0.4731   0.5882

          k = 0.0625 0.2526 0.0000 ( 35362 PWs)   bands (ev):

   -62.8848 -62.8834 -37.0461 -37.0442 -37.0061 -37.0035 -36.8808 -36.8784
   -15.5701 -15.4220 -14.7064 -14.5193  -7.3840  -6.8906  -5.8620  -5.6934
    -5.5861  -5.2375  -4.6222  -4.5190  -3.9798  -3.9440  -3.5401  -2.9422
    -2.7780  -2.3938  -0.2391   0.1839   0.2995   0.4482   0.4980

          k = 0.0625 0.3248 0.0000 ( 35310 PWs)   bands (ev):

   -62.8769 -62.8756 -37.0802 -37.0775 -37.0307 -37.0288 -36.9002 -36.8977
   -15.2110 -15.0622 -14.5444 -14.3749  -7.2956  -6.9752  -6.2176  -5.9468
    -5.8757  -5.6678  -4.9291  -4.7970  -3.8235  -3.7107  -3.6957  -3.1565
    -3.0049  -2.7161  -0.2556   0.1318   0.2257   0.4204   0.7736

          k = 0.0625 0.3969 0.0000 ( 35243 PWs)   bands (ev):

   -62.8696 -62.8683 -37.1479 -37.1451 -37.0164 -37.0146 -36.9180 -36.9155
   -14.8469 -14.6973 -14.3802 -14.2300  -7.4598  -7.2697  -6.5567  -6.2869
    -6.1551  -5.7317  -5.1208  -4.9932  -4.0640  -3.6069  -3.5649  -3.3104
    -3.0033  -2.7790  -0.1164   0.1630   0.2751   0.4945   1.1032

          k = 0.0625 0.4691 0.0000 ( 35169 PWs)   bands (ev):

   -62.8641 -62.8627 -37.1993 -37.1964 -37.0055 -37.0037 -36.9316 -36.9291
   -14.5435 -14.3912 -14.2394 -14.1089  -7.7138  -7.5606  -6.8761  -6.6473
    -6.2712  -5.8305  -5.2231  -5.1183  -4.2783  -3.5931  -3.4995  -3.2882
    -2.8411  -2.6039   0.0767   0.2310   0.4261   0.6351   1.3914

          k = 0.0625 0.5413 0.0000 ( 35128 PWs)   bands (ev):

   -62.8610 -62.8597 -37.2269 -37.2240 -36.9996 -36.9977 -36.9390 -36.9365
   -14.3726 -14.2153 -14.1514 -14.0366  -7.8835  -7.7345  -7.0606  -6.8446
    -6.3531  -5.9310  -5.2631  -5.1783  -4.3993  -3.6629  -3.4150  -3.2065
    -2.6966  -2.4181   0.1900   0.2598   0.6110   0.7822   1.5797

          k = 0.1250 0.2165 0.0000 ( 35331 PWs)   bands (ev):

   -62.8859 -62.8845 -37.0483 -37.0463 -36.9921 -36.9894 -36.8817 -36.8792
   -15.6184 -15.4704 -14.7278 -14.5384  -7.4023  -6.8866  -5.7810  -5.6481
    -5.4631  -5.0674  -4.7643  -4.6514  -4.0604  -4.0234  -3.3641  -2.8165
    -2.7136  -2.2981  -0.2572   0.1392   0.3122   0.3648   0.4600

          k = 0.1250 0.2887 0.0000 ( 35357 PWs)   bands (ev):

   -62.8786 -62.8773 -37.0555 -37.0528 -37.0341 -37.0321 -36.9050 -36.9025
   -15.2927 -15.1439 -14.5796 -14.4057  -7.2447  -6.8647  -6.0777  -5.7755
    -5.7673  -5.5320  -5.2058  -4.9748  -3.9688  -3.9068  -3.4673  -2.9488
    -2.9035  -2.5851  -0.3906   0.0235   0.2830   0.4685   0.4966

          k = 0.1250 0.3608 0.0000 ( 35341 PWs)   bands (ev):

   -62.8714 -62.8700 -37.1178 -37.1150 -37.0198 -37.0179 -36.9287 -36.9262
   -14.9387 -14.7892 -14.4177 -14.2618  -7.2939  -7.0704  -6.3437  -6.1236
    -6.0908  -5.6745  -5.3723  -5.1044  -4.0517  -3.9451  -3.6795  -3.0976
    -2.9374  -2.7514  -0.3329   0.0818   0.3662   0.5245   0.7616

          k = 0.1250 0.4330 0.0000 ( 35215 PWs)   bands (ev):

   -62.8652 -62.8638 -37.1700 -37.1671 -37.0077 -37.0059 -36.9489 -36.9464
   -14.6118 -14.4604 -14.2647 -14.1282  -7.4889  -7.3278  -6.7559  -6.5886
    -6.1882  -5.7032  -5.3951  -5.1567  -4.1723  -3.9614  -3.9091  -3.3166
    -2.8074  -2.6558  -0.1143   0.2538   0.4914   0.5984   1.0651

          k = 0.1250 0.5052 0.0000 ( 35141 PWs)   bands (ev):

   -62.8610 -62.8597 -37.2045 -37.2016 -36.9996 -36.9978 -36.9624 -36.9599
   -14.3808 -14.2244 -14.1471 -14.0293  -7.6681  -7.5196  -7.0567  -6.8989
    -6.2865  -5.8313  -5.3563  -5.1635  -4.3324  -3.9824  -3.9214  -3.4890
    -2.6262  -2.4484   0.0891   0.2761   0.6471   0.8144   1.3301

          k = 0.1250 0.5774 0.0000 ( 35180 PWs)   bands (ev):

   -62.8596 -62.8583 -37.2166 -37.2137 -36.9968 -36.9949 -36.9671 -36.9646
   -14.2997 -14.1398 -14.0994 -13.9906  -7.7383  -7.5903  -7.1635  -7.0075
    -6.3360  -5.8984  -5.3242  -5.1575  -4.4222  -3.9811  -3.9118  -3.5436
    -2.5351  -2.3365   0.1440   0.2372   0.7569   0.9539   1.4596

          k = 0.1875 0.3248 0.0000 ( 35337 PWs)   bands (ev):

   -62.8720 -62.8706 -37.1042 -37.1014 -37.0210 -37.0191 -36.9355 -36.9330
   -14.9707 -14.8212 -14.4303 -14.2725  -7.2233  -6.9813  -6.1839  -6.0976
    -6.0349  -5.6613  -5.5146  -5.1705  -4.2066  -4.1232  -3.5422  -2.9903
    -2.9201  -2.7341  -0.4155   0.0392   0.3968   0.5401   0.5985

          k = 0.1875 0.3969 0.0000 ( 35241 PWs)   bands (ev):

   -62.8658 -62.8644 -37.1461 -37.1433 -37.0089 -37.0070 -36.9663 -36.9638
   -14.6496 -14.4985 -14.2769 -14.1371  -7.3165  -7.1447  -6.6493  -6.5496
    -6.1149  -5.5707  -5.5227  -5.1847  -4.5282  -4.4192  -3.7789  -3.1721
    -2.8186  -2.7167  -0.2400   0.2435   0.5365   0.5982   0.7816

          k = 0.1875 0.4691 0.0000 ( 35167 PWs)   bands (ev):

   -62.8610 -62.8597 -37.1767 -37.1738 -36.9996 -36.9978 -36.9913 -36.9887
   -14.3893 -14.2336 -14.1424 -14.0217  -7.4183  -7.2663  -7.0493  -6.9496
    -6.1610  -5.6541  -5.4479  -5.1602  -4.7305  -4.5324  -4.0695  -3.4362
    -2.6275  -2.5239  -0.0336   0.2560   0.6776   0.8507   0.9625

          k = 0.1875 0.5413 0.0000 ( 35162 PWs)   bands (ev):

   -62.8585 -62.8572 -37.1927 -37.1898 -37.0052 -37.0026 -36.9946 -36.9928
   -14.2477 -14.0863 -14.0561 -13.9505  -7.4759  -7.3234  -7.2602  -7.1637
    -6.2645  -5.8147  -5.3370  -5.0976  -4.8188  -4.5395  -4.2763  -3.6171
    -2.4465  -2.3188   0.0097   0.1090   0.8594   1.0610   1.1537

          k = 0.2500 0.4330 0.0000 ( 35195 PWs)   bands (ev):

   -62.8610 -62.8597 -37.1622 -37.1593 -37.0062 -37.0036 -36.9996 -36.9978
   -14.3929 -14.2374 -14.1404 -14.0185  -7.3026  -7.1462  -7.0457  -6.9691
    -6.0528  -5.4843  -5.4800  -5.1561  -5.0379  -4.9015  -4.0180  -3.3966
    -2.6365  -2.5618  -0.0864   0.2413   0.6620   0.8459   0.8575

          k = 0.2500 0.5052 0.0000 ( 35193 PWs)   bands (ev):

   -62.8579 -62.8566 -37.1669 -37.1640 -37.0388 -37.0362 -36.9934 -36.9916
   -14.2209 -14.0590 -14.0317 -13.9271  -7.3668  -7.2686  -7.1810  -7.0564
    -6.1081  -5.6684  -5.4662  -5.2630  -5.1687  -4.9922  -4.2966  -3.6413
    -2.4001  -2.3188  -0.1116   0.0010   0.7283   1.0133   1.1534

          k = 0.2500 0.5774 0.0000 ( 35190 PWs)   bands (ev):

   -62.8568 -62.8554 -37.1667 -37.1639 -37.0521 -37.0494 -36.9913 -36.9895
   -14.1626 -13.9987 -13.9871 -13.8898  -7.4627  -7.3713  -7.1159  -6.9896
    -6.2170  -5.8504  -5.5052  -5.2125  -5.1421  -4.9616  -4.4408  -3.7533
    -2.2748  -2.1823  -0.1843  -0.1433   0.7379   1.1346   1.2036

          k = 0.3125 0.5413 0.0000 ( 35172 PWs)   bands (ev):

   -62.8562 -62.8548 -37.1457 -37.1428 -37.0805 -37.0779 -36.9901 -36.9883
   -14.1335 -13.9695 -13.9610 -13.8665  -7.5241  -7.4444  -6.8862  -6.7545
    -6.1391  -5.9648  -5.9201  -5.3578  -5.1443  -4.9105  -4.5254  -3.8192
    -2.1922  -2.1129  -0.2926  -0.2665   0.6415   1.1299   1.2190

     the Fermi energy is    -1.0611 ev

!    total energy              =    -989.16679868 Ry
     total all-electron energy =    -19385.827221 Ry
     estimated scf accuracy    <          3.5E-09 Ry
     smearing contrib. (-TS)   =       0.00003382 Ry
     internal energy E=F+TS    =    -989.16683250 Ry

     The total energy is F=E-TS. E is the sum of the following terms:
     one-electron contribution =  -10389.80194813 Ry
     hartree contribution      =    5197.97639821 Ry
     xc contribution           =     -59.62631988 Ry
     ewald contribution        =    4897.21451415 Ry
     one-center paw contrib.   =    -634.92947685 Ry

     convergence has been achieved in  27 iterations

     Writing all to output data dir ./tmp/gsfe_020/mos2_gsfe_020.save/ :
     XML data file, charge density, pseudopotentials, collected wavefunctions

     init_run     :     69.36s CPU     70.92s WALL (       1 calls)
     electrons    :   2012.99s CPU   2090.63s WALL (       1 calls)

     Called by init_run:
     wfcinit      :     22.56s CPU     22.68s WALL (       1 calls)
     potinit      :     43.96s CPU     44.39s WALL (       1 calls)
     hinit0       :      0.33s CPU      0.36s WALL (       1 calls)

     Called by electrons:
     c_bands      :   1524.91s CPU   1533.61s WALL (      28 calls)
     sum_band     :    292.93s CPU    325.13s WALL (      28 calls)
     v_of_rho     :    134.14s CPU    143.78s WALL (      28 calls)
     newd         :     63.31s CPU     91.18s WALL (      28 calls)
     PAW_pot      :      5.75s CPU      5.75s WALL (      28 calls)
     mix_rho      :     37.05s CPU     37.64s WALL (      28 calls)
     vdW_kernel   :     40.08s CPU     40.09s WALL (       1 calls)

     Called by c_bands:
     init_us_2    :     13.05s CPU     13.06s WALL (    1710 calls)
     init_us_2:cp :     13.05s CPU     13.06s WALL (    1710 calls)
     cegterg      :   1420.97s CPU   1429.46s WALL (     840 calls)

     Called by *egterg:
     cdiaghg      :      1.47s CPU      1.48s WALL (    3060 calls)
     h_psi        :    885.66s CPU    886.48s WALL (    3120 calls)
     s_psi        :    190.16s CPU    190.33s WALL (    3120 calls)
     g_psi        :      6.08s CPU      6.08s WALL (    2250 calls)

     Called by h_psi:
     h_psi:calbec :    249.93s CPU    249.99s WALL (    3120 calls)
     vloc_psi     :    442.72s CPU    443.00s WALL (    3120 calls)
     add_vuspsi   :    190.23s CPU    190.27s WALL (    3120 calls)

     General routines
     calbec       :    353.52s CPU    353.61s WALL (    3960 calls)
     fft          :     35.66s CPU     35.68s WALL (    1763 calls)
     ffts         :     18.21s CPU     18.22s WALL (    3254 calls)
     fftw         :    387.59s CPU    387.79s WALL (  152582 calls)
     interpolate  :      0.85s CPU      0.86s WALL (      28 calls)

     Parallel routines

     PWSCF        :  34m42.51s CPU  36m 1.84s WALL


   This run was terminated on:  15:24: 6  15Jun2026            

=------------------------------------------------------------------------------=
   JOB DONE.
=------------------------------------------------------------------------------=
Note: The following floating-point exceptions are signalling: IEEE_UNDERFLOW_FLAG IEEE_DENORMAL
