Authorization required, but no authorization protocol specified

Authorization required, but no authorization protocol specified

Authorization required, but no authorization protocol specified

Authorization required, but no authorization protocol specified

Authorization required, but no authorization protocol specified

Authorization required, but no authorization protocol specified

Authorization required, but no authorization protocol specified

Authorization required, but no authorization protocol specified


     Program PWSCF v.7.3 starts on 14Jun2026 at 21:51:12 

     This program is part of the open-source Quantum ESPRESSO suite
     for quantum simulation of materials; please cite
         "P. Giannozzi et al., J. Phys.:Condens. Matter 21 395502 (2009);
         "P. Giannozzi et al., J. Phys.:Condens. Matter 29 465901 (2017);
         "P. Giannozzi et al., J. Chem. Phys. 152 154105 (2020);
          URL http://www.quantum-espresso.org", 
     in publications or presentations arising from this work. More details at
     http://www.quantum-espresso.org/quote

     Parallel version (MPI), running on     1 processors

     MPI processes distributed on     1 nodes
     7492 MiB available memory on the printing compute node when the environment starts

     Waiting for input...
     Reading input from standard input

     Current dimensions of program PWSCF are:
     Max number of different atomic species (ntypx) = 10
     Max number of k-points (npk) =  40000
     Max angular momentum in pseudopotentials (lmaxx) =  4
     file Mo.pbe-spn-kjpaw_psl.1.0.0.UPF: wavefunction(s)  4S 4D renormalized
     file S.pbe-n-kjpaw_psl.1.0.0.UPF: wavefunction(s)  3S 3P renormalized

     IMPORTANT: XC functional enforced from input :
     Exchange-correlation= VDW-DF2-B86R
                           (   1   4  26   0   2   0   0)
     Any further DFT definition will be discarded
     Please, verify this is what you really want


     Subspace diagonalization in iterative solution of the eigenvalue problem:
     a serial algorithm will be used


     G-vector sticks info
     --------------------
     sticks:   dense  smooth     PW     G-vecs:    dense   smooth      PW
     Sum        1573     769    223               797393   281171   43435

     Using Slab Decomposition



     bravais-lattice index     =            4
     lattice parameter (alat)  =       5.9715  a.u.
     unit-cell volume          =    2917.9067 (a.u.)^3
     number of atoms/cell      =            6
     number of atomic types    =            2
     number of electrons       =        52.00
     number of Kohn-Sham states=           31
     kinetic-energy cutoff     =      80.0000  Ry
     charge density cutoff     =     640.0000  Ry
     scf convergence threshold =      1.0E-08
     mixing beta               =       0.3000
     number of iterations used =            8  local-TF  mixing
     Exchange-correlation= VDW-DF2-B86R
                           (   1   4  26   0   2   0   0)

     celldm(1)=   5.971535  celldm(2)=   0.000000  celldm(3)=  15.822785
     celldm(4)=   0.000000  celldm(5)=   0.000000  celldm(6)=   0.000000

     crystal axes: (cart. coord. in units of alat)
               a(1) = (   1.000000   0.000000   0.000000 )  
               a(2) = (  -0.500000   0.866025   0.000000 )  
               a(3) = (   0.000000   0.000000  15.822785 )  

     reciprocal axes: (cart. coord. in units 2 pi/alat)
               b(1) = (  1.000000  0.577350 -0.000000 )  
               b(2) = (  0.000000  1.154701  0.000000 )  
               b(3) = (  0.000000 -0.000000  0.063200 )  


     PseudoPot. # 1 for Mo read from file:
     ./pseudo/Mo.pbe-spn-kjpaw_psl.1.0.0.UPF
     MD5 check sum: 4396e0c640fcce5c25f020efccf1ab12
     Pseudo is Projector augmented-wave + core cor, Zval = 14.0
     Generated using &quot;atomic&quot; code by A. Dal Corso  v.6.3
     Shape of augmentation charge: PSQ
     Using radial grid of 1229 points,  6 beta functions with: 
                l(1) =   0
                l(2) =   0
                l(3) =   1
                l(4) =   1
                l(5) =   2
                l(6) =   2
     Q(r) pseudized with 0 coefficients 


     PseudoPot. # 2 for S  read from file:
     ./pseudo/S.pbe-n-kjpaw_psl.1.0.0.UPF
     MD5 check sum: fb45dfebcf3e72a4e1bd4a866ec2e262
     Pseudo is Projector augmented-wave + core cor, Zval =  6.0
     Generated using &quot;atomic&quot; code by A. Dal Corso  v.6.3
     Shape of augmentation charge: PSQ
     Using radial grid of 1151 points,  6 beta functions with: 
                l(1) =   0
                l(2) =   0
                l(3) =   1
                l(4) =   1
                l(5) =   2
                l(6) =   2
     Q(r) pseudized with 0 coefficients 


     atomic species   valence    mass     pseudopotential
     Mo               14.00    95.96000     Mo( 1.00)
     S                 6.00    32.06000     S ( 1.00)

      2 Sym. Ops. (no inversion) found



   Cartesian axes

     site n.     atom                  positions (alat units)
         1        S      tau(   1) = (  -0.0000005   0.5773506   6.4231013  )
         2        Mo     tau(   2) = (   0.0000000   0.0000000   6.9204905  )
         3        S      tau(   3) = (  -0.0000005   0.5773506   7.4181013  )
         4        S      tau(   4) = (   0.4999995   0.0577353   8.4034019  )
         5        Mo     tau(   5) = (   0.0000000   0.3464102   8.9017247  )
         6        S      tau(   6) = (   0.4999995   0.0577353   9.3996835  )

     number of k points=    73  Methfessel-Paxton smearing, width (Ry)=  0.0200
                       cart. coord. in units 2pi/alat
        k(    1) = (   0.0000000   0.0000000   0.0000000), wk =   0.0078125
        k(    2) = (   0.0000000   0.0721688   0.0000000), wk =   0.0156250
        k(    3) = (   0.0000000   0.1443376   0.0000000), wk =   0.0156250
        k(    4) = (   0.0000000   0.2165064   0.0000000), wk =   0.0156250
        k(    5) = (   0.0000000   0.2886751   0.0000000), wk =   0.0156250
        k(    6) = (   0.0000000   0.3608439   0.0000000), wk =   0.0156250
        k(    7) = (   0.0000000   0.4330127   0.0000000), wk =   0.0156250
        k(    8) = (   0.0000000   0.5051815   0.0000000), wk =   0.0156250
        k(    9) = (   0.0000000  -0.5773503   0.0000000), wk =   0.0078125
        k(   10) = (   0.0625000   0.1082532   0.0000000), wk =   0.0312500
        k(   11) = (   0.0625000   0.1804220   0.0000000), wk =   0.0312500
        k(   12) = (   0.0625000   0.2525907   0.0000000), wk =   0.0312500
        k(   13) = (   0.0625000   0.3247595   0.0000000), wk =   0.0312500
        k(   14) = (   0.0625000   0.3969283   0.0000000), wk =   0.0312500
        k(   15) = (   0.0625000   0.4690971   0.0000000), wk =   0.0312500
        k(   16) = (   0.0625000   0.5412659   0.0000000), wk =   0.0312500
        k(   17) = (   0.1250000   0.2165064   0.0000000), wk =   0.0312500
        k(   18) = (   0.1250000   0.2886751   0.0000000), wk =   0.0312500
        k(   19) = (   0.1250000   0.3608439   0.0000000), wk =   0.0312500
        k(   20) = (   0.1250000   0.4330127   0.0000000), wk =   0.0312500
        k(   21) = (   0.1250000   0.5051815   0.0000000), wk =   0.0312500
        k(   22) = (   0.1250000   0.5773503   0.0000000), wk =   0.0156250
        k(   23) = (   0.1875000   0.3247595   0.0000000), wk =   0.0312500
        k(   24) = (   0.1875000   0.3969283   0.0000000), wk =   0.0312500
        k(   25) = (   0.1875000   0.4690971   0.0000000), wk =   0.0312500
        k(   26) = (   0.1875000   0.5412659   0.0000000), wk =   0.0312500
        k(   27) = (   0.2500000   0.4330127   0.0000000), wk =   0.0312500
        k(   28) = (   0.2500000   0.5051815   0.0000000), wk =   0.0312500
        k(   29) = (   0.2500000   0.5773503   0.0000000), wk =   0.0156250
        k(   30) = (   0.3125000   0.5412659   0.0000000), wk =   0.0312500
        k(   31) = (  -0.0625000   0.0360844   0.0000000), wk =   0.0312500
        k(   32) = (  -0.1250000   0.0721688   0.0000000), wk =   0.0312500
        k(   33) = (  -0.1875000   0.1082532   0.0000000), wk =   0.0312500
        k(   34) = (  -0.2500000   0.1443376   0.0000000), wk =   0.0312500
        k(   35) = (  -0.3125000   0.1804220   0.0000000), wk =   0.0312500
        k(   36) = (  -0.3750000   0.2165064   0.0000000), wk =   0.0312500
        k(   37) = (  -0.4375000   0.2525907   0.0000000), wk =   0.0312500
        k(   38) = (   0.5000000  -0.2886751   0.0000000), wk =   0.0156250
        k(   39) = (   0.1250000   0.0000000   0.0000000), wk =   0.0156250
        k(   40) = (  -0.1250000   0.1443376   0.0000000), wk =   0.0312500
        k(   41) = (   0.1875000   0.0360844   0.0000000), wk =   0.0312500
        k(   42) = (  -0.1875000   0.1804220   0.0000000), wk =   0.0312500
        k(   43) = (   0.2500000   0.0721688   0.0000000), wk =   0.0312500
        k(   44) = (  -0.2500000   0.2165064   0.0000000), wk =   0.0312500
        k(   45) = (   0.3125000   0.1082532   0.0000000), wk =   0.0312500
        k(   46) = (  -0.3125000   0.2525907   0.0000000), wk =   0.0312500
        k(   47) = (   0.3750000   0.1443376   0.0000000), wk =   0.0312500
        k(   48) = (  -0.3750000   0.2886751   0.0000000), wk =   0.0312500
        k(   49) = (   0.4375000   0.1804220   0.0000000), wk =   0.0312500
        k(   50) = (  -0.4375000   0.3247595   0.0000000), wk =   0.0312500
        k(   51) = (   0.5000000   0.2165064   0.0000000), wk =   0.0312500
        k(   52) = (   0.2500000   0.0000000   0.0000000), wk =   0.0156250
        k(   53) = (  -0.1875000   0.2525907   0.0000000), wk =   0.0312500
        k(   54) = (   0.3125000   0.0360844   0.0000000), wk =   0.0312500
        k(   55) = (  -0.2500000   0.2886751   0.0000000), wk =   0.0312500
        k(   56) = (   0.3750000   0.0721688   0.0000000), wk =   0.0312500
        k(   57) = (  -0.3125000   0.3247595   0.0000000), wk =   0.0312500
        k(   58) = (   0.4375000   0.1082532   0.0000000), wk =   0.0312500
        k(   59) = (  -0.3750000   0.3608439   0.0000000), wk =   0.0312500
        k(   60) = (   0.5000000   0.1443376   0.0000000), wk =   0.0312500
        k(   61) = (  -0.4375000   0.3969283   0.0000000), wk =   0.0312500
        k(   62) = (   0.3750000   0.0000000   0.0000000), wk =   0.0156250
        k(   63) = (  -0.2500000   0.3608439   0.0000000), wk =   0.0312500
        k(   64) = (   0.4375000   0.0360844   0.0000000), wk =   0.0312500
        k(   65) = (  -0.3125000   0.3969283   0.0000000), wk =   0.0312500
        k(   66) = (   0.5000000   0.0721688   0.0000000), wk =   0.0312500
        k(   67) = (  -0.3750000   0.4330127   0.0000000), wk =   0.0312500
        k(   68) = (   0.5625000   0.1082532   0.0000000), wk =   0.0312500
        k(   69) = (   0.5000000   0.0000000   0.0000000), wk =   0.0156250
        k(   70) = (  -0.3125000   0.4690971   0.0000000), wk =   0.0312500
        k(   71) = (   0.5625000   0.0360844   0.0000000), wk =   0.0312500
        k(   72) = (  -0.3750000   0.5051815   0.0000000), wk =   0.0312500
        k(   73) = (   0.6250000   0.0000000   0.0000000), wk =   0.0156250

     Dense  grid:   797393 G-vectors     FFT dimensions: (  50,  50, 768)

     Smooth grid:   281171 G-vectors     FFT dimensions: (  36,  36, 540)

     Estimated max dynamical RAM per process >       4.00 GB

     Initial potential from superposition of free atoms

     starting charge      51.9981, renormalised to      52.0000

     negative rho (up, down):  1.903E-04 0.000E+00


     %%%%%%%%%%%%%%%%%%%%%%%%%%%%%%%%%%%%%%%%%%%%%%%%%%%%%%%%%%%%%%%%%%%%%%%%
     %                                                                      %
     % You are using vdW-DF, which was implemented by the Thonhauser group. %
     % Please cite the following two papers that made this development      %
     % possible and the two reviews that describe the various versions:     %
     %                                                                      %
     %   T. Thonhauser et al., PRL 115, 136402 (2015).                      %
     %   T. Thonhauser et al., PRB 76, 125112 (2007).                       %
     %   K. Berland et al., Rep. Prog. Phys. 78, 066501 (2015).             %
     %   D.C. Langreth et al., J. Phys.: Condens. Matter 21, 084203 (2009). %
     %                                                                      %
     % If you are calculating stress with vdW-DF, please also cite:         %
     %                                                                      %
     %   R. Sabatini et al., J. Phys.: Condens. Matter 24, 424209 (2012).   %
     %                                                                      %
     %%%%%%%%%%%%%%%%%%%%%%%%%%%%%%%%%%%%%%%%%%%%%%%%%%%%%%%%%%%%%%%%%%%%%%%%

     %%%%%%%%%%%%%%%%%%%%%%%%%%%%%%%%%%%%%%%%%%%%%%%%%%%%%%%%%%%%%%%%%%%%%%%%
     %                                                                      %
     %  vdW-DF NEWS:                                                        %
     %                                                                      %
     %  * vdW-DF3 is now available. DOI: 10.1021/acs.jctc.0c00471           %
     %    use with input_dft = 'vdW-DF3-opt1' or 'vdW-DF3-opt2'             %
     %                                                                      %
     %  * Unscreened and range-separated hybrid vdW-DF-cx functionals       %
     %    DOI: 10.1063/1.4986522 and 10.1088/1361-648X/ac2ad2               %
     %    use with input_dft = 'vdW-DF-cx0'    and 'vdW-DF-ahcx'            %
     %  * Unscreened and range-separated hybrid vdW-DF2-b86r functionals    %
     %    DOI: 10.1063/1.4986522 and DOI: 10.1103/PhysRevX.12.041003        %
     %    use with input_dft = 'vdW-DF2-br0' and 'vdW-DF2-ahbr'             %
     %                                                                      %
     %%%%%%%%%%%%%%%%%%%%%%%%%%%%%%%%%%%%%%%%%%%%%%%%%%%%%%%%%%%%%%%%%%%%%%%%


     Starting wfcs are   36 randomized atomic wfcs
     Checking if some PAW data can be deallocated... 

     total cpu time spent up to now is      101.0 secs

     Self-consistent Calculation

     iteration #  1     ecut=    80.00 Ry     beta= 0.30
     Davidson diagonalization with overlap
     ethr =  1.00E-02,  avg # of iterations =  2.3

     Threshold (ethr) on eigenvalues was too large:
     Diagonalizing with lowered threshold

     Davidson diagonalization with overlap
     ethr =  2.76E-04,  avg # of iterations =  3.8

     negative rho (up, down):  7.209E-05 0.000E+00

     total cpu time spent up to now is      455.0 secs

     total energy              =    -989.21583286 Ry
     estimated scf accuracy    <       0.22932306 Ry

     iteration #  2     ecut=    80.00 Ry     beta= 0.30
     Davidson diagonalization with overlap
     ethr =  4.41E-04,  avg # of iterations =  1.0

     negative rho (up, down):  1.088E-04 0.000E+00

     total cpu time spent up to now is      588.8 secs

     total energy              =    -989.14247033 Ry
     estimated scf accuracy    <       0.16456351 Ry

     iteration #  3     ecut=    80.00 Ry     beta= 0.30
     Davidson diagonalization with overlap
     ethr =  3.16E-04,  avg # of iterations =  2.0

     negative rho (up, down):  3.526E-05 0.000E+00

     total cpu time spent up to now is      756.2 secs

     total energy              =    -989.17495745 Ry
     estimated scf accuracy    <       0.01545695 Ry

     iteration #  4     ecut=    80.00 Ry     beta= 0.30
     Davidson diagonalization with overlap
     ethr =  2.97E-05,  avg # of iterations =  2.3

     negative rho (up, down):  9.791E-06 0.000E+00

     total cpu time spent up to now is      928.0 secs

     total energy              =    -989.17533614 Ry
     estimated scf accuracy    <       0.00854319 Ry

     iteration #  5     ecut=    80.00 Ry     beta= 0.30
     Davidson diagonalization with overlap
     ethr =  1.64E-05,  avg # of iterations =  3.1

     negative rho (up, down):  3.425E-06 0.000E+00

     total cpu time spent up to now is     1083.0 secs

     total energy              =    -989.17566967 Ry
     estimated scf accuracy    <       0.00289905 Ry

     iteration #  6     ecut=    80.00 Ry     beta= 0.30
     Davidson diagonalization with overlap
     ethr =  5.58E-06,  avg # of iterations =  4.0

     negative rho (up, down):  6.485E-07 0.000E+00

     total cpu time spent up to now is     1229.4 secs

     total energy              =    -989.17541032 Ry
     estimated scf accuracy    <       0.00257927 Ry

     iteration #  7     ecut=    80.00 Ry     beta= 0.30
     Davidson diagonalization with overlap
     ethr =  4.96E-06,  avg # of iterations =  1.4

     negative rho (up, down):  5.687E-07 0.000E+00

     total cpu time spent up to now is     1368.1 secs

     total energy              =    -989.17509217 Ry
     estimated scf accuracy    <       0.00243446 Ry

     iteration #  8     ecut=    80.00 Ry     beta= 0.30
     Davidson diagonalization with overlap
     ethr =  4.68E-06,  avg # of iterations =  4.1

     negative rho (up, down):  7.109E-04 0.000E+00

     total cpu time spent up to now is     1545.7 secs

     total energy              =    -989.17451970 Ry
     estimated scf accuracy    <       0.00435378 Ry

     iteration #  9     ecut=    80.00 Ry     beta= 0.30
     Davidson diagonalization with overlap
     ethr =  4.68E-06,  avg # of iterations =  2.5

     negative rho (up, down):  1.937E-03 0.000E+00

     total cpu time spent up to now is     1713.7 secs

     total energy              =    -989.17501782 Ry
     estimated scf accuracy    <       0.00069563 Ry

     iteration # 10     ecut=    80.00 Ry     beta= 0.30
     Davidson diagonalization with overlap
     ethr =  1.34E-06,  avg # of iterations =  3.5

     negative rho (up, down):  4.390E-03 0.000E+00

     total cpu time spent up to now is     1865.6 secs

     total energy              =    -989.17500059 Ry
     estimated scf accuracy    <       0.00048137 Ry

     iteration # 11     ecut=    80.00 Ry     beta= 0.30
     Davidson diagonalization with overlap
     ethr =  9.26E-07,  avg # of iterations =  2.3

     negative rho (up, down):  5.187E-03 0.000E+00

     total cpu time spent up to now is     2033.5 secs

     total energy              =    -989.17505087 Ry
     estimated scf accuracy    <       0.00062479 Ry

     iteration # 12     ecut=    80.00 Ry     beta= 0.30
     Davidson diagonalization with overlap
     ethr =  9.26E-07,  avg # of iterations =  2.8

     negative rho (up, down):  5.558E-03 0.000E+00

     total cpu time spent up to now is     2195.5 secs

     total energy              =    -989.17484317 Ry
     estimated scf accuracy    <       0.00087870 Ry

     iteration # 13     ecut=    80.00 Ry     beta= 0.30
     Davidson diagonalization with overlap
     ethr =  9.26E-07,  avg # of iterations =  2.0

     negative rho (up, down):  6.220E-03 0.000E+00

     total cpu time spent up to now is     2360.1 secs

     total energy              =    -989.17492286 Ry
     estimated scf accuracy    <       0.00029418 Ry

     iteration # 14     ecut=    80.00 Ry     beta= 0.30
     Davidson diagonalization with overlap
     ethr =  5.66E-07,  avg # of iterations =  2.0

     negative rho (up, down):  5.429E-03 0.000E+00

     total cpu time spent up to now is     2505.6 secs

     total energy              =    -989.17495231 Ry
     estimated scf accuracy    <       0.00019635 Ry

     iteration # 15     ecut=    80.00 Ry     beta= 0.30
     Davidson diagonalization with overlap
     ethr =  3.78E-07,  avg # of iterations =  2.0

     negative rho (up, down):  4.454E-03 0.000E+00

     total cpu time spent up to now is     2659.3 secs

     total energy              =    -989.17492962 Ry
     estimated scf accuracy    <       0.00013754 Ry

     iteration # 16     ecut=    80.00 Ry     beta= 0.30
     Davidson diagonalization with overlap
     ethr =  2.64E-07,  avg # of iterations =  1.0

     negative rho (up, down):  3.469E-03 0.000E+00

     total cpu time spent up to now is     2792.0 secs

     total energy              =    -989.17492160 Ry
     estimated scf accuracy    <       0.00009503 Ry

     iteration # 17     ecut=    80.00 Ry     beta= 0.30
     Davidson diagonalization with overlap
     ethr =  1.83E-07,  avg # of iterations =  2.2

     negative rho (up, down):  2.770E-03 0.000E+00

     total cpu time spent up to now is     2947.2 secs

     total energy              =    -989.17495473 Ry
     estimated scf accuracy    <       0.00008991 Ry

     iteration # 18     ecut=    80.00 Ry     beta= 0.30
     Davidson diagonalization with overlap
     ethr =  1.73E-07,  avg # of iterations =  1.0

     negative rho (up, down):  2.471E-03 0.000E+00

     total cpu time spent up to now is     3080.1 secs

     total energy              =    -989.17497053 Ry
     estimated scf accuracy    <       0.00004792 Ry

     iteration # 19     ecut=    80.00 Ry     beta= 0.30
     Davidson diagonalization with overlap
     ethr =  9.22E-08,  avg # of iterations =  2.9

     negative rho (up, down):  1.718E-03 0.000E+00

     total cpu time spent up to now is     3246.6 secs

     total energy              =    -989.17499801 Ry
     estimated scf accuracy    <       0.00003151 Ry

     iteration # 20     ecut=    80.00 Ry     beta= 0.30
     Davidson diagonalization with overlap
     ethr =  6.06E-08,  avg # of iterations =  2.3

     negative rho (up, down):  6.301E-04 0.000E+00

     total cpu time spent up to now is     3406.9 secs

     total energy              =    -989.17500573 Ry
     estimated scf accuracy    <       0.00000934 Ry

     iteration # 21     ecut=    80.00 Ry     beta= 0.30
     Davidson diagonalization with overlap
     ethr =  1.80E-08,  avg # of iterations =  2.0

     negative rho (up, down):  4.692E-04 0.000E+00

     total cpu time spent up to now is     3576.0 secs

     total energy              =    -989.17500789 Ry
     estimated scf accuracy    <       0.00000223 Ry

     iteration # 22     ecut=    80.00 Ry     beta= 0.30
     Davidson diagonalization with overlap
     ethr =  4.30E-09,  avg # of iterations =  2.1

     negative rho (up, down):  2.425E-04 0.000E+00

     total cpu time spent up to now is     3740.5 secs

     total energy              =    -989.17500914 Ry
     estimated scf accuracy    <       0.00000114 Ry

     iteration # 23     ecut=    80.00 Ry     beta= 0.30
     Davidson diagonalization with overlap
     ethr =  2.20E-09,  avg # of iterations =  2.5

     negative rho (up, down):  1.923E-04 0.000E+00

     total cpu time spent up to now is     3887.0 secs

     total energy              =    -989.17500963 Ry
     estimated scf accuracy    <       0.00000134 Ry

     iteration # 24     ecut=    80.00 Ry     beta= 0.30
     Davidson diagonalization with overlap
     ethr =  2.20E-09,  avg # of iterations =  1.8

     negative rho (up, down):  2.014E-04 0.000E+00

     total cpu time spent up to now is     4030.6 secs

     total energy              =    -989.17500944 Ry
     estimated scf accuracy    <       0.00000042 Ry

     iteration # 25     ecut=    80.00 Ry     beta= 0.30
     Davidson diagonalization with overlap
     ethr =  8.14E-10,  avg # of iterations =  4.1

     negative rho (up, down):  2.060E-04 0.000E+00

     total cpu time spent up to now is     4219.1 secs

     total energy              =    -989.17500809 Ry
     estimated scf accuracy    <       0.00000100 Ry

     iteration # 26     ecut=    80.00 Ry     beta= 0.30
     Davidson diagonalization with overlap
     ethr =  8.14E-10,  avg # of iterations =  3.3

     negative rho (up, down):  2.197E-04 0.000E+00

     total cpu time spent up to now is     4399.6 secs

     total energy              =    -989.17500819 Ry
     estimated scf accuracy    <       0.00000023 Ry

     iteration # 27     ecut=    80.00 Ry     beta= 0.30
     Davidson diagonalization with overlap
     ethr =  4.40E-10,  avg # of iterations =  2.1

     negative rho (up, down):  2.324E-04 0.000E+00

     total cpu time spent up to now is     4550.8 secs

     total energy              =    -989.17500860 Ry
     estimated scf accuracy    <       0.00000022 Ry

     iteration # 28     ecut=    80.00 Ry     beta= 0.30
     Davidson diagonalization with overlap
     ethr =  4.21E-10,  avg # of iterations =  2.0

     negative rho (up, down):  2.350E-04 0.000E+00

     total cpu time spent up to now is     4722.0 secs

     total energy              =    -989.17500854 Ry
     estimated scf accuracy    <       0.00000016 Ry

     iteration # 29     ecut=    80.00 Ry     beta= 0.30
     Davidson diagonalization with overlap
     ethr =  3.09E-10,  avg # of iterations =  1.0

     negative rho (up, down):  2.498E-04 0.000E+00

     total cpu time spent up to now is     4855.3 secs

     total energy              =    -989.17500881 Ry
     estimated scf accuracy    <       0.00000010 Ry

     iteration # 30     ecut=    80.00 Ry     beta= 0.30
     Davidson diagonalization with overlap
     ethr =  1.92E-10,  avg # of iterations =  2.1

     negative rho (up, down):  2.651E-04 0.000E+00

     total cpu time spent up to now is     5019.3 secs

     total energy              =    -989.17500883 Ry
     estimated scf accuracy    <       0.00000006 Ry

     iteration # 31     ecut=    80.00 Ry     beta= 0.30
     Davidson diagonalization with overlap
     ethr =  1.15E-10,  avg # of iterations =  1.2

     negative rho (up, down):  2.612E-04 0.000E+00

     total cpu time spent up to now is     5155.4 secs

     total energy              =    -989.17500851 Ry
     estimated scf accuracy    <       0.00000005 Ry

     iteration # 32     ecut=    80.00 Ry     beta= 0.30
     Davidson diagonalization with overlap
     ethr =  1.05E-10,  avg # of iterations =  2.0

     negative rho (up, down):  2.531E-04 0.000E+00

     total cpu time spent up to now is     5314.4 secs

     total energy              =    -989.17500845 Ry
     estimated scf accuracy    <       0.00000004 Ry

     iteration # 33     ecut=    80.00 Ry     beta= 0.30
     Davidson diagonalization with overlap
     ethr =  7.61E-11,  avg # of iterations =  1.2

     negative rho (up, down):  2.552E-04 0.000E+00

     total cpu time spent up to now is     5450.1 secs

     total energy              =    -989.17500854 Ry
     estimated scf accuracy    <       0.00000003 Ry

     iteration # 34     ecut=    80.00 Ry     beta= 0.30
     Davidson diagonalization with overlap
     ethr =  6.67E-11,  avg # of iterations =  1.2

     negative rho (up, down):  2.555E-04 0.000E+00

     total cpu time spent up to now is     5585.7 secs

     total energy              =    -989.17500864 Ry
     estimated scf accuracy    <       0.00000003 Ry

     iteration # 35     ecut=    80.00 Ry     beta= 0.30
     Davidson diagonalization with overlap
     ethr =  4.94E-11,  avg # of iterations =  1.3

     negative rho (up, down):  2.398E-04 0.000E+00

     total cpu time spent up to now is     5722.5 secs

     total energy              =    -989.17500886 Ry
     estimated scf accuracy    <       0.00000002 Ry

     iteration # 36     ecut=    80.00 Ry     beta= 0.30
     Davidson diagonalization with overlap
     ethr =  4.10E-11,  avg # of iterations =  2.2

     negative rho (up, down):  2.404E-04 0.000E+00

     total cpu time spent up to now is     5884.6 secs

     total energy              =    -989.17500883 Ry
     estimated scf accuracy    <       0.00000001 Ry

     iteration # 37     ecut=    80.00 Ry     beta= 0.30
     Davidson diagonalization with overlap
     ethr =  2.54E-11,  avg # of iterations =  1.0

     negative rho (up, down):  2.232E-04 0.000E+00

     total cpu time spent up to now is     6016.6 secs

     End of self-consistent calculation

          k = 0.0000 0.0000 0.0000 ( 35507 PWs)   bands (ev):

   -62.9160 -62.8920 -37.0908 -37.0674 -36.8524 -36.8519 -36.8294 -36.8290
   -16.2600 -16.1312 -15.0095 -14.8098  -7.9978  -7.4963  -4.6386  -4.6377
    -4.6255  -4.6250  -4.4843  -3.5264  -3.5238  -3.5087  -3.5079  -3.4432
    -2.3844  -1.6879   0.7047   0.7097   0.7509   0.7538   0.9154

          k = 0.0000 0.0722 0.0000 ( 35493 PWs)   bands (ev):

   -62.9144 -62.8904 -37.0878 -37.0643 -36.8680 -36.8554 -36.8446 -36.8329
   -16.2005 -16.0720 -14.9826 -14.7862  -7.9294  -7.4281  -4.7756  -4.7595
    -4.6409  -4.5757  -4.5623  -3.9524  -3.6218  -3.6035  -3.4351  -3.1174
    -2.3885  -1.7510   0.6269   0.6669   0.7625   0.7961   0.7966

          k = 0.0000 0.1443 0.0000 ( 35435 PWs)   bands (ev):

   -62.9100 -62.8860 -37.0791 -37.0557 -36.9120 -36.8887 -36.8654 -36.8430
   -16.0269 -15.8996 -14.9040 -14.7175  -7.7395  -7.2415  -5.1301  -5.1055
    -4.9809  -4.4648  -4.3973  -4.3816  -3.8745  -3.8514  -3.3592  -2.9452
    -2.4365  -1.9727   0.3501   0.4631   0.5122   0.6337   0.6548

          k = 0.0000 0.2165 0.0000 ( 35345 PWs)   bands (ev):

   -62.9033 -62.8793 -37.0662 -37.0427 -36.9774 -36.9541 -36.8804 -36.8580
   -15.7543 -15.6297 -14.7808 -14.6105  -7.4849  -7.0090  -5.5727  -5.5292
    -5.3770  -4.9960  -4.2026  -4.1743  -4.1234  -4.1044  -3.4345  -3.0117
    -2.6046  -2.3564  -0.0111   0.2809   0.4328   0.5260   0.5311

          k = 0.0000 0.2887 0.0000 ( 35323 PWs)   bands (ev):

   -62.8955 -62.8715 -37.0539 -37.0506 -37.0318 -37.0260 -36.8980 -36.8756
   -15.4082 -15.2895 -14.6254 -14.4771  -7.2993  -6.9213  -5.9657  -5.8485
    -5.7561  -5.5151  -4.5309  -4.4998  -3.8025  -3.7725  -3.6410  -3.2433
    -2.8892  -2.7650  -0.1331   0.2427   0.2574   0.3347   0.7647

          k = 0.0000 0.3608 0.0000 ( 35299 PWs)   bands (ev):

   -62.8876 -62.8636 -37.1290 -37.1061 -37.0354 -37.0118 -36.9156 -36.8932
   -15.0272 -14.9191 -14.4563 -14.3351  -7.3588  -7.1484  -6.3091  -6.1217
    -5.9704  -5.8231  -4.8197  -4.7863  -3.8711  -3.5084  -3.4846  -3.4393
    -3.1034  -2.9977  -0.0192   0.1366   0.2149   0.3613   1.1063

          k = 0.0000 0.4330 0.0000 ( 35224 PWs)   bands (ev):

   -62.8809 -62.8569 -37.1923 -37.1694 -37.0224 -36.9987 -36.9304 -36.9080
   -14.6658 -14.5746 -14.2989 -14.2083  -7.6025  -7.4945  -6.6456  -6.5155
    -6.0689  -5.9137  -5.0407  -5.0058  -4.0458  -3.7151  -3.2300  -3.1659
    -3.0856  -2.9411   0.1289   0.1852   0.2311   0.5255   1.4282

          k = 0.0000 0.5052 0.0000 ( 35152 PWs)   bands (ev):

   -62.8765 -62.8524 -37.2342 -37.2113 -37.0136 -36.9899 -36.9403 -36.9179
   -14.3953 -14.3256 -14.1831 -14.1220  -7.8297  -7.7681  -6.8830  -6.8004
    -6.1671  -6.0272  -5.1786  -5.1428  -4.1425  -3.8393  -3.0747  -2.9945
    -2.9071  -2.7418   0.1782   0.2147   0.5126   0.6796   1.6404

          k = 0.0000-0.5774 0.0000 ( 35026 PWs)   bands (ev):

   -62.8749 -62.8509 -37.2488 -37.2260 -37.0105 -36.9868 -36.9437 -36.9214
   -14.2918 -14.2350 -14.1392 -14.0926  -7.9192  -7.8713  -6.9671  -6.9032
    -6.2137  -6.0797  -5.2253  -5.1893  -4.1718  -3.8808  -3.0241  -2.9375
    -2.8027  -2.6435   0.2078   0.2371   0.6780   0.7202   1.7115

          k = 0.0625 0.1083 0.0000 ( 35467 PWs)   bands (ev):

   -62.9114 -62.8874 -37.0820 -37.0585 -36.8972 -36.8741 -36.8628 -36.8401
   -16.0841 -15.9561 -14.9300 -14.7398  -7.8000  -7.2997  -5.0187  -4.9969
    -4.8743  -4.4564  -4.4438  -4.3044  -3.8371  -3.8186  -3.3381  -2.9360
    -2.4143  -1.8833   0.4429   0.5015   0.5305   0.6406   0.7259

          k = 0.0625 0.1804 0.0000 ( 35370 PWs)   bands (ev):

   -62.9059 -62.8819 -37.0711 -37.0476 -36.9507 -36.9276 -36.8764 -36.8539
   -15.8608 -15.7347 -14.8290 -14.6517  -7.5733  -7.0832  -5.4092  -5.3746
    -5.2052  -4.7531  -4.2435  -4.2284  -4.2052  -4.1754  -3.2807  -2.8743
    -2.5215  -2.1886   0.0823   0.3088   0.4212   0.5010   0.5627

          k = 0.0625 0.2526 0.0000 ( 35362 PWs)   bands (ev):

   -62.8986 -62.8746 -37.0570 -37.0336 -37.0199 -36.9967 -36.8943 -36.8719
   -15.5510 -15.4290 -14.6891 -14.5308  -7.3385  -6.9013  -5.8084  -5.7351
    -5.5708  -5.2560  -4.5973  -4.5348  -3.9764  -3.9505  -3.3808  -3.0103
    -2.7535  -2.5903  -0.1641   0.1613   0.3344   0.4254   0.5368

          k = 0.0625 0.3248 0.0000 ( 35310 PWs)   bands (ev):

   -62.8908 -62.8668 -37.0940 -37.0711 -37.0416 -37.0179 -36.9137 -36.8913
   -15.1859 -15.0721 -14.5255 -14.3916  -7.2692  -6.9828  -6.1259  -5.9565
    -5.8716  -5.7246  -4.9034  -4.8149  -3.7529  -3.7044  -3.5902  -3.2648
    -2.9830  -2.8877  -0.2025   0.1025   0.2690   0.4014   0.8151

          k = 0.0625 0.3969 0.0000 ( 35243 PWs)   bands (ev):

   -62.8835 -62.8595 -37.1616 -37.1387 -37.0274 -37.0037 -36.9315 -36.9091
   -14.8117 -14.7115 -14.3600 -14.2549  -7.4418  -7.2915  -6.4836  -6.3435
    -6.0039  -5.8398  -5.1003  -5.0118  -3.8574  -3.6180  -3.5757  -3.4752
    -2.9784  -2.8953  -0.0839   0.1373   0.3174   0.4798   1.1601

          k = 0.0625 0.4691 0.0000 ( 35169 PWs)   bands (ev):

   -62.8779 -62.8539 -37.2129 -37.1901 -37.0165 -36.9928 -36.9451 -36.9227
   -14.4910 -14.4104 -14.2204 -14.1458  -7.6832  -7.6013  -6.8013  -6.7131
    -6.0973  -5.9462  -5.2068  -5.1369  -4.0436  -3.7512  -3.4900  -3.3686
    -2.8081  -2.7132   0.0905   0.2112   0.4671   0.6194   1.4779

          k = 0.0625 0.5413 0.0000 ( 35128 PWs)   bands (ev):

   -62.8749 -62.8509 -37.2405 -37.2177 -37.0105 -36.9869 -36.9524 -36.9301
   -14.2989 -14.2376 -14.1375 -14.0871  -7.8400  -7.7886  -6.9799  -6.9180
    -6.1824  -6.0436  -5.2481  -5.1992  -4.1453  -3.8544  -3.4023  -3.2675
    -2.6526  -2.5469   0.1971   0.2447   0.6602   0.7393   1.7246

          k = 0.1250 0.2165 0.0000 ( 35331 PWs)   bands (ev):

   -62.8997 -62.8757 -37.0592 -37.0357 -37.0058 -36.9828 -36.8953 -36.8727
   -15.6005 -15.4768 -14.7114 -14.5485  -7.3552  -6.8981  -5.7445  -5.6767
    -5.4495  -5.0725  -4.7358  -4.6777  -4.0542  -4.0329  -3.2272  -2.8545
    -2.6969  -2.4882  -0.1893   0.1167   0.3498   0.3819   0.4445

          k = 0.1250 0.2887 0.0000 ( 35357 PWs)   bands (ev):

   -62.8925 -62.8685 -37.0692 -37.0464 -37.0449 -37.0212 -36.9185 -36.8960
   -15.2702 -15.1526 -14.5619 -14.4200  -7.2122  -6.8683  -5.9993  -5.8498
    -5.7313  -5.5442  -5.1712  -5.0086  -3.9572  -3.9162  -3.3092  -2.9957
    -2.8931  -2.7820  -0.3378  -0.0046   0.3273   0.4278   0.5382

          k = 0.1250 0.3608 0.0000 ( 35341 PWs)   bands (ev):

   -62.8852 -62.8612 -37.1315 -37.1086 -37.0307 -37.0071 -36.9422 -36.9197
   -14.9081 -14.8013 -14.3987 -14.2826  -7.2793  -7.0796  -6.2934  -6.1821
    -5.9296  -5.7536  -5.3511  -5.1437  -4.0255  -3.9564  -3.5261  -3.2448
    -2.9241  -2.8510  -0.2994   0.0565   0.4043   0.4998   0.7977

          k = 0.1250 0.4330 0.0000 ( 35215 PWs)   bands (ev):

   -62.8790 -62.8550 -37.1836 -37.1607 -37.0187 -36.9950 -36.9623 -36.9400
   -14.5675 -14.4769 -14.2461 -14.1588  -7.4696  -7.3536  -6.7087  -6.6433
    -5.9847  -5.8071  -5.3769  -5.1974  -4.0990  -3.9723  -3.7855  -3.5232
    -2.7840  -2.7195  -0.0961   0.2271   0.5233   0.5822   1.1056

          k = 0.1250 0.5052 0.0000 ( 35141 PWs)   bands (ev):

   -62.8749 -62.8509 -37.2182 -37.1953 -37.0106 -36.9869 -36.9758 -36.9535
   -14.3155 -14.2443 -14.1333 -14.0736  -7.6325  -7.5649  -7.0051  -6.9549
    -6.0891  -5.9365  -5.3303  -5.2102  -4.1434  -3.9690  -3.9108  -3.7178
    -2.5903  -2.5239   0.1026   0.2534   0.6821   0.7725   1.3749

          k = 0.1250 0.5774 0.0000 ( 35180 PWs)   bands (ev):

   -62.8735 -62.8494 -37.2303 -37.2074 -37.0077 -36.9840 -36.9805 -36.9582
   -14.2203 -14.1601 -14.0901 -14.0442  -7.6927  -7.6462  -7.1105  -7.0639
    -6.1453  -6.0015  -5.2851  -5.2204  -4.1980  -3.9763  -3.9261  -3.7646
    -2.4931  -2.4225   0.1677   0.2086   0.8126   0.8681   1.5006

          k = 0.1875 0.3248 0.0000 ( 35337 PWs)   bands (ev):

   -62.8858 -62.8618 -37.1178 -37.0951 -37.0319 -37.0083 -36.9490 -36.9264
   -14.9429 -14.8318 -14.4129 -14.2904  -7.2082  -6.9846  -6.1658  -6.0953
    -5.9239  -5.7151  -5.4948  -5.2161  -4.1922  -4.1334  -3.4070  -3.0992
    -2.9133  -2.8309  -0.3778   0.0151   0.4267   0.4961   0.6545

          k = 0.1875 0.3969 0.0000 ( 35241 PWs)   bands (ev):

   -62.8796 -62.8556 -37.1598 -37.1370 -37.0198 -36.9962 -36.9798 -36.9573
   -14.6108 -14.5127 -14.2598 -14.1629  -7.3055  -7.1555  -6.6290  -6.5911
    -5.8988  -5.6569  -5.5030  -5.2452  -4.5119  -4.4310  -3.6409  -3.3533
    -2.8083  -2.7415  -0.2195   0.2193   0.5500   0.5890   0.8346

          k = 0.1875 0.4691 0.0000 ( 35167 PWs)   bands (ev):

   -62.8749 -62.8509 -37.1903 -37.1675 -37.0106 -37.0047 -36.9870 -36.9823
   -14.3323 -14.2508 -14.1294 -14.0594  -7.3955  -7.2924  -7.0258  -6.9892
    -5.9379  -5.7556  -5.4247  -5.2115  -4.7034  -4.5488  -3.9280  -3.6351
    -2.6042  -2.5549  -0.0215   0.2346   0.7151   0.8128   1.0225

          k = 0.1875 0.5413 0.0000 ( 35162 PWs)   bands (ev):

   -62.8724 -62.8483 -37.2063 -37.1835 -37.0186 -37.0056 -36.9963 -36.9819
   -14.1705 -14.1031 -14.0503 -14.0022  -7.4293  -7.3730  -7.2377  -7.2044
    -6.0584  -5.9105  -5.2893  -5.1734  -4.7590  -4.5611  -4.1301  -3.8302
    -2.4124  -2.3663   0.0232   0.0916   0.9298   1.0260   1.1576

          k = 0.2500 0.4330 0.0000 ( 35195 PWs)   bands (ev):

   -62.8749 -62.8509 -37.1757 -37.1530 -37.0197 -37.0106 -36.9973 -36.9868
   -14.3422 -14.2522 -14.1290 -14.0507  -7.2886  -7.1568  -7.0342  -6.9952
    -5.8554  -5.5832  -5.4322  -5.1889  -5.0221  -4.9378  -3.8993  -3.5774
    -2.6199  -2.5703  -0.0738   0.2208   0.7179   0.8202   0.9194

          k = 0.2500 0.5052 0.0000 ( 35193 PWs)   bands (ev):

   -62.8718 -62.8477 -37.1805 -37.1577 -37.0522 -37.0299 -37.0044 -36.9807
   -14.1505 -14.0726 -14.0279 -13.9732  -7.3367  -7.2944  -7.1726  -7.0856
    -5.9125  -5.7522  -5.4013  -5.2551  -5.1728  -5.0673  -4.1686  -3.8332
    -2.3758  -2.3377  -0.1068  -0.0089   0.8262   0.9972   1.1380

          k = 0.2500 0.5774 0.0000 ( 35190 PWs)   bands (ev):

   -62.8706 -62.8466 -37.1804 -37.1575 -37.0654 -37.0431 -37.0022 -36.9785
   -14.0823 -14.0104 -13.9861 -13.9451  -7.4362  -7.3968  -7.0870  -7.0442
    -6.0335  -5.9235  -5.4380  -5.1930  -5.1288  -5.0600  -4.2975  -3.9562
    -2.2462  -2.2088  -0.1774  -0.1533   0.8357   1.0545   1.2810

          k = 0.3125 0.5413 0.0000 ( 35172 PWs)   bands (ev):

   -62.8700 -62.8460 -37.1592 -37.1366 -37.0940 -37.0715 -37.0011 -36.9773
   -14.0595 -13.9794 -13.9600 -13.9174  -7.5053  -7.4652  -6.8656  -6.7850
    -6.0840  -6.0086  -5.7316  -5.4507  -5.0918  -4.9590  -4.3947  -4.0216
    -2.1704  -2.1270  -0.2942  -0.2678   0.7533   0.9826   1.3400

          k =-0.0625 0.0361 0.0000 ( 35493 PWs)   bands (ev):

   -62.9144 -62.8904 -37.0878 -37.0643 -36.8676 -36.8558 -36.8449 -36.8327
   -16.2006 -16.0719 -14.9827 -14.7860  -7.9297  -7.4278  -4.7745  -4.7597
    -4.6423  -4.5740  -4.5623  -3.9513  -3.6214  -3.6050  -3.4468  -3.1087
    -2.3891  -1.7422   0.6126   0.6627   0.7346   0.7960   0.8426

          k =-0.1250 0.0722 0.0000 ( 35435 PWs)   bands (ev):

   -62.9100 -62.8860 -37.0791 -37.0557 -36.9116 -36.8890 -36.8658 -36.8427
   -16.0275 -15.8992 -14.9047 -14.7167  -7.7405  -7.2406  -5.1304  -5.1048
    -4.9793  -4.4641  -4.3956  -4.3828  -3.8720  -3.8552  -3.3874  -2.9267
    -2.4393  -1.9392   0.2956   0.4617   0.4985   0.6636   0.6824

          k =-0.1875 0.1083 0.0000 ( 35345 PWs)   bands (ev):

   -62.9033 -62.8793 -37.0662 -37.0427 -36.9770 -36.9544 -36.8808 -36.8577
   -15.7558 -15.6288 -14.7825 -14.6085  -7.4863  -7.0079  -5.5807  -5.5208
    -5.3766  -4.9918  -4.1964  -4.1790  -4.1223  -4.1086  -3.4861  -2.9791
    -2.6126  -2.2975  -0.0548   0.2817   0.4527   0.4958   0.5298

          k =-0.2500 0.1443 0.0000 ( 35323 PWs)   bands (ev):

   -62.8955 -62.8715 -37.0533 -37.0508 -37.0312 -37.0269 -36.8984 -36.8753
   -15.4114 -15.2875 -14.6286 -14.4730  -7.2987  -6.9212  -5.9909  -5.8233
    -5.7623  -5.5034  -4.5243  -4.5068  -3.8017  -3.7816  -3.7084  -3.1906
    -2.9014  -2.6995  -0.1641   0.2493   0.2708   0.3133   0.7504

          k =-0.3125 0.1804 0.0000 ( 35299 PWs)   bands (ev):

   -62.8876 -62.8636 -37.1286 -37.1063 -37.0355 -37.0119 -36.9160 -36.8929
   -15.0337 -14.9152 -14.4618 -14.3276  -7.3576  -7.1421  -6.3361  -6.0908
    -6.0243  -5.7735  -4.8120  -4.7943  -3.9646  -3.4763  -3.4620  -3.4163
    -3.1171  -2.9395  -0.0420   0.1589   0.1923   0.3589   1.0789

          k =-0.3750 0.2165 0.0000 ( 35224 PWs)   bands (ev):

   -62.8809 -62.8569 -37.1918 -37.1696 -37.0224 -36.9988 -36.9308 -36.9077
   -14.6785 -14.5677 -14.3070 -14.1951  -7.6106  -7.4753  -6.6794  -6.4735
    -6.1496  -5.8451  -5.0323  -5.0145  -4.1543  -3.6172  -3.2125  -3.1874
    -3.0911  -2.8899   0.1419   0.1699   0.2146   0.5232   1.3703

          k =-0.4375 0.2526 0.0000 ( 35152 PWs)   bands (ev):

   -62.8765 -62.8524 -37.2337 -37.2116 -37.0136 -36.9900 -36.9407 -36.9176
   -14.4187 -14.3148 -14.1929 -14.1005  -7.8501  -7.7357  -6.9283  -6.7467
    -6.2520  -5.9553  -5.1698  -5.1519  -4.2644  -3.7261  -3.0538  -3.0233
    -2.9112  -2.6845   0.1849   0.2085   0.4894   0.6891   1.5372

          k = 0.5000-0.2887 0.0000 ( 35026 PWs)   bands (ev):

   -62.8749 -62.8509 -37.2484 -37.2262 -37.0105 -36.9869 -36.9441 -36.9210
   -14.3235 -14.2218 -14.1486 -14.0655  -7.9452  -7.8333  -7.0185  -6.8435
    -6.2981  -6.0083  -5.2165  -5.1985  -4.2993  -3.7619  -3.0008  -2.9684
    -2.8121  -2.5784   0.2117   0.2337   0.6299   0.7622   1.5817

          k = 0.1250 0.0000 0.0000 ( 35467 PWs)   bands (ev):

   -62.9114 -62.8874 -37.0820 -37.0585 -36.8967 -36.8744 -36.8632 -36.8398
   -16.0845 -15.9558 -14.9305 -14.7393  -7.8008  -7.2990  -5.0163  -4.9989
    -4.8722  -4.4565  -4.4439  -4.3057  -3.8378  -3.8197  -3.3525  -2.9257
    -2.4162  -1.8605   0.3957   0.5012   0.5280   0.6737   0.7294

          k =-0.1250 0.1443 0.0000 ( 35370 PWs)   bands (ev):

   -62.9059 -62.8819 -37.0711 -37.0476 -36.9506 -36.9277 -36.8766 -36.8538
   -15.8613 -15.7344 -14.8295 -14.6511  -7.5739  -7.0827  -5.4112  -5.3724
    -5.2049  -4.7512  -4.2401  -4.2279  -4.2043  -4.1826  -3.2999  -2.8625
    -2.5239  -2.1633   0.0578   0.3103   0.4171   0.5039   0.5591

          k = 0.1875 0.0361 0.0000 ( 35370 PWs)   bands (ev):

   -62.9059 -62.8819 -37.0711 -37.0476 -36.9503 -36.9279 -36.8769 -36.8536
   -15.8620 -15.7340 -14.8304 -14.6501  -7.5749  -7.0819  -5.4092  -5.3743
    -5.2022  -4.7535  -4.2416  -4.2291  -4.2051  -4.1811  -3.3128  -2.8549
    -2.5264  -2.1369   0.0379   0.3055   0.4053   0.5245   0.5564

          k =-0.1875 0.1804 0.0000 ( 35362 PWs)   bands (ev):

   -62.8986 -62.8746 -37.0570 -37.0335 -37.0196 -36.9970 -36.8946 -36.8717
   -15.5525 -15.4281 -14.6907 -14.5288  -7.3388  -6.9012  -5.8212  -5.7204
    -5.5741  -5.2506  -4.5921  -4.5433  -3.9719  -3.9551  -3.4241  -2.9848
    -2.7601  -2.5413  -0.1851   0.1588   0.3554   0.3921   0.5441

          k = 0.2500 0.0722 0.0000 ( 35362 PWs)   bands (ev):

   -62.8986 -62.8746 -37.0570 -37.0335 -37.0194 -36.9971 -36.8948 -36.8715
   -15.5535 -15.4274 -14.6918 -14.5275  -7.3394  -6.9010  -5.8220  -5.7190
    -5.5728  -5.2508  -4.5978  -4.5402  -3.9719  -3.9570  -3.4325  -2.9792
    -2.7603  -2.5229  -0.1954   0.1568   0.3616   0.3962   0.5271

          k =-0.2500 0.2165 0.0000 ( 35310 PWs)   bands (ev):

   -62.8908 -62.8668 -37.0936 -37.0712 -37.0416 -37.0180 -36.9140 -36.8910
   -15.1896 -15.0699 -14.5289 -14.3871  -7.2671  -6.9815  -6.1480  -5.9474
    -5.8765  -5.7074  -4.8982  -4.8211  -3.7466  -3.7132  -3.6513  -3.2165
    -2.9904  -2.8401  -0.2079   0.0922   0.2756   0.3855   0.8239

          k = 0.3125 0.1083 0.0000 ( 35310 PWs)   bands (ev):

   -62.8908 -62.8668 -37.0935 -37.0713 -37.0416 -37.0180 -36.9141 -36.8909
   -15.1910 -15.0690 -14.5301 -14.3855  -7.2668  -6.9814  -6.1513  -5.9437
    -5.8796  -5.7026  -4.9035  -4.8203  -3.7538  -3.7270  -3.6379  -3.2090
    -2.9874  -2.8322  -0.2179   0.0954   0.2793   0.3869   0.8012

          k =-0.3125 0.2526 0.0000 ( 35243 PWs)   bands (ev):

   -62.8835 -62.8595 -37.1613 -37.1389 -37.0274 -37.0038 -36.9318 -36.9088
   -14.8197 -14.7070 -14.3659 -14.2461  -7.4437  -7.2807  -6.5067  -6.3080
    -6.0800  -5.7843  -5.0937  -5.0157  -3.9311  -3.6002  -3.5668  -3.4345
    -2.9803  -2.8627  -0.0769   0.1292   0.3096   0.4718   1.1653

          k = 0.3750 0.1443 0.0000 ( 35243 PWs)   bands (ev):

   -62.8835 -62.8595 -37.1611 -37.1390 -37.0274 -37.0038 -36.9319 -36.9088
   -14.8214 -14.7060 -14.3670 -14.2443  -7.4435  -7.2797  -6.5090  -6.3066
    -6.0806  -5.7812  -5.0969  -5.0174  -3.9422  -3.5984  -3.5780  -3.4081
    -2.9775  -2.8622  -0.0842   0.1265   0.3139   0.4743   1.1378

          k =-0.3750 0.2887 0.0000 ( 35169 PWs)   bands (ev):

   -62.8779 -62.8539 -37.2125 -37.1903 -37.0165 -36.9929 -36.9455 -36.9224
   -14.5073 -14.4023 -14.2287 -14.1300  -7.6968  -7.5766  -6.8349  -6.6691
    -6.1856  -5.8789  -5.1998  -5.1401  -4.1377  -3.6591  -3.4643  -3.3959
    -2.8130  -2.6764   0.0980   0.2108   0.4513   0.6194   1.4636

          k = 0.4375 0.1804 0.0000 ( 35169 PWs)   bands (ev):

   -62.8779 -62.8539 -37.2125 -37.1903 -37.0165 -36.9929 -36.9455 -36.9224
   -14.5090 -14.4015 -14.2294 -14.1284  -7.6968  -7.5757  -6.8365  -6.6679
    -6.1855  -5.8777  -5.2002  -5.1426  -4.1444  -3.6622  -3.4855  -3.3585
    -2.8092  -2.6804   0.1008   0.2004   0.4511   0.6237   1.4370

          k =-0.4375 0.3248 0.0000 ( 35128 PWs)   bands (ev):

   -62.8749 -62.8509 -37.2401 -37.2180 -37.0106 -36.9869 -36.9528 -36.9297
   -14.3270 -14.2259 -14.1463 -14.0626  -7.8642  -7.7526  -7.0218  -6.8668
    -6.2708  -5.9750  -5.2419  -5.2014  -4.2530  -3.7515  -3.3829  -3.2847
    -2.6656  -2.4982   0.1998   0.2454   0.6305   0.7675   1.6503

          k = 0.5000 0.2165 0.0000 ( 35128 PWs)   bands (ev):

   -62.8749 -62.8509 -37.2401 -37.2180 -37.0106 -36.9869 -36.9528 -36.9297
   -14.3279 -14.2256 -14.1464 -14.0619  -7.8642  -7.7522  -7.0223  -6.8664
    -6.2707  -5.9747  -5.2411  -5.2030  -4.2553  -3.7521  -3.3924  -3.2701
    -2.6630  -2.5009   0.2043   0.2393   0.6301   0.7678   1.6367

          k = 0.2500 0.0000 0.0000 ( 35331 PWs)   bands (ev):

   -62.8997 -62.8757 -37.0591 -37.0356 -37.0054 -36.9832 -36.8957 -36.8724
   -15.6023 -15.4756 -14.7134 -14.5461  -7.3563  -6.8977  -5.7464  -5.6729
    -5.4469  -5.0755  -4.7392  -4.6771  -4.0508  -4.0377  -3.2546  -2.8442
    -2.6982  -2.4391  -0.2121   0.1139   0.3448   0.3968   0.4296

          k =-0.1875 0.2526 0.0000 ( 35357 PWs)   bands (ev):

   -62.8925 -62.8685 -37.0691 -37.0465 -37.0449 -37.0212 -36.9187 -36.8959
   -15.2713 -15.1519 -14.5630 -14.4185  -7.2113  -6.8687  -6.0080  -5.8358
    -5.7383  -5.5453  -5.1686  -5.0083  -3.9545  -3.9182  -3.3347  -2.9845
    -2.8941  -2.7577  -0.3375  -0.0076   0.3268   0.4139   0.5513

          k = 0.3125 0.0361 0.0000 ( 35357 PWs)   bands (ev):

   -62.8925 -62.8685 -37.0687 -37.0466 -37.0450 -37.0214 -36.9190 -36.8957
   -15.2740 -15.1503 -14.5655 -14.4154  -7.2103  -6.8697  -6.0146  -5.8187
    -5.7477  -5.5433  -5.1780  -5.0046  -3.9454  -3.9310  -3.3480  -2.9806
    -2.8847  -2.7331  -0.3506  -0.0051   0.3290   0.4218   0.5294

          k =-0.2500 0.2887 0.0000 ( 35341 PWs)   bands (ev):

   -62.8852 -62.8612 -37.1312 -37.1087 -37.0307 -37.0071 -36.9424 -36.9196
   -14.9120 -14.7991 -14.4018 -14.2782  -7.2779  -7.0765  -6.2987  -6.1561
    -5.9924  -5.7285  -5.3435  -5.1354  -4.0160  -3.9618  -3.5755  -3.2084
    -2.9214  -2.8346  -0.2917   0.0551   0.3992   0.4859   0.8283

          k = 0.3750 0.0722 0.0000 ( 35341 PWs)   bands (ev):

   -62.8852 -62.8612 -37.1310 -37.1089 -37.0307 -37.0072 -36.9426 -36.9194
   -14.9154 -14.7971 -14.4043 -14.2745  -7.2765  -7.0756  -6.3021  -6.1481
    -6.0029  -5.7221  -5.3498  -5.1362  -4.0176  -3.9690  -3.5720  -3.1930
    -2.9105  -2.8387  -0.3000   0.0542   0.4020   0.4929   0.7923

          k =-0.3125 0.3248 0.0000 ( 35215 PWs)   bands (ev):

   -62.8790 -62.8550 -37.1833 -37.1609 -37.0187 -36.9951 -36.9626 -36.9397
   -14.5768 -14.4720 -14.2516 -14.1492  -7.4750  -7.3403  -6.7248  -6.6122
    -6.0756  -5.7546  -5.3696  -5.1843  -4.0668  -3.9893  -3.8565  -3.4732
    -2.7830  -2.7027  -0.0887   0.2357   0.5125   0.5760   1.1579

          k = 0.4375 0.1083 0.0000 ( 35215 PWs)   bands (ev):

   -62.8790 -62.8550 -37.1831 -37.1610 -37.0187 -36.9951 -36.9628 -36.9396
   -14.5808 -14.4701 -14.2536 -14.1455  -7.4746  -7.3381  -6.7273  -6.6093
    -6.0784  -5.7520  -5.3732  -5.1876  -4.1052  -3.9756  -3.8353  -3.4553
    -2.7806  -2.7063  -0.0882   0.2234   0.5144   0.5831   1.1019

          k =-0.3750 0.3608 0.0000 ( 35141 PWs)   bands (ev):

   -62.8749 -62.8509 -37.2178 -37.1956 -37.0106 -36.9870 -36.9762 -36.9531
   -14.3352 -14.2359 -14.1402 -14.0560  -7.6503  -7.5368  -7.0275  -6.9205
    -6.1856  -5.8745  -5.3327  -5.1914  -4.1574  -3.9869  -3.9292  -3.6701
    -2.6024  -2.4917   0.1021   0.2619   0.6652   0.7923   1.4575

          k = 0.5000 0.1443 0.0000 ( 35141 PWs)   bands (ev):

   -62.8749 -62.8509 -37.2177 -37.1956 -37.0106 -36.9870 -36.9762 -36.9531
   -14.3384 -14.2348 -14.1410 -14.0532  -7.6503  -7.5351  -7.0288  -6.9195
    -6.1859  -5.8739  -5.3325  -5.1952  -4.1826  -3.9799  -3.9225  -3.6500
    -2.6026  -2.4932   0.1079   0.2531   0.6636   0.7941   1.3770

          k =-0.4375 0.3969 0.0000 ( 35180 PWs)   bands (ev):

   -62.8735 -62.8494 -37.2298 -37.2077 -37.0078 -36.9842 -36.9809 -36.9578
   -14.2492 -14.1497 -14.0965 -14.0199  -7.7187  -7.6083  -7.1353  -7.0282
    -6.2412  -5.9381  -5.3000  -5.1909  -4.2492  -3.9821  -3.9115  -3.7219
    -2.5124  -2.3820   0.1583   0.2200   0.7752   0.9215   1.5394

          k = 0.3750 0.0000 0.0000 ( 35337 PWs)   bands (ev):

   -62.8858 -62.8618 -37.1173 -37.0953 -37.0319 -37.0084 -36.9495 -36.9261
   -14.9481 -14.8288 -14.4169 -14.2847  -7.2048  -6.9844  -6.1619  -6.0611
    -5.9852  -5.7081  -5.4935  -5.2081  -4.1736  -4.1546  -3.4211  -3.0774
    -2.8882  -2.8398  -0.3821   0.0146   0.4283   0.5023   0.6346

          k =-0.2500 0.3608 0.0000 ( 35241 PWs)   bands (ev):

   -62.8796 -62.8556 -37.1596 -37.1371 -37.0198 -36.9962 -36.9799 -36.9572
   -14.6138 -14.5111 -14.2617 -14.1597  -7.3062  -7.1524  -6.6320  -6.5781
    -5.9505  -5.6359  -5.4953  -5.2278  -4.5079  -4.4363  -3.6643  -3.3368
    -2.8054  -2.7383  -0.2157   0.2242   0.5464   0.5834   0.8616

          k = 0.4375 0.0361 0.0000 ( 35241 PWs)   bands (ev):

   -62.8796 -62.8556 -37.1593 -37.1373 -37.0199 -36.9963 -36.9802 -36.9569
   -14.6204 -14.5078 -14.2654 -14.1533  -7.3043  -7.1498  -6.6317  -6.5708
    -5.9753  -5.6319  -5.4966  -5.2256  -4.5060  -4.4396  -3.6551  -3.3235
    -2.7881  -2.7579  -0.2136   0.2164   0.5580   0.5809   0.8245

          k =-0.3125 0.3969 0.0000 ( 35167 PWs)   bands (ev):

   -62.8749 -62.8509 -37.1900 -37.1676 -37.0107 -37.0049 -36.9875 -36.9816
   -14.3422 -14.2465 -14.1332 -14.0503  -7.4040  -7.2796  -7.0308  -6.9711
    -6.0284  -5.7044  -5.4187  -5.1895  -4.6760  -4.5679  -3.9693  -3.6084
    -2.6073  -2.5434  -0.0199   0.2401   0.7083   0.8202   1.0748

          k = 0.5000 0.0722 0.0000 ( 35167 PWs)   bands (ev):

   -62.8749 -62.8509 -37.1898 -37.1678 -37.0107 -37.0050 -36.9878 -36.9811
   -14.3489 -14.2439 -14.1353 -14.0444  -7.4032  -7.2761  -7.0305  -6.9704
    -6.0338  -5.7061  -5.4218  -5.1909  -4.7056  -4.5463  -3.9478  -3.6055
    -2.6060  -2.5484  -0.0146   0.2352   0.7005   0.8267   1.0220

          k =-0.3750 0.4330 0.0000 ( 35162 PWs)   bands (ev):

   -62.8724 -62.8483 -37.2059 -37.1837 -37.0190 -37.0055 -36.9963 -36.9816
   -14.1914 -14.0966 -14.0539 -13.9847  -7.4555  -7.3407  -7.2434  -7.1829
    -6.1574  -5.8507  -5.3103  -5.1352  -4.7293  -4.5676  -4.1827  -3.7979
    -2.4288  -2.3403   0.0184   0.0982   0.8987   1.0666   1.2038

          k = 0.5625 0.1083 0.0000 ( 35162 PWs)   bands (ev):

   -62.8724 -62.8483 -37.2058 -37.1837 -37.0191 -37.0055 -36.9963 -36.9816
   -14.1946 -14.0959 -14.0542 -13.9819  -7.4551  -7.3388  -7.2435  -7.1837
    -6.1582  -5.8509  -5.3111  -5.1368  -4.7472  -4.5578  -4.1695  -3.7978
    -2.4293  -2.3411   0.0207   0.0965   0.8941   1.0750   1.1692

          k = 0.5000 0.0000 0.0000 ( 35195 PWs)   bands (ev):

   -62.8749 -62.8509 -37.1752 -37.1533 -37.0202 -37.0105 -36.9975 -36.9864
   -14.3532 -14.2477 -14.1329 -14.0408  -7.2887  -7.1524  -7.0285  -6.9913
    -5.8991  -5.5787  -5.4311  -5.1819  -4.9968  -4.9530  -3.8824  -3.5760
    -2.6119  -2.5816  -0.0674   0.2204   0.7022   0.8324   0.8966

          k =-0.3125 0.4691 0.0000 ( 35193 PWs)   bands (ev):

   -62.8718 -62.8477 -37.1803 -37.1578 -37.0524 -37.0298 -37.0044 -36.9807
   -14.1580 -14.0705 -14.0290 -13.9669  -7.3440  -7.2919  -7.1691  -7.0731
    -5.9824  -5.7088  -5.3695  -5.2848  -5.1676  -5.0496  -4.1849  -3.8256
    -2.3814  -2.3299  -0.1067  -0.0078   0.8385   0.9830   1.1333

          k = 0.5625 0.0361 0.0000 ( 35193 PWs)   bands (ev):

   -62.8718 -62.8477 -37.1800 -37.1580 -37.0527 -37.0297 -37.0044 -36.9806
   -14.1669 -14.0684 -14.0300 -13.9593  -7.3440  -7.2876  -7.1727  -7.0665
    -5.9885  -5.7173  -5.3986  -5.2656  -5.1704  -5.0401  -4.1576  -3.8366
    -2.3814  -2.3322  -0.1039  -0.0084   0.8186   1.0049   1.1133

          k =-0.3750 0.5052 0.0000 ( 35190 PWs)   bands (ev):

   -62.8706 -62.8466 -37.1800 -37.1578 -37.0658 -37.0429 -37.0022 -36.9785
   -14.0985 -14.0080 -13.9865 -13.9312  -7.4423  -7.3916  -7.0985  -7.0098
    -6.1259  -5.8728  -5.4198  -5.2426  -5.1287  -4.9949  -4.3129  -3.9518
    -2.2580  -2.1946  -0.1806  -0.1491   0.8476   1.0390   1.2433

          k = 0.6250 0.0000 0.0000 ( 35172 PWs)   bands (ev):

   -62.8700 -62.8460 -37.1588 -37.1368 -37.0943 -37.0713 -37.0011 -36.9773
   -14.0668 -13.9788 -13.9599 -13.9109  -7.5058  -7.4637  -6.8704  -6.7684
    -6.0916  -6.0368  -5.7119  -5.4576  -5.0978  -4.9454  -4.3808  -4.0307
    -2.1726  -2.1253  -0.2933  -0.2680   0.7540   0.9830   1.3222

     the Fermi energy is    -1.0837 ev

!    total energy              =    -989.17500881 Ry
     total all-electron energy =    -19385.835431 Ry
     estimated scf accuracy    <          7.6E-09 Ry
     smearing contrib. (-TS)   =       0.00001246 Ry
     internal energy E=F+TS    =    -989.17502126 Ry

     The total energy is F=E-TS. E is the sum of the following terms:
     one-electron contribution =  -10389.71723523 Ry
     hartree contribution      =    5197.92758276 Ry
     xc contribution           =     -59.61540005 Ry
     ewald contribution        =    4897.15726165 Ry
     one-center paw contrib.   =    -634.92723038 Ry

     convergence has been achieved in  37 iterations

     Writing all to output data dir ./tmp/gsfe_008/mos2_gsfe_008.save/ :
     XML data file, charge density, pseudopotentials, collected wavefunctions

     init_run     :     99.12s CPU    100.91s WALL (       1 calls)
     electrons    :   5796.91s CPU   5915.64s WALL (       1 calls)

     Called by init_run:
     wfcinit      :     53.07s CPU     53.34s WALL (       1 calls)
     potinit      :     43.22s CPU     43.66s WALL (       1 calls)
     hinit0       :      0.36s CPU      0.38s WALL (       1 calls)

     Called by electrons:
     c_bands      :   4739.89s CPU   4767.62s WALL (      38 calls)
     sum_band     :    795.64s CPU    838.05s WALL (      38 calls)
     v_of_rho     :    162.72s CPU    175.69s WALL (      38 calls)
     newd         :     84.69s CPU    120.94s WALL (      38 calls)
     PAW_pot      :      7.63s CPU      7.64s WALL (      38 calls)
     mix_rho      :     50.24s CPU     51.03s WALL (      38 calls)
     vdW_kernel   :     39.75s CPU     39.76s WALL (       1 calls)

     Called by c_bands:
     init_us_2    :     42.38s CPU     42.42s WALL (    5621 calls)
     init_us_2:cp :     42.38s CPU     42.41s WALL (    5621 calls)
     cegterg      :   4399.51s CPU   4426.57s WALL (    2774 calls)

     Called by *egterg:
     cdiaghg      :      4.22s CPU      4.23s WALL (    8797 calls)
     h_psi        :   2751.22s CPU   2753.56s WALL (    8943 calls)
     s_psi        :    595.69s CPU    596.29s WALL (    8943 calls)
     g_psi        :     18.77s CPU     18.79s WALL (    6096 calls)

     Called by h_psi:
     h_psi:calbec :    781.11s CPU    781.36s WALL (    8943 calls)
     vloc_psi     :   1365.15s CPU   1366.07s WALL (    8943 calls)
     add_vuspsi   :    596.22s CPU    596.40s WALL (    8943 calls)

     General routines
     calbec       :   1115.23s CPU   1115.58s WALL (   11717 calls)
     fft          :     46.85s CPU     46.87s WALL (    2393 calls)
     ffts         :     24.69s CPU     24.70s WALL (    4504 calls)
     fftw         :   1217.31s CPU   1217.95s WALL (  488796 calls)
     interpolate  :      1.11s CPU      1.11s WALL (      38 calls)

     Parallel routines

     PWSCF        :      1h38m CPU      1h40m WALL


   This run was terminated on:  23:31:29  14Jun2026            

=------------------------------------------------------------------------------=
   JOB DONE.
=------------------------------------------------------------------------------=
Note: The following floating-point exceptions are signalling: IEEE_UNDERFLOW_FLAG IEEE_DENORMAL
