Authorization required, but no authorization protocol specified

Authorization required, but no authorization protocol specified

Authorization required, but no authorization protocol specified

Authorization required, but no authorization protocol specified

Authorization required, but no authorization protocol specified

Authorization required, but no authorization protocol specified

Authorization required, but no authorization protocol specified

Authorization required, but no authorization protocol specified


     Program PWSCF v.7.3 starts on 14Jun2026 at 10:54:36 

     This program is part of the open-source Quantum ESPRESSO suite
     for quantum simulation of materials; please cite
         "P. Giannozzi et al., J. Phys.:Condens. Matter 21 395502 (2009);
         "P. Giannozzi et al., J. Phys.:Condens. Matter 29 465901 (2017);
         "P. Giannozzi et al., J. Chem. Phys. 152 154105 (2020);
          URL http://www.quantum-espresso.org", 
     in publications or presentations arising from this work. More details at
     http://www.quantum-espresso.org/quote

     Parallel version (MPI), running on     1 processors

     MPI processes distributed on     1 nodes
     8774 MiB available memory on the printing compute node when the environment starts

     Waiting for input...
     Reading input from standard input

     Current dimensions of program PWSCF are:
     Max number of different atomic species (ntypx) = 10
     Max number of k-points (npk) =  40000
     Max angular momentum in pseudopotentials (lmaxx) =  4
     file Mo.pbe-spn-kjpaw_psl.1.0.0.UPF: wavefunction(s)  4S 4D renormalized
     file S.pbe-n-kjpaw_psl.1.0.0.UPF: wavefunction(s)  3S 3P renormalized

     IMPORTANT: XC functional enforced from input :
     Exchange-correlation= VDW-DF2-B86R
                           (   1   4  26   0   2   0   0)
     Any further DFT definition will be discarded
     Please, verify this is what you really want


     Subspace diagonalization in iterative solution of the eigenvalue problem:
     a serial algorithm will be used


     G-vector sticks info
     --------------------
     sticks:   dense  smooth     PW     G-vecs:    dense   smooth      PW
     Sum        1573     769    223               797393   281171   43435

     Using Slab Decomposition



     bravais-lattice index     =            4
     lattice parameter (alat)  =       5.9715  a.u.
     unit-cell volume          =    2917.9067 (a.u.)^3
     number of atoms/cell      =            6
     number of atomic types    =            2
     number of electrons       =        52.00
     number of Kohn-Sham states=           31
     kinetic-energy cutoff     =      80.0000  Ry
     charge density cutoff     =     640.0000  Ry
     scf convergence threshold =      1.0E-08
     mixing beta               =       0.3000
     number of iterations used =            8  local-TF  mixing
     Exchange-correlation= VDW-DF2-B86R
                           (   1   4  26   0   2   0   0)

     celldm(1)=   5.971535  celldm(2)=   0.000000  celldm(3)=  15.822785
     celldm(4)=   0.000000  celldm(5)=   0.000000  celldm(6)=   0.000000

     crystal axes: (cart. coord. in units of alat)
               a(1) = (   1.000000   0.000000   0.000000 )  
               a(2) = (  -0.500000   0.866025   0.000000 )  
               a(3) = (   0.000000   0.000000  15.822785 )  

     reciprocal axes: (cart. coord. in units 2 pi/alat)
               b(1) = (  1.000000  0.577350 -0.000000 )  
               b(2) = (  0.000000  1.154701  0.000000 )  
               b(3) = (  0.000000 -0.000000  0.063200 )  


     PseudoPot. # 1 for Mo read from file:
     ./pseudo/Mo.pbe-spn-kjpaw_psl.1.0.0.UPF
     MD5 check sum: 4396e0c640fcce5c25f020efccf1ab12
     Pseudo is Projector augmented-wave + core cor, Zval = 14.0
     Generated using &quot;atomic&quot; code by A. Dal Corso  v.6.3
     Shape of augmentation charge: PSQ
     Using radial grid of 1229 points,  6 beta functions with: 
                l(1) =   0
                l(2) =   0
                l(3) =   1
                l(4) =   1
                l(5) =   2
                l(6) =   2
     Q(r) pseudized with 0 coefficients 


     PseudoPot. # 2 for S  read from file:
     ./pseudo/S.pbe-n-kjpaw_psl.1.0.0.UPF
     MD5 check sum: fb45dfebcf3e72a4e1bd4a866ec2e262
     Pseudo is Projector augmented-wave + core cor, Zval =  6.0
     Generated using &quot;atomic&quot; code by A. Dal Corso  v.6.3
     Shape of augmentation charge: PSQ
     Using radial grid of 1151 points,  6 beta functions with: 
                l(1) =   0
                l(2) =   0
                l(3) =   1
                l(4) =   1
                l(5) =   2
                l(6) =   2
     Q(r) pseudized with 0 coefficients 


     atomic species   valence    mass     pseudopotential
     Mo               14.00    95.96000     Mo( 1.00)
     S                 6.00    32.06000     S ( 1.00)

      2 Sym. Ops. (no inversion) found



   Cartesian axes

     site n.     atom                  positions (alat units)
         1        S      tau(   1) = (  -0.0000005   0.5773506   6.4231013  )
         2        Mo     tau(   2) = (   0.0000000   0.0000000   6.9204905  )
         3        S      tau(   3) = (  -0.0000005   0.5773506   7.4181013  )
         4        S      tau(   4) = (   0.5000000   0.2598076   8.4034019  )
         5        Mo     tau(   5) = (   0.0000005   0.5484825   8.9017247  )
         6        S      tau(   6) = (   0.5000000   0.2598076   9.3996835  )

     number of k points=    73  Methfessel-Paxton smearing, width (Ry)=  0.0200
                       cart. coord. in units 2pi/alat
        k(    1) = (   0.0000000   0.0000000   0.0000000), wk =   0.0078125
        k(    2) = (   0.0000000   0.0721688   0.0000000), wk =   0.0156250
        k(    3) = (   0.0000000   0.1443376   0.0000000), wk =   0.0156250
        k(    4) = (   0.0000000   0.2165064   0.0000000), wk =   0.0156250
        k(    5) = (   0.0000000   0.2886751   0.0000000), wk =   0.0156250
        k(    6) = (   0.0000000   0.3608439   0.0000000), wk =   0.0156250
        k(    7) = (   0.0000000   0.4330127   0.0000000), wk =   0.0156250
        k(    8) = (   0.0000000   0.5051815   0.0000000), wk =   0.0156250
        k(    9) = (   0.0000000  -0.5773503   0.0000000), wk =   0.0078125
        k(   10) = (   0.0625000   0.1082532   0.0000000), wk =   0.0312500
        k(   11) = (   0.0625000   0.1804220   0.0000000), wk =   0.0312500
        k(   12) = (   0.0625000   0.2525907   0.0000000), wk =   0.0312500
        k(   13) = (   0.0625000   0.3247595   0.0000000), wk =   0.0312500
        k(   14) = (   0.0625000   0.3969283   0.0000000), wk =   0.0312500
        k(   15) = (   0.0625000   0.4690971   0.0000000), wk =   0.0312500
        k(   16) = (   0.0625000   0.5412659   0.0000000), wk =   0.0312500
        k(   17) = (   0.1250000   0.2165064   0.0000000), wk =   0.0312500
        k(   18) = (   0.1250000   0.2886751   0.0000000), wk =   0.0312500
        k(   19) = (   0.1250000   0.3608439   0.0000000), wk =   0.0312500
        k(   20) = (   0.1250000   0.4330127   0.0000000), wk =   0.0312500
        k(   21) = (   0.1250000   0.5051815   0.0000000), wk =   0.0312500
        k(   22) = (   0.1250000   0.5773503   0.0000000), wk =   0.0156250
        k(   23) = (   0.1875000   0.3247595   0.0000000), wk =   0.0312500
        k(   24) = (   0.1875000   0.3969283   0.0000000), wk =   0.0312500
        k(   25) = (   0.1875000   0.4690971   0.0000000), wk =   0.0312500
        k(   26) = (   0.1875000   0.5412659   0.0000000), wk =   0.0312500
        k(   27) = (   0.2500000   0.4330127   0.0000000), wk =   0.0312500
        k(   28) = (   0.2500000   0.5051815   0.0000000), wk =   0.0312500
        k(   29) = (   0.2500000   0.5773503   0.0000000), wk =   0.0156250
        k(   30) = (   0.3125000   0.5412659   0.0000000), wk =   0.0312500
        k(   31) = (  -0.0625000   0.0360844   0.0000000), wk =   0.0312500
        k(   32) = (  -0.1250000   0.0721688   0.0000000), wk =   0.0312500
        k(   33) = (  -0.1875000   0.1082532   0.0000000), wk =   0.0312500
        k(   34) = (  -0.2500000   0.1443376   0.0000000), wk =   0.0312500
        k(   35) = (  -0.3125000   0.1804220   0.0000000), wk =   0.0312500
        k(   36) = (  -0.3750000   0.2165064   0.0000000), wk =   0.0312500
        k(   37) = (  -0.4375000   0.2525907   0.0000000), wk =   0.0312500
        k(   38) = (   0.5000000  -0.2886751   0.0000000), wk =   0.0156250
        k(   39) = (   0.1250000   0.0000000   0.0000000), wk =   0.0156250
        k(   40) = (  -0.1250000   0.1443376   0.0000000), wk =   0.0312500
        k(   41) = (   0.1875000   0.0360844   0.0000000), wk =   0.0312500
        k(   42) = (  -0.1875000   0.1804220   0.0000000), wk =   0.0312500
        k(   43) = (   0.2500000   0.0721688   0.0000000), wk =   0.0312500
        k(   44) = (  -0.2500000   0.2165064   0.0000000), wk =   0.0312500
        k(   45) = (   0.3125000   0.1082532   0.0000000), wk =   0.0312500
        k(   46) = (  -0.3125000   0.2525907   0.0000000), wk =   0.0312500
        k(   47) = (   0.3750000   0.1443376   0.0000000), wk =   0.0312500
        k(   48) = (  -0.3750000   0.2886751   0.0000000), wk =   0.0312500
        k(   49) = (   0.4375000   0.1804220   0.0000000), wk =   0.0312500
        k(   50) = (  -0.4375000   0.3247595   0.0000000), wk =   0.0312500
        k(   51) = (   0.5000000   0.2165064   0.0000000), wk =   0.0312500
        k(   52) = (   0.2500000   0.0000000   0.0000000), wk =   0.0156250
        k(   53) = (  -0.1875000   0.2525907   0.0000000), wk =   0.0312500
        k(   54) = (   0.3125000   0.0360844   0.0000000), wk =   0.0312500
        k(   55) = (  -0.2500000   0.2886751   0.0000000), wk =   0.0312500
        k(   56) = (   0.3750000   0.0721688   0.0000000), wk =   0.0312500
        k(   57) = (  -0.3125000   0.3247595   0.0000000), wk =   0.0312500
        k(   58) = (   0.4375000   0.1082532   0.0000000), wk =   0.0312500
        k(   59) = (  -0.3750000   0.3608439   0.0000000), wk =   0.0312500
        k(   60) = (   0.5000000   0.1443376   0.0000000), wk =   0.0312500
        k(   61) = (  -0.4375000   0.3969283   0.0000000), wk =   0.0312500
        k(   62) = (   0.3750000   0.0000000   0.0000000), wk =   0.0156250
        k(   63) = (  -0.2500000   0.3608439   0.0000000), wk =   0.0312500
        k(   64) = (   0.4375000   0.0360844   0.0000000), wk =   0.0312500
        k(   65) = (  -0.3125000   0.3969283   0.0000000), wk =   0.0312500
        k(   66) = (   0.5000000   0.0721688   0.0000000), wk =   0.0312500
        k(   67) = (  -0.3750000   0.4330127   0.0000000), wk =   0.0312500
        k(   68) = (   0.5625000   0.1082532   0.0000000), wk =   0.0312500
        k(   69) = (   0.5000000   0.0000000   0.0000000), wk =   0.0156250
        k(   70) = (  -0.3125000   0.4690971   0.0000000), wk =   0.0312500
        k(   71) = (   0.5625000   0.0360844   0.0000000), wk =   0.0312500
        k(   72) = (  -0.3750000   0.5051815   0.0000000), wk =   0.0312500
        k(   73) = (   0.6250000   0.0000000   0.0000000), wk =   0.0156250

     Dense  grid:   797393 G-vectors     FFT dimensions: (  50,  50, 768)

     Smooth grid:   281171 G-vectors     FFT dimensions: (  36,  36, 540)

     Estimated max dynamical RAM per process >       4.00 GB

     Initial potential from superposition of free atoms

     starting charge      51.9981, renormalised to      52.0000

     negative rho (up, down):  1.928E-04 0.000E+00


     %%%%%%%%%%%%%%%%%%%%%%%%%%%%%%%%%%%%%%%%%%%%%%%%%%%%%%%%%%%%%%%%%%%%%%%%
     %                                                                      %
     % You are using vdW-DF, which was implemented by the Thonhauser group. %
     % Please cite the following two papers that made this development      %
     % possible and the two reviews that describe the various versions:     %
     %                                                                      %
     %   T. Thonhauser et al., PRL 115, 136402 (2015).                      %
     %   T. Thonhauser et al., PRB 76, 125112 (2007).                       %
     %   K. Berland et al., Rep. Prog. Phys. 78, 066501 (2015).             %
     %   D.C. Langreth et al., J. Phys.: Condens. Matter 21, 084203 (2009). %
     %                                                                      %
     % If you are calculating stress with vdW-DF, please also cite:         %
     %                                                                      %
     %   R. Sabatini et al., J. Phys.: Condens. Matter 24, 424209 (2012).   %
     %                                                                      %
     %%%%%%%%%%%%%%%%%%%%%%%%%%%%%%%%%%%%%%%%%%%%%%%%%%%%%%%%%%%%%%%%%%%%%%%%

     %%%%%%%%%%%%%%%%%%%%%%%%%%%%%%%%%%%%%%%%%%%%%%%%%%%%%%%%%%%%%%%%%%%%%%%%
     %                                                                      %
     %  vdW-DF NEWS:                                                        %
     %                                                                      %
     %  * vdW-DF3 is now available. DOI: 10.1021/acs.jctc.0c00471           %
     %    use with input_dft = 'vdW-DF3-opt1' or 'vdW-DF3-opt2'             %
     %                                                                      %
     %  * Unscreened and range-separated hybrid vdW-DF-cx functionals       %
     %    DOI: 10.1063/1.4986522 and 10.1088/1361-648X/ac2ad2               %
     %    use with input_dft = 'vdW-DF-cx0'    and 'vdW-DF-ahcx'            %
     %  * Unscreened and range-separated hybrid vdW-DF2-b86r functionals    %
     %    DOI: 10.1063/1.4986522 and DOI: 10.1103/PhysRevX.12.041003        %
     %    use with input_dft = 'vdW-DF2-br0' and 'vdW-DF2-ahbr'             %
     %                                                                      %
     %%%%%%%%%%%%%%%%%%%%%%%%%%%%%%%%%%%%%%%%%%%%%%%%%%%%%%%%%%%%%%%%%%%%%%%%


     Starting wfcs are   36 randomized atomic wfcs
     Checking if some PAW data can be deallocated... 

     total cpu time spent up to now is      110.8 secs

     Self-consistent Calculation

     iteration #  1     ecut=    80.00 Ry     beta= 0.30
     Davidson diagonalization with overlap
     ethr =  1.00E-02,  avg # of iterations =  2.2

     Threshold (ethr) on eigenvalues was too large:
     Diagonalizing with lowered threshold

     Davidson diagonalization with overlap
     ethr =  2.73E-04,  avg # of iterations =  4.0

     negative rho (up, down):  7.347E-05 0.000E+00

     total cpu time spent up to now is      506.5 secs

     total energy              =    -989.21771039 Ry
     estimated scf accuracy    <       0.22730269 Ry

     iteration #  2     ecut=    80.00 Ry     beta= 0.30
     Davidson diagonalization with overlap
     ethr =  4.37E-04,  avg # of iterations =  1.0

     negative rho (up, down):  8.379E-05 0.000E+00

     total cpu time spent up to now is      654.3 secs

     total energy              =    -989.14568774 Ry
     estimated scf accuracy    <       0.16110222 Ry

     iteration #  3     ecut=    80.00 Ry     beta= 0.30
     Davidson diagonalization with overlap
     ethr =  3.10E-04,  avg # of iterations =  2.0

     negative rho (up, down):  2.941E-05 0.000E+00

     total cpu time spent up to now is      821.9 secs

     total energy              =    -989.17794350 Ry
     estimated scf accuracy    <       0.01471464 Ry

     iteration #  4     ecut=    80.00 Ry     beta= 0.30
     Davidson diagonalization with overlap
     ethr =  2.83E-05,  avg # of iterations =  2.3

     negative rho (up, down):  1.005E-05 0.000E+00

     total cpu time spent up to now is      993.8 secs

     total energy              =    -989.17836688 Ry
     estimated scf accuracy    <       0.00796184 Ry

     iteration #  5     ecut=    80.00 Ry     beta= 0.30
     Davidson diagonalization with overlap
     ethr =  1.53E-05,  avg # of iterations =  3.7

     negative rho (up, down):  3.423E-06 0.000E+00

     total cpu time spent up to now is     1148.0 secs

     total energy              =    -989.17865142 Ry
     estimated scf accuracy    <       0.00286364 Ry

     iteration #  6     ecut=    80.00 Ry     beta= 0.30
     Davidson diagonalization with overlap
     ethr =  5.51E-06,  avg # of iterations =  3.6

     negative rho (up, down):  6.055E-07 0.000E+00

     total cpu time spent up to now is     1293.1 secs

     total energy              =    -989.17834579 Ry
     estimated scf accuracy    <       0.00255694 Ry

     iteration #  7     ecut=    80.00 Ry     beta= 0.30
     Davidson diagonalization with overlap
     ethr =  4.92E-06,  avg # of iterations =  1.5

     negative rho (up, down):  4.547E-07 0.000E+00

     total cpu time spent up to now is     1432.5 secs

     total energy              =    -989.17810373 Ry
     estimated scf accuracy    <       0.00236307 Ry

     iteration #  8     ecut=    80.00 Ry     beta= 0.30
     Davidson diagonalization with overlap
     ethr =  4.54E-06,  avg # of iterations =  3.5

     negative rho (up, down):  4.276E-04 0.000E+00

     total cpu time spent up to now is     1607.9 secs

     total energy              =    -989.17747184 Ry
     estimated scf accuracy    <       0.00402758 Ry

     iteration #  9     ecut=    80.00 Ry     beta= 0.30
     Davidson diagonalization with overlap
     ethr =  4.54E-06,  avg # of iterations =  2.7

     negative rho (up, down):  1.913E-03 0.000E+00

     total cpu time spent up to now is     1782.1 secs

     total energy              =    -989.17798967 Ry
     estimated scf accuracy    <       0.00064185 Ry

     iteration # 10     ecut=    80.00 Ry     beta= 0.30
     Davidson diagonalization with overlap
     ethr =  1.23E-06,  avg # of iterations =  3.7

     negative rho (up, down):  3.808E-03 0.000E+00

     total cpu time spent up to now is     1932.6 secs

     total energy              =    -989.17800179 Ry
     estimated scf accuracy    <       0.00046532 Ry

     iteration # 11     ecut=    80.00 Ry     beta= 0.30
     Davidson diagonalization with overlap
     ethr =  8.95E-07,  avg # of iterations =  2.0

     negative rho (up, down):  4.154E-03 0.000E+00

     total cpu time spent up to now is     2105.2 secs

     total energy              =    -989.17799078 Ry
     estimated scf accuracy    <       0.00059659 Ry

     iteration # 12     ecut=    80.00 Ry     beta= 0.30
     Davidson diagonalization with overlap
     ethr =  8.95E-07,  avg # of iterations =  3.2

     negative rho (up, down):  5.999E-03 0.000E+00

     total cpu time spent up to now is     2275.4 secs

     total energy              =    -989.17794689 Ry
     estimated scf accuracy    <       0.00059924 Ry

     iteration # 13     ecut=    80.00 Ry     beta= 0.30
     Davidson diagonalization with overlap
     ethr =  8.95E-07,  avg # of iterations =  1.4

     negative rho (up, down):  6.393E-03 0.000E+00

     total cpu time spent up to now is     2412.0 secs

     total energy              =    -989.17793849 Ry
     estimated scf accuracy    <       0.00027647 Ry

     iteration # 14     ecut=    80.00 Ry     beta= 0.30
     Davidson diagonalization with overlap
     ethr =  5.32E-07,  avg # of iterations =  2.2

     negative rho (up, down):  4.698E-03 0.000E+00

     total cpu time spent up to now is     2560.1 secs

     total energy              =    -989.17792477 Ry
     estimated scf accuracy    <       0.00016964 Ry

     iteration # 15     ecut=    80.00 Ry     beta= 0.30
     Davidson diagonalization with overlap
     ethr =  3.26E-07,  avg # of iterations =  2.0

     negative rho (up, down):  3.611E-03 0.000E+00

     total cpu time spent up to now is     2725.4 secs

     total energy              =    -989.17787549 Ry
     estimated scf accuracy    <       0.00016386 Ry

     iteration # 16     ecut=    80.00 Ry     beta= 0.30
     Davidson diagonalization with overlap
     ethr =  3.15E-07,  avg # of iterations =  2.0

     negative rho (up, down):  3.331E-03 0.000E+00

     total cpu time spent up to now is     2887.7 secs

     total energy              =    -989.17790862 Ry
     estimated scf accuracy    <       0.00008607 Ry

     iteration # 17     ecut=    80.00 Ry     beta= 0.30
     Davidson diagonalization with overlap
     ethr =  1.66E-07,  avg # of iterations =  2.3

     negative rho (up, down):  2.644E-03 0.000E+00

     total cpu time spent up to now is     3038.0 secs

     total energy              =    -989.17791911 Ry
     estimated scf accuracy    <       0.00005977 Ry

     iteration # 18     ecut=    80.00 Ry     beta= 0.30
     Davidson diagonalization with overlap
     ethr =  1.15E-07,  avg # of iterations =  2.0

     negative rho (up, down):  2.082E-03 0.000E+00

     total cpu time spent up to now is     3187.5 secs

     total energy              =    -989.17794817 Ry
     estimated scf accuracy    <       0.00002155 Ry

     iteration # 19     ecut=    80.00 Ry     beta= 0.30
     Davidson diagonalization with overlap
     ethr =  4.14E-08,  avg # of iterations =  2.5

     negative rho (up, down):  1.248E-03 0.000E+00

     total cpu time spent up to now is     3346.1 secs

     total energy              =    -989.17796538 Ry
     estimated scf accuracy    <       0.00001281 Ry

     iteration # 20     ecut=    80.00 Ry     beta= 0.30
     Davidson diagonalization with overlap
     ethr =  2.46E-08,  avg # of iterations =  1.2

     negative rho (up, down):  3.551E-04 0.000E+00

     total cpu time spent up to now is     3481.3 secs

     total energy              =    -989.17797465 Ry
     estimated scf accuracy    <       0.00000490 Ry

     iteration # 21     ecut=    80.00 Ry     beta= 0.30
     Davidson diagonalization with overlap
     ethr =  9.41E-09,  avg # of iterations =  2.1

     negative rho (up, down):  3.664E-04 0.000E+00

     total cpu time spent up to now is     3636.7 secs

     total energy              =    -989.17797470 Ry
     estimated scf accuracy    <       0.00000256 Ry

     iteration # 22     ecut=    80.00 Ry     beta= 0.30
     Davidson diagonalization with overlap
     ethr =  4.92E-09,  avg # of iterations =  1.2

     negative rho (up, down):  4.337E-04 0.000E+00

     total cpu time spent up to now is     3772.2 secs

     total energy              =    -989.17797463 Ry
     estimated scf accuracy    <       0.00000168 Ry

     iteration # 23     ecut=    80.00 Ry     beta= 0.30
     Davidson diagonalization with overlap
     ethr =  3.22E-09,  avg # of iterations =  2.0

     negative rho (up, down):  2.994E-04 0.000E+00

     total cpu time spent up to now is     3918.3 secs

     total energy              =    -989.17797442 Ry
     estimated scf accuracy    <       0.00000132 Ry

     iteration # 24     ecut=    80.00 Ry     beta= 0.30
     Davidson diagonalization with overlap
     ethr =  2.55E-09,  avg # of iterations =  1.6

     negative rho (up, down):  2.336E-04 0.000E+00

     total cpu time spent up to now is     4059.0 secs

     total energy              =    -989.17797339 Ry
     estimated scf accuracy    <       0.00000128 Ry

     iteration # 25     ecut=    80.00 Ry     beta= 0.30
     Davidson diagonalization with overlap
     ethr =  2.46E-09,  avg # of iterations =  1.8

     negative rho (up, down):  2.125E-04 0.000E+00

     total cpu time spent up to now is     4202.7 secs

     total energy              =    -989.17797422 Ry
     estimated scf accuracy    <       0.00000085 Ry

     iteration # 26     ecut=    80.00 Ry     beta= 0.30
     Davidson diagonalization with overlap
     ethr =  1.63E-09,  avg # of iterations =  1.1

     negative rho (up, down):  2.823E-04 0.000E+00

     total cpu time spent up to now is     4336.6 secs

     total energy              =    -989.17797477 Ry
     estimated scf accuracy    <       0.00000070 Ry

     iteration # 27     ecut=    80.00 Ry     beta= 0.30
     Davidson diagonalization with overlap
     ethr =  1.34E-09,  avg # of iterations =  1.4

     negative rho (up, down):  2.679E-04 0.000E+00

     total cpu time spent up to now is     4475.3 secs

     total energy              =    -989.17797431 Ry
     estimated scf accuracy    <       0.00000042 Ry

     iteration # 28     ecut=    80.00 Ry     beta= 0.30
     Davidson diagonalization with overlap
     ethr =  8.12E-10,  avg # of iterations =  2.0

     negative rho (up, down):  2.481E-04 0.000E+00

     total cpu time spent up to now is     4622.3 secs

     total energy              =    -989.17797410 Ry
     estimated scf accuracy    <       0.00000029 Ry

     iteration # 29     ecut=    80.00 Ry     beta= 0.30
     Davidson diagonalization with overlap
     ethr =  5.54E-10,  avg # of iterations =  2.0

     negative rho (up, down):  2.563E-04 0.000E+00

     total cpu time spent up to now is     4770.4 secs

     total energy              =    -989.17797318 Ry
     estimated scf accuracy    <       0.00000016 Ry

     iteration # 30     ecut=    80.00 Ry     beta= 0.30
     Davidson diagonalization with overlap
     ethr =  3.03E-10,  avg # of iterations =  2.7

     negative rho (up, down):  2.339E-04 0.000E+00

     total cpu time spent up to now is     4944.7 secs

     total energy              =    -989.17797340 Ry
     estimated scf accuracy    <       0.00000014 Ry

     iteration # 31     ecut=    80.00 Ry     beta= 0.30
     Davidson diagonalization with overlap
     ethr =  2.61E-10,  avg # of iterations =  2.2

     negative rho (up, down):  2.277E-04 0.000E+00

     total cpu time spent up to now is     5111.8 secs

     total energy              =    -989.17797350 Ry
     estimated scf accuracy    <       0.00000003 Ry

     iteration # 32     ecut=    80.00 Ry     beta= 0.30
     Davidson diagonalization with overlap
     ethr =  5.91E-11,  avg # of iterations =  2.0

     negative rho (up, down):  2.237E-04 0.000E+00

     total cpu time spent up to now is     5263.0 secs

     total energy              =    -989.17797399 Ry
     estimated scf accuracy    <       0.00000003 Ry

     iteration # 33     ecut=    80.00 Ry     beta= 0.30
     Davidson diagonalization with overlap
     ethr =  4.92E-11,  avg # of iterations =  2.4

     negative rho (up, down):  2.250E-04 0.000E+00

     total cpu time spent up to now is     5413.9 secs

     End of self-consistent calculation

          k = 0.0000 0.0000 0.0000 ( 35507 PWs)   bands (ev):

   -62.9291 -62.8819 -37.1029 -37.0563 -36.8656 -36.8655 -36.8196 -36.8195
   -16.2575 -16.1303 -15.0054 -14.8101  -7.9821  -7.5014  -4.6502  -4.6500
    -4.6151  -4.6149  -4.4584  -3.5364  -3.5356  -3.4968  -3.4961  -3.4581
    -2.3741  -1.7180   0.6939   0.7017   0.7572   0.7608   0.9116

          k = 0.0000 0.0722 0.0000 ( 35493 PWs)   bands (ev):

   -62.9275 -62.8803 -37.0999 -37.0532 -36.8812 -36.8691 -36.8351 -36.8231
   -16.1980 -16.0711 -14.9786 -14.7865  -7.9134  -7.4333  -4.7855  -4.7500
    -4.6210  -4.5878  -4.5526  -3.9578  -3.6328  -3.5931  -3.4263  -3.1263
    -2.3788  -1.7813   0.6196   0.6716   0.7545   0.7902   0.8096

          k = 0.0000 0.1443 0.0000 ( 35435 PWs)   bands (ev):

   -62.9231 -62.8759 -37.0913 -37.0446 -36.9252 -36.8792 -36.8791 -36.8332
   -16.0243 -15.8987 -14.9002 -14.7178  -7.7230  -7.2467  -5.1352  -5.0995
    -4.9688  -4.4688  -4.4087  -4.3724  -3.8842  -3.8423  -3.3396  -2.9560
    -2.4275  -2.0021   0.3482   0.4586   0.5204   0.6308   0.6495

          k = 0.0000 0.2165 0.0000 ( 35345 PWs)   bands (ev):

   -62.9164 -62.8693 -37.0783 -37.0316 -36.9906 -36.9447 -36.8941 -36.8482
   -15.7514 -15.6289 -14.7775 -14.6108  -7.4681  -7.0137  -5.5668  -5.5320
    -5.3706  -4.9986  -4.2106  -4.1673  -4.1331  -4.0960  -3.4068  -3.0259
    -2.5953  -2.3835  -0.0119   0.2774   0.4279   0.5315   0.5369

          k = 0.0000 0.2887 0.0000 ( 35323 PWs)   bands (ev):

   -62.9086 -62.8614 -37.0668 -37.0629 -37.0211 -37.0162 -36.9117 -36.8658
   -15.4050 -15.2888 -14.6226 -14.4773  -7.2851  -6.9242  -5.9453  -5.8619
    -5.7512  -5.5181  -4.5387  -4.4923  -3.8107  -3.7656  -3.6091  -3.2604
    -2.8824  -2.7885  -0.1312   0.2381   0.2515   0.3393   0.7716

          k = 0.0000 0.3608 0.0000 ( 35299 PWs)   bands (ev):

   -62.9007 -62.8535 -37.1422 -37.0965 -37.0476 -37.0008 -36.9292 -36.8834
   -15.0236 -14.9184 -14.4545 -14.3352  -7.3515  -7.1480  -6.2993  -6.1082
    -5.9725  -5.8293  -4.8271  -4.7792  -3.8374  -3.5278  -3.4907  -3.4339
    -3.1018  -3.0161  -0.0156   0.1313   0.2194   0.3541   1.1128

          k = 0.0000 0.4330 0.0000 ( 35224 PWs)   bands (ev):

   -62.8940 -62.8468 -37.2054 -37.1598 -37.0345 -36.9877 -36.9441 -36.8982
   -14.6618 -14.5737 -14.2985 -14.2080  -7.6016  -7.4897  -6.6458  -6.5007
    -6.0627  -5.9167  -5.0478  -4.9990  -4.0092  -3.7393  -3.2344  -3.1614
    -3.0770  -2.9650   0.1217   0.1905   0.2333   0.5203   1.4300

          k = 0.0000 0.5052 0.0000 ( 35152 PWs)   bands (ev):

   -62.8896 -62.8424 -37.2473 -37.2018 -37.0257 -36.9789 -36.9539 -36.9081
   -14.3907 -14.3240 -14.1852 -14.1209  -7.8340  -7.7580  -6.8902  -6.7813
    -6.1623  -6.0266  -5.1855  -5.1361  -4.1017  -3.8684  -3.0781  -2.9903
    -2.8840  -2.7783   0.1685   0.2217   0.5083   0.6827   1.6301

          k = 0.0000-0.5774 0.0000 ( 35026 PWs)   bands (ev):

   -62.8880 -62.8408 -37.2620 -37.2164 -37.0226 -36.9758 -36.9574 -36.9115
   -14.2866 -14.2324 -14.1439 -14.0907  -7.9261  -7.8584  -6.9779  -6.8812
    -6.2102  -6.0777  -5.2322  -5.1826  -4.1289  -3.9121  -3.0271  -2.9334
    -2.7662  -2.6928   0.1967   0.2451   0.6554   0.7432   1.6913

          k = 0.0625 0.1083 0.0000 ( 35467 PWs)   bands (ev):

   -62.9245 -62.8773 -37.0941 -37.0474 -36.9105 -36.8763 -36.8645 -36.8303
   -16.0814 -15.9553 -14.9260 -14.7403  -7.7834  -7.3051  -5.0255  -4.9900
    -4.8601  -4.4690  -4.4335  -4.3094  -3.8479  -3.8078  -3.3144  -2.9506
    -2.4049  -1.9208   0.4644   0.4910   0.5447   0.6230   0.7108

          k = 0.0625 0.1804 0.0000 ( 35370 PWs)   bands (ev):

   -62.9190 -62.8718 -37.0832 -37.0365 -36.9640 -36.9181 -36.8900 -36.8441
   -15.8579 -15.7340 -14.8253 -14.6522  -7.5563  -7.0883  -5.4085  -5.3737
    -5.1964  -4.7564  -4.2533  -4.2244  -4.2045  -4.1728  -3.2482  -2.8903
    -2.5121  -2.2252   0.0874   0.3045   0.4255   0.4986   0.5663

          k = 0.0625 0.2526 0.0000 ( 35362 PWs)   bands (ev):

   -62.9117 -62.8645 -37.0691 -37.0331 -37.0223 -36.9873 -36.9080 -36.8620
   -15.5477 -15.4284 -14.6858 -14.5313  -7.3225  -6.9051  -5.7905  -5.7477
    -5.5665  -5.2583  -4.5920  -4.5402  -3.9851  -3.9431  -3.3414  -3.0299
    -2.7433  -2.6260  -0.1593   0.1518   0.3485   0.4087   0.5503

          k = 0.0625 0.3248 0.0000 ( 35310 PWs)   bands (ev):

   -62.9039 -62.8567 -37.1072 -37.0614 -37.0537 -37.0069 -36.9273 -36.8814
   -15.1823 -15.0715 -14.5230 -14.3921  -7.2587  -6.9840  -6.1063  -5.9564
    -5.8709  -5.7331  -4.8959  -4.8221  -3.7501  -3.7022  -3.5527  -3.2932
    -2.9763  -2.9139  -0.1935   0.0871   0.2872   0.3849   0.8293

          k = 0.0625 0.3969 0.0000 ( 35243 PWs)   bands (ev):

   -62.8966 -62.8494 -37.1748 -37.1292 -37.0395 -36.9927 -36.9451 -36.8993
   -14.8076 -14.7109 -14.3586 -14.2552  -7.4380  -7.2891  -6.4797  -6.3306
    -5.9955  -5.8483  -5.0936  -5.0178  -3.8054  -3.6108  -3.5896  -3.5180
    -2.9675  -2.9140  -0.0729   0.1237   0.3255   0.4704   1.1773

          k = 0.0625 0.4691 0.0000 ( 35169 PWs)   bands (ev):

   -62.8910 -62.8438 -37.2261 -37.1805 -37.0286 -36.9817 -36.9587 -36.9129
   -14.4861 -14.4095 -14.2209 -14.1457  -7.6848  -7.5940  -6.8050  -6.6979
    -6.0885  -5.9495  -5.2022  -5.1407  -3.9893  -3.7839  -3.4823  -3.3979
    -2.7924  -2.7323   0.0977   0.2030   0.4663   0.6179   1.4957

          k = 0.0625 0.5413 0.0000 ( 35128 PWs)   bands (ev):

   -62.8880 -62.8408 -37.2537 -37.2082 -37.0227 -36.9758 -36.9661 -36.9202
   -14.2929 -14.2358 -14.1412 -14.0861  -7.8463  -7.7764  -6.9881  -6.8998
    -6.1768  -6.0433  -5.2465  -5.2000  -4.0886  -3.8935  -3.3892  -3.2961
    -2.6336  -2.5692   0.1966   0.2431   0.6482   0.7516   1.7232

          k = 0.1250 0.2165 0.0000 ( 35331 PWs)   bands (ev):

   -62.9128 -62.8657 -37.0712 -37.0245 -37.0191 -36.9733 -36.9088 -36.8629
   -15.5969 -15.4764 -14.7076 -14.5496  -7.3385  -6.9023  -5.7272  -5.6904
    -5.4436  -5.0751  -4.7298  -4.6838  -4.0646  -4.0241  -3.1700  -2.8775
    -2.6854  -2.5493  -0.1772   0.1094   0.3539   0.3825   0.4485

          k = 0.1250 0.2887 0.0000 ( 35357 PWs)   bands (ev):

   -62.9056 -62.8584 -37.0824 -37.0571 -37.0367 -37.0103 -36.9321 -36.8862
   -15.2660 -15.1524 -14.5586 -14.4213  -7.2000  -6.8699  -5.9673  -5.8690
    -5.7301  -5.5482  -5.1594  -5.0200  -3.9612  -3.9120  -3.2429  -3.0305
    -2.8813  -2.8372  -0.3265  -0.0140   0.3448   0.4018   0.5547

          k = 0.1250 0.3608 0.0000 ( 35341 PWs)   bands (ev):

   -62.8983 -62.8511 -37.1447 -37.0990 -37.0428 -36.9960 -36.9558 -36.9099
   -14.9033 -14.8013 -14.3963 -14.2839  -7.2737  -7.0790  -6.2850  -6.1717
    -5.9091  -5.7777  -5.3399  -5.1523  -4.0183  -3.9588  -3.4615  -3.3129
    -2.9173  -2.8699  -0.2868   0.0477   0.4136   0.4821   0.8198

          k = 0.1250 0.4330 0.0000 ( 35215 PWs)   bands (ev):

   -62.8921 -62.8449 -37.1968 -37.1512 -37.0308 -36.9839 -36.9760 -36.9301
   -14.5615 -14.4769 -14.2451 -14.1602  -7.4686  -7.3494  -6.7091  -6.6334
    -5.9609  -5.8239  -5.3666  -5.2033  -4.0699  -3.9778  -3.7321  -3.6075
    -2.7768  -2.7289  -0.0854   0.2202   0.5209   0.5793   1.1351

          k = 0.1250 0.5052 0.0000 ( 35141 PWs)   bands (ev):

   -62.8880 -62.8408 -37.2313 -37.1858 -37.0227 -36.9895 -36.9758 -36.9436
   -14.3074 -14.2441 -14.1350 -14.0750  -7.6364  -7.5551  -7.0089  -6.9437
    -6.0759  -5.9425  -5.3227  -5.2138  -4.0530  -3.9659  -3.9060  -3.8220
    -2.5859  -2.5286   0.1076   0.2490   0.6761   0.7777   1.4083

          k = 0.1250 0.5774 0.0000 ( 35180 PWs)   bands (ev):

   -62.8866 -62.8393 -37.2434 -37.1979 -37.0198 -36.9942 -36.9730 -36.9484
   -14.2103 -14.1592 -14.0950 -14.0452  -7.7004  -7.6321  -7.1155  -7.0521
    -6.1366  -6.0035  -5.2809  -5.2212  -4.0864  -3.9900  -3.9308  -3.8617
    -2.4907  -2.4252   0.1656   0.2094   0.7978   0.8843   1.5302

          k = 0.1875 0.3248 0.0000 ( 35337 PWs)   bands (ev):

   -62.8989 -62.8517 -37.1311 -37.0854 -37.0440 -36.9972 -36.9626 -36.9167
   -14.9368 -14.8325 -14.4093 -14.2932  -7.2026  -6.9846  -6.1610  -6.0874
    -5.8769  -5.7522  -5.4849  -5.2315  -4.1924  -4.1327  -3.3149  -3.1843
    -2.9115  -2.8548  -0.3679   0.0078   0.4396   0.4783   0.6670

          k = 0.1875 0.3969 0.0000 ( 35241 PWs)   bands (ev):

   -62.8927 -62.8455 -37.1730 -37.1274 -37.0320 -36.9934 -36.9851 -36.9476
   -14.6031 -14.5138 -14.2573 -14.1663  -7.3031  -7.1540  -6.6266  -6.5890
    -5.8360  -5.7032  -5.4896  -5.2554  -4.5082  -4.4346  -3.5430  -3.4634
    -2.8079  -2.7454  -0.2097   0.2126   0.5451   0.5892   0.8623

          k = 0.1875 0.4691 0.0000 ( 35167 PWs)   bands (ev):

   -62.8880 -62.8408 -37.2035 -37.1579 -37.0227 -37.0183 -36.9759 -36.9725
   -14.3216 -14.2522 -14.1290 -14.0637  -7.3961  -7.2873  -7.0252  -6.9850
    -5.9002  -5.7818  -5.4110  -5.2154  -4.6865  -4.5585  -3.8357  -3.7507
    -2.6057  -2.5529  -0.0152   0.2301   0.7143   0.8150   1.0614

          k = 0.1875 0.5413 0.0000 ( 35162 PWs)   bands (ev):

   -62.8854 -62.8382 -37.2195 -37.1739 -37.0322 -37.0177 -36.9865 -36.9708
   -14.1545 -14.1043 -14.0549 -14.0072  -7.4373  -7.3576  -7.2427  -7.1962
    -6.0454  -5.9144  -5.2855  -5.1718  -4.7238  -4.5701  -4.0399  -3.9561
    -2.4184  -2.3595   0.0209   0.0933   0.9235   1.0579   1.1713

          k = 0.2500 0.4330 0.0000 ( 35195 PWs)   bands (ev):

   -62.8880 -62.8408 -37.1890 -37.1434 -37.0332 -37.0227 -36.9875 -36.9759
   -14.3282 -14.2552 -14.1270 -14.0583  -7.2857  -7.1572  -7.0295  -7.0000
    -5.7510  -5.6603  -5.4183  -5.2002  -5.0099  -4.9537  -3.7922  -3.7002
    -2.6232  -2.5676  -0.0681   0.2146   0.7235   0.8278   0.9372

          k = 0.2500 0.5052 0.0000 ( 35193 PWs)   bands (ev):

   -62.8848 -62.8376 -37.1937 -37.1481 -37.0658 -37.0201 -37.0165 -36.9697
   -14.1285 -14.0760 -14.0311 -13.9833  -7.3335  -7.2977  -7.1723  -7.0792
    -5.8762  -5.7741  -5.3531  -5.2753  -5.1669  -5.0844  -4.0635  -3.9633
    -2.3816  -2.3309  -0.1077  -0.0088   0.8882   0.9597   1.1241

          k = 0.2500 0.5774 0.0000 ( 35190 PWs)   bands (ev):

   -62.8837 -62.8365 -37.1936 -37.1480 -37.0790 -37.0333 -37.0144 -36.9675
   -14.0526 -14.0119 -13.9981 -13.9560  -7.4338  -7.3994  -7.0899  -7.0317
    -6.0336  -5.9174  -5.3872  -5.2421  -5.1082  -5.0522  -4.1846  -4.1012
    -2.2540  -2.2000  -0.1874  -0.1446   0.9190   0.9745   1.2903

          k = 0.3125 0.5413 0.0000 ( 35172 PWs)   bands (ev):

   -62.8831 -62.8359 -37.1725 -37.1269 -37.1075 -37.0617 -37.0132 -36.9663
   -14.0195 -13.9837 -13.9723 -13.9356  -7.5028  -7.4679  -6.8651  -6.7829
    -6.0626  -6.0343  -5.5979  -5.5508  -5.0687  -4.9745  -4.2789  -4.1651
    -2.1737  -2.1228  -0.3038  -0.2598   0.8531   0.8799   1.3911

          k =-0.0625 0.0361 0.0000 ( 35493 PWs)   bands (ev):

   -62.9275 -62.8803 -37.0999 -37.0532 -36.8811 -36.8691 -36.8351 -36.8231
   -16.1980 -16.0711 -14.9786 -14.7864  -7.9135  -7.4332  -4.7854  -4.7500
    -4.6207  -4.5879  -4.5525  -3.9575  -3.6333  -3.5926  -3.4295  -3.1240
    -2.3790  -1.7792   0.6209   0.6705   0.7503   0.7803   0.8121

          k =-0.1250 0.0722 0.0000 ( 35435 PWs)   bands (ev):

   -62.9231 -62.8759 -37.0913 -37.0446 -36.9251 -36.8792 -36.8792 -36.8331
   -16.0244 -15.8986 -14.9004 -14.7176  -7.7232  -7.2465  -5.1354  -5.0993
    -4.9683  -4.4685  -4.4088  -4.3723  -3.8846  -3.8419  -3.3473  -2.9508
    -2.4284  -1.9940   0.3374   0.4573   0.5173   0.6393   0.6470

          k =-0.1875 0.1083 0.0000 ( 35345 PWs)   bands (ev):

   -62.9164 -62.8693 -37.0783 -37.0316 -36.9905 -36.9447 -36.8941 -36.8481
   -15.7518 -15.6287 -14.7779 -14.6103  -7.4685  -7.0135  -5.5696  -5.5291
    -5.3705  -4.9976  -4.2110  -4.1673  -4.1331  -4.0958  -3.4217  -3.0159
    -2.5983  -2.3685  -0.0214   0.2777   0.4262   0.5304   0.5357

          k =-0.2500 0.1443 0.0000 ( 35323 PWs)   bands (ev):

   -62.9086 -62.8614 -37.0668 -37.0629 -37.0211 -37.0162 -36.9118 -36.8658
   -15.4058 -15.2883 -14.6234 -14.4763  -7.2850  -6.9242  -5.9541  -5.8536
    -5.7522  -5.5154  -4.5389  -4.4922  -3.8110  -3.7655  -3.6316  -3.2430
    -2.8877  -2.7709  -0.1380   0.2374   0.2511   0.3398   0.7680

          k =-0.3125 0.1804 0.0000 ( 35299 PWs)   bands (ev):

   -62.9007 -62.8535 -37.1421 -37.0965 -37.0476 -37.0008 -36.9293 -36.8833
   -15.0252 -14.9174 -14.4559 -14.3334  -7.3513  -7.1466  -6.3055  -6.1015
    -5.9878  -5.8145  -4.8271  -4.7792  -3.8669  -3.5020  -3.4904  -3.4336
    -3.1069  -3.0015  -0.0205   0.1311   0.2194   0.3532   1.1058

          k =-0.3750 0.2165 0.0000 ( 35224 PWs)   bands (ev):

   -62.8940 -62.8468 -37.2054 -37.1598 -37.0345 -36.9877 -36.9441 -36.8982
   -14.6649 -14.5719 -14.3007 -14.2047  -7.6035  -7.4853  -6.6537  -6.4911
    -6.0870  -5.8948  -5.0478  -4.9990  -4.0457  -3.7044  -3.2346  -3.1614
    -3.0807  -2.9524   0.1217   0.1904   0.2292   0.5197   1.4147

          k =-0.4375 0.2526 0.0000 ( 35152 PWs)   bands (ev):

   -62.8896 -62.8424 -37.2473 -37.2018 -37.0257 -36.9789 -36.9540 -36.9081
   -14.3968 -14.3211 -14.1879 -14.1153  -7.8389  -7.7505  -6.9009  -6.7687
    -6.1878  -6.0037  -5.1855  -5.1361  -4.1454  -3.8261  -3.0782  -2.9905
    -2.8903  -2.7620   0.1685   0.2217   0.5033   0.6847   1.6018

          k = 0.5000-0.2887 0.0000 ( 35026 PWs)   bands (ev):

   -62.8880 -62.8408 -37.2619 -37.2165 -37.0226 -36.9758 -36.9575 -36.9115
   -14.2953 -14.2288 -14.1460 -14.0837  -7.9323  -7.8496  -6.9900  -6.8673
    -6.2354  -6.0552  -5.2322  -5.1826  -4.1761  -3.8664  -3.0271  -2.9337
    -2.7788  -2.6695   0.1967   0.2451   0.6460   0.7512   1.6571

          k = 0.1250 0.0000 0.0000 ( 35467 PWs)   bands (ev):

   -62.9245 -62.8773 -37.0941 -37.0474 -36.9104 -36.8764 -36.8645 -36.8303
   -16.0815 -15.9552 -14.9261 -14.7401  -7.7836  -7.3049  -5.0252  -4.9903
    -4.8594  -4.4691  -4.4334  -4.3098  -3.8483  -3.8076  -3.3185  -2.9477
    -2.4054  -1.9153   0.4548   0.4901   0.5431   0.6304   0.7075

          k =-0.1250 0.1443 0.0000 ( 35370 PWs)   bands (ev):

   -62.9190 -62.8718 -37.0832 -37.0365 -36.9640 -36.9181 -36.8901 -36.8441
   -15.8580 -15.7339 -14.8254 -14.6520  -7.5564  -7.0882  -5.4091  -5.3730
    -5.1963  -4.7559  -4.2534  -4.2239  -4.2048  -4.1734  -3.2536  -2.8868
    -2.5130  -2.2190   0.0822   0.3050   0.4259   0.4949   0.5722

          k = 0.1875 0.0361 0.0000 ( 35370 PWs)   bands (ev):

   -62.9190 -62.8718 -37.0832 -37.0365 -36.9639 -36.9181 -36.8901 -36.8441
   -15.8582 -15.7338 -14.8256 -14.6518  -7.5567  -7.0880  -5.4087  -5.3734
    -5.1956  -4.7564  -4.2536  -4.2253  -4.2038  -4.1732  -3.2578  -2.8841
    -2.5140  -2.2124   0.0779   0.3036   0.4213   0.4983   0.5703

          k =-0.1875 0.1804 0.0000 ( 35362 PWs)   bands (ev):

   -62.9117 -62.8645 -37.0691 -37.0331 -37.0223 -36.9873 -36.9080 -36.8620
   -15.5481 -15.4282 -14.6862 -14.5308  -7.3226  -6.9051  -5.7961  -5.7416
    -5.5673  -5.2571  -4.5914  -4.5416  -3.9850  -3.9430  -3.3547  -3.0211
    -2.7464  -2.6129  -0.1640   0.1510   0.3503   0.4041   0.5516

          k = 0.2500 0.0722 0.0000 ( 35362 PWs)   bands (ev):

   -62.9117 -62.8645 -37.0691 -37.0331 -37.0223 -36.9873 -36.9080 -36.8620
   -15.5483 -15.4280 -14.6865 -14.5305  -7.3227  -6.9050  -5.7966  -5.7410
    -5.5670  -5.2571  -4.5927  -4.5408  -3.9854  -3.9431  -3.3583  -3.0184
    -2.7470  -2.6081  -0.1662   0.1505   0.3507   0.4059   0.5475

          k =-0.2500 0.2165 0.0000 ( 35310 PWs)   bands (ev):

   -62.9039 -62.8567 -37.1071 -37.0615 -37.0537 -37.0069 -36.9274 -36.8814
   -15.1832 -15.0710 -14.5239 -14.3910  -7.2582  -6.9837  -6.1121  -5.9541
    -5.8720  -5.7286  -4.8952  -4.8231  -3.7489  -3.7028  -3.5745  -3.2751
    -2.9801  -2.9013  -0.1947   0.0842   0.2889   0.3813   0.8317

          k = 0.3125 0.1083 0.0000 ( 35310 PWs)   bands (ev):

   -62.9039 -62.8567 -37.1071 -37.0615 -37.0537 -37.0069 -36.9274 -36.8814
   -15.1835 -15.0708 -14.5242 -14.3906  -7.2582  -6.9837  -6.1131  -5.9531
    -5.8728  -5.7274  -4.8964  -4.8229  -3.7501  -3.7047  -3.5749  -3.2714
    -2.9793  -2.9000  -0.1969   0.0850   0.2895   0.3818   0.8258

          k =-0.3125 0.2526 0.0000 ( 35243 PWs)   bands (ev):

   -62.8966 -62.8494 -37.1748 -37.1292 -37.0395 -36.9927 -36.9452 -36.8992
   -14.8095 -14.7098 -14.3602 -14.2530  -7.4385  -7.2867  -6.4850  -6.3228
    -6.0181  -5.8299  -5.0926  -5.0183  -3.8321  -3.6061  -3.5745  -3.5119
    -2.9701  -2.9049  -0.0714   0.1216   0.3241   0.4684   1.1782

          k = 0.3750 0.1443 0.0000 ( 35243 PWs)   bands (ev):

   -62.8966 -62.8494 -37.1747 -37.1292 -37.0395 -36.9927 -36.9452 -36.8992
   -14.8100 -14.7096 -14.3605 -14.2525  -7.4384  -7.2865  -6.4856  -6.3224
    -6.0184  -5.8291  -5.0933  -5.0186  -3.8370  -3.6063  -3.5799  -3.4999
    -2.9689  -2.9057  -0.0729   0.1210   0.3248   0.4690   1.1716

          k =-0.3750 0.2887 0.0000 ( 35169 PWs)   bands (ev):

   -62.8910 -62.8438 -37.2260 -37.1806 -37.0286 -36.9817 -36.9588 -36.9129
   -14.4902 -14.4073 -14.2232 -14.1416  -7.6881  -7.5883  -6.8129  -6.6877
    -6.1154  -5.9271  -5.2011  -5.1409  -4.0256  -3.7463  -3.4762  -3.4057
    -2.7962  -2.7215   0.0993   0.2028   0.4630   0.6178   1.4918

          k = 0.4375 0.1804 0.0000 ( 35169 PWs)   bands (ev):

   -62.8910 -62.8438 -37.2260 -37.1806 -37.0286 -36.9817 -36.9588 -36.9129
   -14.4907 -14.4071 -14.2234 -14.1411  -7.6881  -7.5881  -6.8133  -6.6874
    -6.1154  -5.9269  -5.2013  -5.1414  -4.0284  -3.7460  -3.4810  -3.3968
    -2.7944  -2.7235   0.1001   0.2005   0.4627   0.6188   1.4843

          k =-0.4375 0.3248 0.0000 ( 35128 PWs)   bands (ev):

   -62.8880 -62.8408 -37.2536 -37.2082 -37.0227 -36.9758 -36.9661 -36.9202
   -14.3005 -14.2326 -14.1433 -14.0798  -7.8520  -7.7681  -6.9980  -6.8878
    -6.2033  -6.0211  -5.2458  -5.1997  -4.1313  -3.8510  -3.3839  -3.3017
    -2.6407  -2.5542   0.1971   0.2432   0.6420   0.7576   1.7036

          k = 0.5000 0.2165 0.0000 ( 35128 PWs)   bands (ev):

   -62.8880 -62.8408 -37.2536 -37.2082 -37.0227 -36.9758 -36.9662 -36.9202
   -14.3007 -14.2325 -14.1433 -14.0795  -7.8520  -7.7680  -6.9982  -6.8877
    -6.2033  -6.0210  -5.2458  -5.2000  -4.1323  -3.8507  -3.3865  -3.2979
    -2.6394  -2.5556   0.1979   0.2420   0.6418   0.7577   1.6996

          k = 0.2500 0.0000 0.0000 ( 35331 PWs)   bands (ev):

   -62.9128 -62.8657 -37.0712 -37.0245 -37.0191 -36.9733 -36.9089 -36.8629
   -15.5973 -15.4761 -14.7081 -14.5490  -7.3388  -6.9022  -5.7286  -5.6886
    -5.4430  -5.0758  -4.7312  -4.6830  -4.0647  -4.0242  -3.1799  -2.8724
    -2.6869  -2.5362  -0.1822   0.1087   0.3513   0.3852   0.4469

          k =-0.1875 0.2526 0.0000 ( 35357 PWs)   bands (ev):

   -62.9056 -62.8584 -37.0824 -37.0571 -37.0367 -37.0103 -36.9321 -36.8862
   -15.2663 -15.1522 -14.5589 -14.4209  -7.1998  -6.8700  -5.9707  -5.8645
    -5.7316  -5.5484  -5.1591  -5.0197  -3.9610  -3.9119  -3.2526  -3.0242
    -2.8825  -2.8307  -0.3264  -0.0147   0.3449   0.3986   0.5576

          k = 0.3125 0.0361 0.0000 ( 35357 PWs)   bands (ev):

   -62.9056 -62.8584 -37.0824 -37.0571 -37.0367 -37.0103 -36.9322 -36.8862
   -15.2669 -15.1518 -14.5595 -14.4201  -7.1996  -6.8702  -5.9737  -5.8597
    -5.7332  -5.5480  -5.1615  -5.0185  -3.9606  -3.9131  -3.2600  -3.0184
    -2.8790  -2.8270  -0.3293  -0.0142   0.3447   0.4004   0.5529

          k =-0.2500 0.2887 0.0000 ( 35341 PWs)   bands (ev):

   -62.8983 -62.8511 -37.1446 -37.0990 -37.0428 -36.9960 -36.9558 -36.9099
   -14.9042 -14.8007 -14.3971 -14.2828  -7.2734  -7.0783  -6.2862  -6.1661
    -5.9279  -5.7671  -5.3383  -5.1503  -4.0165  -3.9595  -3.4832  -3.2938
    -2.9173  -2.8660  -0.2851   0.0473   0.4125   0.4789   0.8272

          k = 0.3750 0.0722 0.0000 ( 35341 PWs)   bands (ev):

   -62.8983 -62.8511 -37.1446 -37.0990 -37.0428 -36.9960 -36.9559 -36.9099
   -14.9051 -14.8002 -14.3978 -14.2819  -7.2730  -7.0781  -6.2870  -6.1647
    -5.9307  -5.7647  -5.3399  -5.1503  -4.0172  -3.9607  -3.4856  -3.2865
    -2.9140  -2.8684  -0.2869   0.0472   0.4126   0.4807   0.8186

          k =-0.3125 0.3248 0.0000 ( 35215 PWs)   bands (ev):

   -62.8921 -62.8449 -37.1967 -37.1512 -37.0308 -36.9839 -36.9760 -36.9301
   -14.5638 -14.4756 -14.2466 -14.1578  -7.4699  -7.3464  -6.7129  -6.6264
    -5.9901  -5.8033  -5.3651  -5.2001  -4.0616  -3.9815  -3.7655  -3.5798
    -2.7779  -2.7241  -0.0837   0.2220   0.5188   0.5777   1.1499

          k = 0.4375 0.1083 0.0000 ( 35215 PWs)   bands (ev):

   -62.8921 -62.8449 -37.1967 -37.1512 -37.0308 -36.9839 -36.9760 -36.9301
   -14.5649 -14.4751 -14.2472 -14.1567  -7.4698  -7.3459  -6.7135  -6.6256
    -5.9909  -5.8025  -5.3660  -5.2007  -4.0707  -3.9785  -3.7617  -3.5741
    -2.7770  -2.7254  -0.0835   0.2193   0.5187   0.5796   1.1358

          k =-0.3750 0.3608 0.0000 ( 35141 PWs)   bands (ev):

   -62.8880 -62.8408 -37.2313 -37.1858 -37.0227 -36.9895 -36.9758 -36.9436
   -14.3127 -14.2418 -14.1368 -14.0704  -7.6406  -7.5488  -7.0141  -6.9357
    -6.1056  -5.9205  -5.3238  -5.2089  -4.0475  -3.9847  -3.9208  -3.7944
    -2.5904  -2.5197   0.1074   0.2509   0.6723   0.7821   1.4247

          k = 0.5000 0.1443 0.0000 ( 35141 PWs)   bands (ev):

   -62.8880 -62.8408 -37.2313 -37.1858 -37.0227 -36.9895 -36.9758 -36.9436
   -14.3136 -14.2414 -14.1370 -14.0696  -7.6405  -7.5484  -7.0145  -6.9354
    -6.1056  -5.9204  -5.3237  -5.2098  -4.0630  -3.9790  -3.9157  -3.7876
    -2.5902  -2.5203   0.1089   0.2489   0.6718   0.7826   1.4083

          k =-0.4375 0.3969 0.0000 ( 35180 PWs)   bands (ev):

   -62.8866 -62.8393 -37.2434 -37.1979 -37.0198 -36.9943 -36.9730 -36.9484
   -14.2186 -14.1564 -14.0958 -14.0390  -7.7064  -7.6236  -7.1213  -7.0438
    -6.1653  -5.9820  -5.2860  -5.2128  -4.1121  -3.9920  -3.9102  -3.8544
    -2.4969  -2.4142   0.1634   0.2121   0.7893   0.8963   1.5364

          k = 0.3750 0.0000 0.0000 ( 35337 PWs)   bands (ev):

   -62.8989 -62.8517 -37.1310 -37.0854 -37.0440 -36.9972 -36.9626 -36.9167
   -14.9381 -14.8318 -14.4104 -14.2917  -7.2019  -6.9846  -6.1601  -6.0825
    -5.8917  -5.7470  -5.4848  -5.2293  -4.1903  -4.1353  -3.3270  -3.1689
    -2.9061  -2.8581  -0.3687   0.0077   0.4392   0.4797   0.6628

          k =-0.2500 0.3608 0.0000 ( 35241 PWs)   bands (ev):

   -62.8927 -62.8455 -37.1730 -37.1274 -37.0320 -36.9934 -36.9851 -36.9475
   -14.6039 -14.5134 -14.2578 -14.1655  -7.3033  -7.1534  -6.6274  -6.5861
    -5.8552  -5.6908  -5.4880  -5.2513  -4.5075  -4.4356  -3.5590  -3.4488
    -2.8075  -2.7445  -0.2088   0.2137   0.5443   0.5880   0.8692

          k = 0.4375 0.0361 0.0000 ( 35241 PWs)   bands (ev):

   -62.8927 -62.8455 -37.1729 -37.1274 -37.0320 -36.9934 -36.9851 -36.9475
   -14.6056 -14.5125 -14.2588 -14.1638  -7.3028  -7.1528  -6.6273  -6.5847
    -5.8632  -5.6875  -5.4884  -5.2505  -4.5073  -4.4360  -3.5591  -3.4434
    -2.8049  -2.7479  -0.2082   0.2120   0.5459   0.5881   0.8596

          k =-0.3125 0.3969 0.0000 ( 35167 PWs)   bands (ev):

   -62.8880 -62.8408 -37.2034 -37.1579 -37.0227 -37.0183 -36.9759 -36.9725
   -14.3242 -14.2510 -14.1301 -14.0613  -7.3980  -7.2845  -7.0264  -6.9809
    -5.9325  -5.7584  -5.4100  -5.2100  -4.6798  -4.5632  -3.8608  -3.7290
    -2.6067  -2.5500  -0.0149   0.2314   0.7127   0.8167   1.0765

          k = 0.5000 0.0722 0.0000 ( 35167 PWs)   bands (ev):

   -62.8880 -62.8408 -37.2034 -37.1579 -37.0227 -37.0184 -36.9759 -36.9725
   -14.3261 -14.2502 -14.1307 -14.0596  -7.3978  -7.2837  -7.0263  -6.9809
    -5.9335  -5.7590  -5.4108  -5.2101  -4.6870  -4.5578  -3.8528  -3.7314
    -2.6064  -2.5512  -0.0136   0.2303   0.7109   0.8180   1.0607

          k =-0.3750 0.4330 0.0000 ( 35162 PWs)   bands (ev):

   -62.8854 -62.8382 -37.2194 -37.1739 -37.0323 -37.0177 -36.9864 -36.9708
   -14.1608 -14.1027 -14.0548 -14.0027  -7.4430  -7.3509  -7.2432  -7.1920
    -6.0754  -5.8933  -5.2918  -5.1616  -4.7157  -4.5724  -4.0710  -3.9298
    -2.4223  -2.3535   0.0199   0.0948   0.9163   1.0664   1.1842

          k = 0.5625 0.1083 0.0000 ( 35162 PWs)   bands (ev):

   -62.8854 -62.8382 -37.2194 -37.1739 -37.0323 -37.0177 -36.9864 -36.9708
   -14.1619 -14.1024 -14.0547 -14.0020  -7.4429  -7.3504  -7.2433  -7.1922
    -6.0754  -5.8935  -5.2920  -5.1620  -4.7203  -4.5697  -4.0657  -3.9320
    -2.4223  -2.3537   0.0205   0.0943   0.9152   1.0684   1.1752

          k = 0.5000 0.0000 0.0000 ( 35195 PWs)   bands (ev):

   -62.8880 -62.8408 -37.1889 -37.1434 -37.0333 -37.0227 -36.9874 -36.9759
   -14.3312 -14.2538 -14.1281 -14.0555  -7.2856  -7.1564  -7.0278  -6.9996
    -5.7703  -5.6498  -5.4185  -5.1980  -5.0035  -4.9578  -3.7845  -3.7037
    -2.6222  -2.5694  -0.0666   0.2145   0.7199   0.8300   0.9295

          k =-0.3125 0.4691 0.0000 ( 35193 PWs)   bands (ev):

   -62.8848 -62.8376 -37.1937 -37.1481 -37.0658 -37.0200 -37.0165 -36.9697
   -14.1308 -14.0755 -14.0309 -13.9817  -7.3353  -7.2971  -7.1714  -7.0765
    -5.9013  -5.7550  -5.3411  -5.2873  -5.1655  -5.0800  -4.0725  -3.9563
    -2.3827  -2.3293  -0.1077  -0.0085   0.8949   0.9522   1.1235

          k = 0.5625 0.0361 0.0000 ( 35193 PWs)   bands (ev):

   -62.8848 -62.8376 -37.1936 -37.1482 -37.0659 -37.0200 -37.0165 -36.9697
   -14.1337 -14.0750 -14.0306 -13.9796  -7.3354  -7.2959  -7.1722  -7.0753
    -5.9014  -5.7580  -5.3530  -5.2787  -5.1663  -5.0767  -4.0565  -3.9686
    -2.3828  -2.3298  -0.1070  -0.0086   0.8831   0.9644   1.1184

          k =-0.3750 0.5052 0.0000 ( 35190 PWs)   bands (ev):

   -62.8837 -62.8365 -37.1935 -37.1480 -37.0791 -37.0333 -37.0144 -36.9675
   -14.0589 -14.0139 -13.9928 -13.9531  -7.4353  -7.3980  -7.0925  -7.0242
    -6.0586  -5.9018  -5.3804  -5.2553  -5.1130  -5.0333  -4.1924  -4.0958
    -2.2563  -2.1971  -0.1877  -0.1439   0.9302   0.9626   1.2774

          k = 0.6250 0.0000 0.0000 ( 35172 PWs)   bands (ev):

   -62.8831 -62.8359 -37.1724 -37.1270 -37.1075 -37.0617 -37.0132 -36.9663
   -14.0229 -13.9857 -13.9681 -13.9344  -7.5029  -7.4676  -6.8660  -6.7795
    -6.0597  -6.0438  -5.5842  -5.5628  -5.0714  -4.9700  -4.2687  -4.1741
    -2.1742  -2.1224  -0.3036  -0.2598   0.8525   0.8808   1.3817

     the Fermi energy is    -1.0939 ev

!    total energy              =    -989.17797404 Ry
     total all-electron energy =    -19385.838396 Ry
     estimated scf accuracy    <          6.4E-09 Ry
     smearing contrib. (-TS)   =       0.00000863 Ry
     internal energy E=F+TS    =    -989.17798267 Ry

     The total energy is F=E-TS. E is the sum of the following terms:
     one-electron contribution =  -10389.67977573 Ry
     hartree contribution      =    5197.90510794 Ry
     xc contribution           =     -59.61127613 Ry
     ewald contribution        =    4897.13438904 Ry
     one-center paw contrib.   =    -634.92642779 Ry

     convergence has been achieved in  33 iterations

     Writing all to output data dir ./tmp/gsfe_001/mos2_gsfe_001.save/ :
     XML data file, charge density, pseudopotentials, collected wavefunctions

     init_run     :    108.96s CPU    110.77s WALL (       1 calls)
     electrons    :   5197.39s CPU   5303.08s WALL (       1 calls)

     Called by init_run:
     wfcinit      :     60.61s CPU     60.87s WALL (       1 calls)
     potinit      :     45.37s CPU     45.84s WALL (       1 calls)
     hinit0       :      0.36s CPU      0.39s WALL (       1 calls)

     Called by electrons:
     c_bands      :   4244.75s CPU   4269.34s WALL (      34 calls)
     sum_band     :    717.39s CPU    755.02s WALL (      34 calls)
     v_of_rho     :    153.74s CPU    165.41s WALL (      34 calls)
     newd         :     75.93s CPU    108.50s WALL (      34 calls)
     PAW_pot      :      6.88s CPU      6.88s WALL (      34 calls)
     mix_rho      :     45.01s CPU     45.72s WALL (      34 calls)
     vdW_kernel   :     41.44s CPU     41.45s WALL (       1 calls)

     Called by c_bands:
     init_us_2    :     38.14s CPU     38.17s WALL (    5037 calls)
     init_us_2:cp :     38.14s CPU     38.17s WALL (    5037 calls)
     cegterg      :   3939.15s CPU   3963.20s WALL (    2482 calls)

     Called by *egterg:
     cdiaghg      :      3.71s CPU      3.72s WALL (    7905 calls)
     h_psi        :   2464.69s CPU   2466.88s WALL (    8051 calls)
     s_psi        :    530.19s CPU    530.74s WALL (    8051 calls)
     g_psi        :     16.41s CPU     16.43s WALL (    5496 calls)

     Called by h_psi:
     h_psi:calbec :    696.77s CPU    696.95s WALL (    8051 calls)
     vloc_psi     :   1229.57s CPU   1230.40s WALL (    8051 calls)
     add_vuspsi   :    530.53s CPU    530.68s WALL (    8051 calls)

     General routines
     calbec       :    996.85s CPU    997.13s WALL (   10533 calls)
     fft          :     42.77s CPU     42.79s WALL (    2141 calls)
     ffts         :     22.18s CPU     22.19s WALL (    4004 calls)
     fftw         :   1091.91s CPU   1092.49s WALL (  432244 calls)
     interpolate  :      1.00s CPU      1.00s WALL (      34 calls)

     Parallel routines

     PWSCF        :      1h28m CPU      1h30m WALL


   This run was terminated on:  12:24:51  14Jun2026            

=------------------------------------------------------------------------------=
   JOB DONE.
=------------------------------------------------------------------------------=
Note: The following floating-point exceptions are signalling: IEEE_UNDERFLOW_FLAG IEEE_DENORMAL
