Authorization required, but no authorization protocol specified

Authorization required, but no authorization protocol specified

Authorization required, but no authorization protocol specified

Authorization required, but no authorization protocol specified

Authorization required, but no authorization protocol specified

Authorization required, but no authorization protocol specified

Authorization required, but no authorization protocol specified

Authorization required, but no authorization protocol specified


     Program PWSCF v.7.3 starts on 15Jun2026 at  5:30:12 

     This program is part of the open-source Quantum ESPRESSO suite
     for quantum simulation of materials; please cite
         "P. Giannozzi et al., J. Phys.:Condens. Matter 21 395502 (2009);
         "P. Giannozzi et al., J. Phys.:Condens. Matter 29 465901 (2017);
         "P. Giannozzi et al., J. Chem. Phys. 152 154105 (2020);
          URL http://www.quantum-espresso.org", 
     in publications or presentations arising from this work. More details at
     http://www.quantum-espresso.org/quote

     Parallel version (MPI), running on     1 processors

     MPI processes distributed on     1 nodes
     11585 MiB available memory on the printing compute node when the environment starts

     Waiting for input...
     Reading input from standard input

     Current dimensions of program PWSCF are:
     Max number of different atomic species (ntypx) = 10
     Max number of k-points (npk) =  40000
     Max angular momentum in pseudopotentials (lmaxx) =  4
     file Mo.pbe-spn-kjpaw_psl.1.0.0.UPF: wavefunction(s)  4S 4D renormalized
     file S.pbe-n-kjpaw_psl.1.0.0.UPF: wavefunction(s)  3S 3P renormalized

     IMPORTANT: XC functional enforced from input :
     Exchange-correlation= VDW-DF2-B86R
                           (   1   4  26   0   2   0   0)
     Any further DFT definition will be discarded
     Please, verify this is what you really want


     Subspace diagonalization in iterative solution of the eigenvalue problem:
     a serial algorithm will be used


     G-vector sticks info
     --------------------
     sticks:   dense  smooth     PW     G-vecs:    dense   smooth      PW
     Sum        1573     769    223               797393   281171   43435

     Using Slab Decomposition



     bravais-lattice index     =            4
     lattice parameter (alat)  =       5.9715  a.u.
     unit-cell volume          =    2917.9067 (a.u.)^3
     number of atoms/cell      =            6
     number of atomic types    =            2
     number of electrons       =        52.00
     number of Kohn-Sham states=           31
     kinetic-energy cutoff     =      80.0000  Ry
     charge density cutoff     =     640.0000  Ry
     scf convergence threshold =      1.0E-08
     mixing beta               =       0.3000
     number of iterations used =            8  local-TF  mixing
     Exchange-correlation= VDW-DF2-B86R
                           (   1   4  26   0   2   0   0)

     celldm(1)=   5.971535  celldm(2)=   0.000000  celldm(3)=  15.822785
     celldm(4)=   0.000000  celldm(5)=   0.000000  celldm(6)=   0.000000

     crystal axes: (cart. coord. in units of alat)
               a(1) = (   1.000000   0.000000   0.000000 )  
               a(2) = (  -0.500000   0.866025   0.000000 )  
               a(3) = (   0.000000   0.000000  15.822785 )  

     reciprocal axes: (cart. coord. in units 2 pi/alat)
               b(1) = (  1.000000  0.577350 -0.000000 )  
               b(2) = (  0.000000  1.154701  0.000000 )  
               b(3) = (  0.000000 -0.000000  0.063200 )  


     PseudoPot. # 1 for Mo read from file:
     ./pseudo/Mo.pbe-spn-kjpaw_psl.1.0.0.UPF
     MD5 check sum: 4396e0c640fcce5c25f020efccf1ab12
     Pseudo is Projector augmented-wave + core cor, Zval = 14.0
     Generated using &quot;atomic&quot; code by A. Dal Corso  v.6.3
     Shape of augmentation charge: PSQ
     Using radial grid of 1229 points,  6 beta functions with: 
                l(1) =   0
                l(2) =   0
                l(3) =   1
                l(4) =   1
                l(5) =   2
                l(6) =   2
     Q(r) pseudized with 0 coefficients 


     PseudoPot. # 2 for S  read from file:
     ./pseudo/S.pbe-n-kjpaw_psl.1.0.0.UPF
     MD5 check sum: fb45dfebcf3e72a4e1bd4a866ec2e262
     Pseudo is Projector augmented-wave + core cor, Zval =  6.0
     Generated using &quot;atomic&quot; code by A. Dal Corso  v.6.3
     Shape of augmentation charge: PSQ
     Using radial grid of 1151 points,  6 beta functions with: 
                l(1) =   0
                l(2) =   0
                l(3) =   1
                l(4) =   1
                l(5) =   2
                l(6) =   2
     Q(r) pseudized with 0 coefficients 


     atomic species   valence    mass     pseudopotential
     Mo               14.00    95.96000     Mo( 1.00)
     S                 6.00    32.06000     S ( 1.00)

      2 Sym. Ops. (no inversion) found



   Cartesian axes

     site n.     atom                  positions (alat units)
         1        S      tau(   1) = (  -0.0000005   0.5773506   6.4231013  )
         2        Mo     tau(   2) = (   0.0000000   0.0000000   6.9204905  )
         3        S      tau(   3) = (  -0.0000005   0.5773506   7.4181013  )
         4        S      tau(   4) = (   0.0000000   0.7794229   8.4034019  )
         5        Mo     tau(   5) = (   0.0000005   0.2020723   8.9017247  )
         6        S      tau(   6) = (   0.0000000   0.7794229   9.3996835  )

     number of k points=    73  Methfessel-Paxton smearing, width (Ry)=  0.0200
                       cart. coord. in units 2pi/alat
        k(    1) = (   0.0000000   0.0000000   0.0000000), wk =   0.0078125
        k(    2) = (   0.0000000   0.0721688   0.0000000), wk =   0.0156250
        k(    3) = (   0.0000000   0.1443376   0.0000000), wk =   0.0156250
        k(    4) = (   0.0000000   0.2165064   0.0000000), wk =   0.0156250
        k(    5) = (   0.0000000   0.2886751   0.0000000), wk =   0.0156250
        k(    6) = (   0.0000000   0.3608439   0.0000000), wk =   0.0156250
        k(    7) = (   0.0000000   0.4330127   0.0000000), wk =   0.0156250
        k(    8) = (   0.0000000   0.5051815   0.0000000), wk =   0.0156250
        k(    9) = (   0.0000000  -0.5773503   0.0000000), wk =   0.0078125
        k(   10) = (   0.0625000   0.1082532   0.0000000), wk =   0.0312500
        k(   11) = (   0.0625000   0.1804220   0.0000000), wk =   0.0312500
        k(   12) = (   0.0625000   0.2525907   0.0000000), wk =   0.0312500
        k(   13) = (   0.0625000   0.3247595   0.0000000), wk =   0.0312500
        k(   14) = (   0.0625000   0.3969283   0.0000000), wk =   0.0312500
        k(   15) = (   0.0625000   0.4690971   0.0000000), wk =   0.0312500
        k(   16) = (   0.0625000   0.5412659   0.0000000), wk =   0.0312500
        k(   17) = (   0.1250000   0.2165064   0.0000000), wk =   0.0312500
        k(   18) = (   0.1250000   0.2886751   0.0000000), wk =   0.0312500
        k(   19) = (   0.1250000   0.3608439   0.0000000), wk =   0.0312500
        k(   20) = (   0.1250000   0.4330127   0.0000000), wk =   0.0312500
        k(   21) = (   0.1250000   0.5051815   0.0000000), wk =   0.0312500
        k(   22) = (   0.1250000   0.5773503   0.0000000), wk =   0.0156250
        k(   23) = (   0.1875000   0.3247595   0.0000000), wk =   0.0312500
        k(   24) = (   0.1875000   0.3969283   0.0000000), wk =   0.0312500
        k(   25) = (   0.1875000   0.4690971   0.0000000), wk =   0.0312500
        k(   26) = (   0.1875000   0.5412659   0.0000000), wk =   0.0312500
        k(   27) = (   0.2500000   0.4330127   0.0000000), wk =   0.0312500
        k(   28) = (   0.2500000   0.5051815   0.0000000), wk =   0.0312500
        k(   29) = (   0.2500000   0.5773503   0.0000000), wk =   0.0156250
        k(   30) = (   0.3125000   0.5412659   0.0000000), wk =   0.0312500
        k(   31) = (  -0.0625000   0.0360844   0.0000000), wk =   0.0312500
        k(   32) = (  -0.1250000   0.0721688   0.0000000), wk =   0.0312500
        k(   33) = (  -0.1875000   0.1082532   0.0000000), wk =   0.0312500
        k(   34) = (  -0.2500000   0.1443376   0.0000000), wk =   0.0312500
        k(   35) = (  -0.3125000   0.1804220   0.0000000), wk =   0.0312500
        k(   36) = (  -0.3750000   0.2165064   0.0000000), wk =   0.0312500
        k(   37) = (  -0.4375000   0.2525907   0.0000000), wk =   0.0312500
        k(   38) = (   0.5000000  -0.2886751   0.0000000), wk =   0.0156250
        k(   39) = (   0.1250000   0.0000000   0.0000000), wk =   0.0156250
        k(   40) = (  -0.1250000   0.1443376   0.0000000), wk =   0.0312500
        k(   41) = (   0.1875000   0.0360844   0.0000000), wk =   0.0312500
        k(   42) = (  -0.1875000   0.1804220   0.0000000), wk =   0.0312500
        k(   43) = (   0.2500000   0.0721688   0.0000000), wk =   0.0312500
        k(   44) = (  -0.2500000   0.2165064   0.0000000), wk =   0.0312500
        k(   45) = (   0.3125000   0.1082532   0.0000000), wk =   0.0312500
        k(   46) = (  -0.3125000   0.2525907   0.0000000), wk =   0.0312500
        k(   47) = (   0.3750000   0.1443376   0.0000000), wk =   0.0312500
        k(   48) = (  -0.3750000   0.2886751   0.0000000), wk =   0.0312500
        k(   49) = (   0.4375000   0.1804220   0.0000000), wk =   0.0312500
        k(   50) = (  -0.4375000   0.3247595   0.0000000), wk =   0.0312500
        k(   51) = (   0.5000000   0.2165064   0.0000000), wk =   0.0312500
        k(   52) = (   0.2500000   0.0000000   0.0000000), wk =   0.0156250
        k(   53) = (  -0.1875000   0.2525907   0.0000000), wk =   0.0312500
        k(   54) = (   0.3125000   0.0360844   0.0000000), wk =   0.0312500
        k(   55) = (  -0.2500000   0.2886751   0.0000000), wk =   0.0312500
        k(   56) = (   0.3750000   0.0721688   0.0000000), wk =   0.0312500
        k(   57) = (  -0.3125000   0.3247595   0.0000000), wk =   0.0312500
        k(   58) = (   0.4375000   0.1082532   0.0000000), wk =   0.0312500
        k(   59) = (  -0.3750000   0.3608439   0.0000000), wk =   0.0312500
        k(   60) = (   0.5000000   0.1443376   0.0000000), wk =   0.0312500
        k(   61) = (  -0.4375000   0.3969283   0.0000000), wk =   0.0312500
        k(   62) = (   0.3750000   0.0000000   0.0000000), wk =   0.0156250
        k(   63) = (  -0.2500000   0.3608439   0.0000000), wk =   0.0312500
        k(   64) = (   0.4375000   0.0360844   0.0000000), wk =   0.0312500
        k(   65) = (  -0.3125000   0.3969283   0.0000000), wk =   0.0312500
        k(   66) = (   0.5000000   0.0721688   0.0000000), wk =   0.0312500
        k(   67) = (  -0.3750000   0.4330127   0.0000000), wk =   0.0312500
        k(   68) = (   0.5625000   0.1082532   0.0000000), wk =   0.0312500
        k(   69) = (   0.5000000   0.0000000   0.0000000), wk =   0.0156250
        k(   70) = (  -0.3125000   0.4690971   0.0000000), wk =   0.0312500
        k(   71) = (   0.5625000   0.0360844   0.0000000), wk =   0.0312500
        k(   72) = (  -0.3750000   0.5051815   0.0000000), wk =   0.0312500
        k(   73) = (   0.6250000   0.0000000   0.0000000), wk =   0.0156250

     Dense  grid:   797393 G-vectors     FFT dimensions: (  50,  50, 768)

     Smooth grid:   281171 G-vectors     FFT dimensions: (  36,  36, 540)

     Estimated max dynamical RAM per process >       4.00 GB

     Initial potential from superposition of free atoms

     starting charge      51.9981, renormalised to      52.0000

     negative rho (up, down):  1.883E-04 0.000E+00


     %%%%%%%%%%%%%%%%%%%%%%%%%%%%%%%%%%%%%%%%%%%%%%%%%%%%%%%%%%%%%%%%%%%%%%%%
     %                                                                      %
     % You are using vdW-DF, which was implemented by the Thonhauser group. %
     % Please cite the following two papers that made this development      %
     % possible and the two reviews that describe the various versions:     %
     %                                                                      %
     %   T. Thonhauser et al., PRL 115, 136402 (2015).                      %
     %   T. Thonhauser et al., PRB 76, 125112 (2007).                       %
     %   K. Berland et al., Rep. Prog. Phys. 78, 066501 (2015).             %
     %   D.C. Langreth et al., J. Phys.: Condens. Matter 21, 084203 (2009). %
     %                                                                      %
     % If you are calculating stress with vdW-DF, please also cite:         %
     %                                                                      %
     %   R. Sabatini et al., J. Phys.: Condens. Matter 24, 424209 (2012).   %
     %                                                                      %
     %%%%%%%%%%%%%%%%%%%%%%%%%%%%%%%%%%%%%%%%%%%%%%%%%%%%%%%%%%%%%%%%%%%%%%%%

     %%%%%%%%%%%%%%%%%%%%%%%%%%%%%%%%%%%%%%%%%%%%%%%%%%%%%%%%%%%%%%%%%%%%%%%%
     %                                                                      %
     %  vdW-DF NEWS:                                                        %
     %                                                                      %
     %  * vdW-DF3 is now available. DOI: 10.1021/acs.jctc.0c00471           %
     %    use with input_dft = 'vdW-DF3-opt1' or 'vdW-DF3-opt2'             %
     %                                                                      %
     %  * Unscreened and range-separated hybrid vdW-DF-cx functionals       %
     %    DOI: 10.1063/1.4986522 and 10.1088/1361-648X/ac2ad2               %
     %    use with input_dft = 'vdW-DF-cx0'    and 'vdW-DF-ahcx'            %
     %  * Unscreened and range-separated hybrid vdW-DF2-b86r functionals    %
     %    DOI: 10.1063/1.4986522 and DOI: 10.1103/PhysRevX.12.041003        %
     %    use with input_dft = 'vdW-DF2-br0' and 'vdW-DF2-ahbr'             %
     %                                                                      %
     %%%%%%%%%%%%%%%%%%%%%%%%%%%%%%%%%%%%%%%%%%%%%%%%%%%%%%%%%%%%%%%%%%%%%%%%


     Starting wfcs are   36 randomized atomic wfcs
     Checking if some PAW data can be deallocated... 

     total cpu time spent up to now is      100.8 secs

     Self-consistent Calculation

     iteration #  1     ecut=    80.00 Ry     beta= 0.30
     Davidson diagonalization with overlap
     ethr =  1.00E-02,  avg # of iterations =  2.4

     Threshold (ethr) on eigenvalues was too large:
     Diagonalizing with lowered threshold

     Davidson diagonalization with overlap
     ethr =  2.81E-04,  avg # of iterations =  3.8

     negative rho (up, down):  8.042E-05 0.000E+00

     total cpu time spent up to now is      453.9 secs

     total energy              =    -989.21225421 Ry
     estimated scf accuracy    <       0.23165848 Ry

     iteration #  2     ecut=    80.00 Ry     beta= 0.30
     Davidson diagonalization with overlap
     ethr =  4.45E-04,  avg # of iterations =  1.0

     negative rho (up, down):  6.745E-05 0.000E+00

     total cpu time spent up to now is      587.1 secs

     total energy              =    -989.13719620 Ry
     estimated scf accuracy    <       0.16696061 Ry

     iteration #  3     ecut=    80.00 Ry     beta= 0.30
     Davidson diagonalization with overlap
     ethr =  3.21E-04,  avg # of iterations =  2.0

     negative rho (up, down):  1.617E-05 0.000E+00

     total cpu time spent up to now is      754.6 secs

     total energy              =    -989.17045562 Ry
     estimated scf accuracy    <       0.01565580 Ry

     iteration #  4     ecut=    80.00 Ry     beta= 0.30
     Davidson diagonalization with overlap
     ethr =  3.01E-05,  avg # of iterations =  2.2

     negative rho (up, down):  6.004E-06 0.000E+00

     total cpu time spent up to now is      925.8 secs

     total energy              =    -989.17090552 Ry
     estimated scf accuracy    <       0.00849940 Ry

     iteration #  5     ecut=    80.00 Ry     beta= 0.30
     Davidson diagonalization with overlap
     ethr =  1.63E-05,  avg # of iterations =  3.3

     negative rho (up, down):  2.503E-06 0.000E+00

     total cpu time spent up to now is     1080.2 secs

     total energy              =    -989.17126148 Ry
     estimated scf accuracy    <       0.00278913 Ry

     iteration #  6     ecut=    80.00 Ry     beta= 0.30
     Davidson diagonalization with overlap
     c_bands:  2 eigenvalues not converged
     ethr =  5.36E-06,  avg # of iterations =  4.1

     negative rho (up, down):  7.275E-07 0.000E+00

     total cpu time spent up to now is     1227.6 secs

     total energy              =    -989.17099464 Ry
     estimated scf accuracy    <       0.00251632 Ry

     iteration #  7     ecut=    80.00 Ry     beta= 0.30
     Davidson diagonalization with overlap
     ethr =  4.84E-06,  avg # of iterations =  1.6

     negative rho (up, down):  4.458E-07 0.000E+00

     total cpu time spent up to now is     1367.3 secs

     total energy              =    -989.17069231 Ry
     estimated scf accuracy    <       0.00250671 Ry

     iteration #  8     ecut=    80.00 Ry     beta= 0.30
     Davidson diagonalization with overlap
     ethr =  4.82E-06,  avg # of iterations =  3.4

     negative rho (up, down):  7.823E-04 0.000E+00

     total cpu time spent up to now is     1539.7 secs

     total energy              =    -989.17014042 Ry
     estimated scf accuracy    <       0.00400803 Ry

     iteration #  9     ecut=    80.00 Ry     beta= 0.30
     Davidson diagonalization with overlap
     ethr =  4.82E-06,  avg # of iterations =  2.5

     negative rho (up, down):  1.772E-03 0.000E+00

     total cpu time spent up to now is     1706.2 secs

     total energy              =    -989.17058062 Ry
     estimated scf accuracy    <       0.00073273 Ry

     iteration # 10     ecut=    80.00 Ry     beta= 0.30
     Davidson diagonalization with overlap
     ethr =  1.41E-06,  avg # of iterations =  3.2

     negative rho (up, down):  3.878E-03 0.000E+00

     total cpu time spent up to now is     1855.5 secs

     total energy              =    -989.17056874 Ry
     estimated scf accuracy    <       0.00050346 Ry

     iteration # 11     ecut=    80.00 Ry     beta= 0.30
     Davidson diagonalization with overlap
     ethr =  9.68E-07,  avg # of iterations =  2.5

     negative rho (up, down):  5.223E-03 0.000E+00

     total cpu time spent up to now is     2023.3 secs

     total energy              =    -989.17063828 Ry
     estimated scf accuracy    <       0.00057246 Ry

     iteration # 12     ecut=    80.00 Ry     beta= 0.30
     Davidson diagonalization with overlap
     ethr =  9.68E-07,  avg # of iterations =  2.8

     negative rho (up, down):  4.660E-03 0.000E+00

     total cpu time spent up to now is     2177.9 secs

     total energy              =    -989.17039620 Ry
     estimated scf accuracy    <       0.00091075 Ry

     iteration # 13     ecut=    80.00 Ry     beta= 0.30
     Davidson diagonalization with overlap
     ethr =  9.68E-07,  avg # of iterations =  2.0

     negative rho (up, down):  5.872E-03 0.000E+00

     total cpu time spent up to now is     2343.6 secs

     total energy              =    -989.17046945 Ry
     estimated scf accuracy    <       0.00037411 Ry

     iteration # 14     ecut=    80.00 Ry     beta= 0.30
     Davidson diagonalization with overlap
     ethr =  7.19E-07,  avg # of iterations =  2.1

     negative rho (up, down):  5.564E-03 0.000E+00

     total cpu time spent up to now is     2492.3 secs

     total energy              =    -989.17052330 Ry
     estimated scf accuracy    <       0.00023629 Ry

     iteration # 15     ecut=    80.00 Ry     beta= 0.30
     Davidson diagonalization with overlap
     ethr =  4.54E-07,  avg # of iterations =  2.0

     negative rho (up, down):  4.878E-03 0.000E+00

     total cpu time spent up to now is     2647.6 secs

     total energy              =    -989.17051779 Ry
     estimated scf accuracy    <       0.00014815 Ry

     iteration # 16     ecut=    80.00 Ry     beta= 0.30
     Davidson diagonalization with overlap
     ethr =  2.85E-07,  avg # of iterations =  1.0

     negative rho (up, down):  3.173E-03 0.000E+00

     total cpu time spent up to now is     2780.6 secs

     total energy              =    -989.17045123 Ry
     estimated scf accuracy    <       0.00010887 Ry

     iteration # 17     ecut=    80.00 Ry     beta= 0.30
     Davidson diagonalization with overlap
     ethr =  2.09E-07,  avg # of iterations =  2.0

     negative rho (up, down):  2.716E-03 0.000E+00

     total cpu time spent up to now is     2945.9 secs

     total energy              =    -989.17048896 Ry
     estimated scf accuracy    <       0.00011312 Ry

     iteration # 18     ecut=    80.00 Ry     beta= 0.30
     Davidson diagonalization with overlap
     ethr =  2.09E-07,  avg # of iterations =  1.0

     negative rho (up, down):  1.477E-03 0.000E+00

     total cpu time spent up to now is     3079.9 secs

     total energy              =    -989.17053955 Ry
     estimated scf accuracy    <       0.00004204 Ry

     iteration # 19     ecut=    80.00 Ry     beta= 0.30
     Davidson diagonalization with overlap
     ethr =  8.08E-08,  avg # of iterations =  3.0

     negative rho (up, down):  1.644E-03 0.000E+00

     total cpu time spent up to now is     3287.1 secs

     total energy              =    -989.17054113 Ry
     estimated scf accuracy    <       0.00010941 Ry

     iteration # 20     ecut=    80.00 Ry     beta= 0.30
     Davidson diagonalization with overlap
     ethr =  8.08E-08,  avg # of iterations =  2.5

     negative rho (up, down):  7.371E-04 0.000E+00

     total cpu time spent up to now is     3454.8 secs

     total energy              =    -989.17057186 Ry
     estimated scf accuracy    <       0.00000568 Ry

     iteration # 21     ecut=    80.00 Ry     beta= 0.30
     Davidson diagonalization with overlap
     ethr =  1.09E-08,  avg # of iterations =  2.0

     negative rho (up, down):  4.133E-04 0.000E+00

     total cpu time spent up to now is     3620.5 secs

     total energy              =    -989.17057353 Ry
     estimated scf accuracy    <       0.00001102 Ry

     iteration # 22     ecut=    80.00 Ry     beta= 0.30
     Davidson diagonalization with overlap
     ethr =  1.09E-08,  avg # of iterations =  2.1

     negative rho (up, down):  3.209E-04 0.000E+00

     total cpu time spent up to now is     3788.2 secs

     total energy              =    -989.17057513 Ry
     estimated scf accuracy    <       0.00000030 Ry

     iteration # 23     ecut=    80.00 Ry     beta= 0.30
     Davidson diagonalization with overlap
     ethr =  5.71E-10,  avg # of iterations =  4.7

     negative rho (up, down):  2.921E-04 0.000E+00

     total cpu time spent up to now is     3978.0 secs

     total energy              =    -989.17057534 Ry
     estimated scf accuracy    <       0.00000023 Ry

     iteration # 24     ecut=    80.00 Ry     beta= 0.30
     Davidson diagonalization with overlap
     ethr =  4.41E-10,  avg # of iterations =  2.7

     negative rho (up, down):  2.392E-04 0.000E+00

     total cpu time spent up to now is     4141.7 secs

     total energy              =    -989.17057484 Ry
     estimated scf accuracy    <       0.00000027 Ry

     iteration # 25     ecut=    80.00 Ry     beta= 0.30
     Davidson diagonalization with overlap
     ethr =  4.41E-10,  avg # of iterations =  2.2

     negative rho (up, down):  2.290E-04 0.000E+00

     total cpu time spent up to now is     4306.5 secs

     total energy              =    -989.17057469 Ry
     estimated scf accuracy    <       0.00000002 Ry

     iteration # 26     ecut=    80.00 Ry     beta= 0.30
     Davidson diagonalization with overlap
     ethr =  4.62E-11,  avg # of iterations =  2.2

     negative rho (up, down):  2.256E-04 0.000E+00

     total cpu time spent up to now is     4475.6 secs

     total energy              =    -989.17057454 Ry
     estimated scf accuracy    <       0.00000002 Ry

     iteration # 27     ecut=    80.00 Ry     beta= 0.30
     Davidson diagonalization with overlap
     ethr =  4.23E-11,  avg # of iterations =  1.3

     negative rho (up, down):  2.246E-04 0.000E+00

     total cpu time spent up to now is     4612.5 secs

     total energy              =    -989.17057451 Ry
     estimated scf accuracy    <       0.00000002 Ry

     iteration # 28     ecut=    80.00 Ry     beta= 0.30
     Davidson diagonalization with overlap
     ethr =  2.93E-11,  avg # of iterations =  2.0

     negative rho (up, down):  2.202E-04 0.000E+00

     total cpu time spent up to now is     4770.5 secs

     End of self-consistent calculation

          k = 0.0000 0.0000 0.0000 ( 35507 PWs)   bands (ev):

   -62.9063 -62.9001 -37.0825 -37.0768 -36.8422 -36.8417 -36.8369 -36.8365
   -16.2673 -16.1303 -15.0182 -14.8079  -8.0221  -7.4893  -4.6363  -4.6352
    -4.6282  -4.6248  -4.5225  -3.5264  -3.5235  -3.5121  -3.5066  -3.4277
    -2.4000  -1.6442   0.6857   0.7135   0.7451   0.7607   0.9057

          k = 0.0000 0.0722 0.0000 ( 35493 PWs)   bands (ev):

   -62.9048 -62.8985 -37.0794 -37.0738 -36.8577 -36.8521 -36.8453 -36.8405
   -16.2080 -16.0709 -14.9914 -14.7841  -7.9543  -7.4208  -4.7761  -4.7596
    -4.6698  -4.5745  -4.5621  -3.9442  -3.6239  -3.6026  -3.4607  -3.0976
    -2.4038  -1.6979   0.6042   0.6665   0.7355   0.7594   0.8327

          k = 0.0000 0.1443 0.0000 ( 35435 PWs)   bands (ev):

   -62.9003 -62.8941 -37.0708 -37.0651 -36.9018 -36.8962 -36.8553 -36.8505
   -16.0352 -15.8981 -14.9131 -14.7147  -7.7660  -7.2336  -5.1373  -5.1016
    -4.9971  -4.4581  -4.3966  -4.3812  -3.8758  -3.8514  -3.4151  -2.9146
    -2.4523  -1.8961   0.2894   0.4689   0.4910   0.6390   0.6817

          k = 0.0000 0.2165 0.0000 ( 35345 PWs)   bands (ev):

   -62.8937 -62.8874 -37.0578 -37.0521 -36.9671 -36.9616 -36.8703 -36.8655
   -15.7639 -15.6275 -14.7905 -14.6063  -7.5122  -7.0016  -5.5937  -5.5153
    -5.3860  -4.9878  -4.2049  -4.1744  -4.1223  -4.1037  -3.5227  -2.9656
    -2.6242  -2.2594  -0.0581   0.2886   0.4243   0.5077   0.5297

          k = 0.0000 0.2887 0.0000 ( 35323 PWs)   bands (ev):

   -62.8858 -62.8796 -37.0444 -37.0415 -37.0399 -37.0349 -36.8879 -36.8831
   -15.4202 -15.2860 -14.6359 -14.4706  -7.3211  -6.9175  -6.0136  -5.8181
    -5.7643  -5.4989  -4.5317  -4.5007  -3.8028  -3.7719  -3.7541  -3.1774
    -2.9101  -2.6662  -0.1697   0.2383   0.2647   0.3359   0.7384

          k = 0.0000 0.3608 0.0000 ( 35299 PWs)   bands (ev):

   -62.8780 -62.8717 -37.1188 -37.1136 -37.0271 -37.0212 -36.9054 -36.9007
   -15.0434 -14.9135 -14.4681 -14.3250  -7.3703  -7.1422  -6.3573  -6.1058
    -6.0210  -5.7644  -4.8203  -4.7874  -4.0009  -3.4858  -3.4389  -3.4168
    -3.1238  -2.9095  -0.0494   0.1352   0.2147   0.3680   1.0688

          k = 0.0000 0.4330 0.0000 ( 35224 PWs)   bands (ev):

   -62.8713 -62.8650 -37.1820 -37.1769 -37.0140 -37.0082 -36.9203 -36.9155
   -14.6895 -14.5657 -14.3117 -14.1923  -7.6163  -7.4790  -6.6907  -6.4845
    -6.1611  -5.8399  -5.0412  -5.0070  -4.1916  -3.5982  -3.2321  -3.1659
    -3.1065  -2.8592   0.1300   0.1841   0.2051   0.5316   1.3664

          k = 0.0000 0.5052 0.0000 ( 35152 PWs)   bands (ev):

   -62.8668 -62.8605 -37.2239 -37.2188 -37.0053 -36.9994 -36.9301 -36.9254
   -14.4316 -14.3127 -14.1953 -14.0975  -7.8529  -7.7421  -6.9353  -6.7581
    -6.2643  -5.9528  -5.1790  -5.1441  -4.3030  -3.7054  -3.0774  -2.9948
    -2.9386  -2.6475   0.1819   0.2125   0.4884   0.6893   1.5435

          k = 0.0000-0.5774 0.0000 ( 35026 PWs)   bands (ev):

   -62.8653 -62.8590 -37.2386 -37.2335 -37.0022 -36.9963 -36.9336 -36.9289
   -14.3377 -14.2198 -14.1499 -14.0623  -7.9473  -7.8405  -7.0242  -6.8553
    -6.3098  -6.0066  -5.2257  -5.1906  -4.3385  -3.7406  -3.0269  -2.9379
    -2.8441  -2.5373   0.2129   0.2339   0.6369   0.7522   1.5939

          k = 0.0625 0.1083 0.0000 ( 35467 PWs)   bands (ev):

   -62.9018 -62.8955 -37.0736 -37.0679 -36.8870 -36.8816 -36.8526 -36.8476
   -16.0920 -15.9548 -14.9389 -14.7373  -7.8259  -7.2921  -5.0228  -4.9950
    -4.8941  -4.4557  -4.4433  -4.2983  -3.8414  -3.8160  -3.3785  -2.9134
    -2.4290  -1.8174   0.3825   0.5089   0.5215   0.6831   0.7022

          k = 0.0625 0.1804 0.0000 ( 35370 PWs)   bands (ev):

   -62.8962 -62.8900 -37.0628 -37.0571 -36.9405 -36.9351 -36.8663 -36.8614
   -15.8698 -15.7329 -14.8383 -14.6482  -7.6006  -7.0754  -5.4212  -5.3671
    -5.2170  -4.7476  -4.2483  -4.2247  -4.2125  -4.1696  -3.3492  -2.8422
    -2.5372  -2.0978   0.0344   0.3150   0.4041   0.4871   0.5755

          k = 0.0625 0.2526 0.0000 ( 35362 PWs)   bands (ev):

   -62.8890 -62.8827 -37.0487 -37.0430 -37.0097 -37.0042 -36.8842 -36.8794
   -15.5618 -15.4262 -14.6991 -14.5255  -7.3640  -6.8961  -5.8413  -5.7107
    -5.5793  -5.2469  -4.6121  -4.5259  -3.9773  -3.9493  -3.4757  -2.9664
    -2.7707  -2.4845  -0.2017   0.1728   0.3150   0.4376   0.5147

          k = 0.0625 0.3248 0.0000 ( 35310 PWs)   bands (ev):

   -62.8811 -62.8749 -37.0838 -37.0786 -37.0332 -37.0274 -36.9035 -36.8988
   -15.1999 -15.0676 -14.5365 -14.3834  -7.2842  -6.9798  -6.1780  -5.9506
    -5.8755  -5.6933  -4.9188  -4.8049  -3.7794  -3.7067  -3.6741  -3.1924
    -2.9989  -2.7975  -0.2301   0.1172   0.2457   0.4123   0.7914

          k = 0.0625 0.3969 0.0000 ( 35243 PWs)   bands (ev):

   -62.8739 -62.8676 -37.1514 -37.1462 -37.0190 -37.0132 -36.9213 -36.9166
   -14.8313 -14.7044 -14.3722 -14.2420  -7.4520  -7.2820  -6.5233  -6.3179
    -6.0911  -5.7728  -5.1129  -5.0016  -3.9851  -3.6078  -3.5699  -3.3742
    -2.9958  -2.8353  -0.1015   0.1499   0.2956   0.4877   1.1279

          k = 0.0625 0.4691 0.0000 ( 35169 PWs)   bands (ev):

   -62.8683 -62.8620 -37.2027 -37.1976 -37.0081 -37.0022 -36.9349 -36.9302
   -14.5207 -14.3996 -14.2328 -14.1257  -7.7008  -7.5813  -6.8446  -6.6777
    -6.2005  -5.8731  -5.2170  -5.1270  -4.1895  -3.6449  -3.4961  -3.3269
    -2.8305  -2.6554   0.0825   0.2206   0.4465   0.6271   1.4297

          k = 0.0625 0.5413 0.0000 ( 35128 PWs)   bands (ev):

   -62.8653 -62.8590 -37.2303 -37.2252 -37.0022 -36.9963 -36.9423 -36.9376
   -14.3422 -14.2235 -14.1480 -14.0584  -7.8666  -7.7594  -7.0287  -6.8758
    -6.2841  -5.9722  -5.2578  -5.1882  -4.3032  -3.7298  -3.4105  -3.2350
    -2.6823  -2.4772   0.1934   0.2512   0.6335   0.7617   1.6444

          k = 0.1250 0.2165 0.0000 ( 35331 PWs)   bands (ev):

   -62.8901 -62.8838 -37.0508 -37.0451 -36.9956 -36.9903 -36.8851 -36.8802
   -15.6107 -15.4743 -14.7209 -14.5439  -7.3816  -6.8925  -5.7671  -5.6600
    -5.4577  -5.0703  -4.7531  -4.6629  -4.0562  -4.0307  -3.3089  -2.8301
    -2.7087  -2.3833  -0.2244   0.1280   0.3305   0.3730   0.4502

          k = 0.1250 0.2887 0.0000 ( 35357 PWs)   bands (ev):

   -62.8828 -62.8766 -37.0591 -37.0540 -37.0365 -37.0306 -36.9084 -36.9035
   -15.2829 -15.1488 -14.5722 -14.4131  -7.2306  -6.8670  -6.0465  -5.8152
    -5.7426  -5.5382  -5.1921  -4.9897  -3.9626  -3.9134  -3.4065  -2.9626
    -2.9011  -2.6737  -0.3657   0.0096   0.3029   0.4482   0.5170

          k = 0.1250 0.3608 0.0000 ( 35341 PWs)   bands (ev):

   -62.8756 -62.8693 -37.1213 -37.1161 -37.0224 -37.0165 -36.9320 -36.9273
   -14.9252 -14.7954 -14.4100 -14.2720  -7.2879  -7.0760  -6.3211  -6.1628
    -6.0131  -5.7034  -5.3647  -5.1226  -4.0393  -3.9519  -3.6232  -3.1490
    -2.9334  -2.8016  -0.3180   0.0691   0.3838   0.5139   0.7764

          k = 0.1250 0.4330 0.0000 ( 35215 PWs)   bands (ev):

   -62.8694 -62.8631 -37.1734 -37.1682 -37.0103 -37.0044 -36.9522 -36.9475
   -14.5924 -14.4680 -14.2579 -14.1424  -7.4804  -7.3420  -6.7371  -6.6149
    -6.1029  -5.7396  -5.3886  -5.1760  -4.1382  -3.9678  -3.8686  -3.3959
    -2.7997  -2.6858  -0.1069   0.2399   0.5069   0.5907   1.0815

          k = 0.1250 0.5052 0.0000 ( 35141 PWs)   bands (ev):

   -62.8653 -62.8590 -37.2079 -37.2028 -37.0022 -36.9963 -36.9657 -36.9610
   -14.3533 -14.2323 -14.1433 -14.0488  -7.6533  -7.5419  -7.0370  -6.9236
    -6.2049  -5.8683  -5.3467  -5.1852  -4.2575  -3.9783  -3.9214  -3.5774
    -2.6141  -2.4822   0.0948   0.2644   0.6625   0.7941   1.3488

          k = 0.1250 0.5774 0.0000 ( 35180 PWs)   bands (ev):

   -62.8638 -62.8575 -37.2200 -37.2149 -36.9994 -36.9935 -36.9704 -36.9657
   -14.2676 -14.1466 -14.0978 -14.0136  -7.7207  -7.6157  -7.1435  -7.0318
    -6.2573  -5.9349  -5.3109  -5.1847  -4.3359  -3.9798  -3.9158  -3.6319
    -2.5208  -2.3746   0.1541   0.2235   0.7773   0.9158   1.4773

          k = 0.1875 0.3248 0.0000 ( 35337 PWs)   bands (ev):

   -62.8762 -62.8699 -37.1076 -37.1026 -37.0236 -37.0177 -36.9389 -36.9340
   -14.9585 -14.8268 -14.4233 -14.2813  -7.2171  -6.9837  -6.1752  -6.0984
    -5.9900  -5.6819  -5.5067  -5.1912  -4.1995  -4.1298  -3.4919  -3.0275
    -2.9164  -2.7837  -0.3983   0.0271   0.4096   0.5173   0.6264

          k = 0.1875 0.3969 0.0000 ( 35241 PWs)   bands (ev):

   -62.8700 -62.8637 -37.1496 -37.1445 -37.0115 -37.0056 -36.9696 -36.9649
   -14.6327 -14.5053 -14.2705 -14.1492  -7.3119  -7.1512  -6.6426  -6.5706
    -6.0227  -5.6021  -5.5138  -5.2131  -4.5209  -4.4256  -3.7280  -3.2443
    -2.8140  -2.7296  -0.2315   0.2312   0.5440   0.5926   0.8035

          k = 0.1875 0.4691 0.0000 ( 35167 PWs)   bands (ev):

   -62.8653 -62.8590 -37.1801 -37.1750 -37.0022 -36.9964 -36.9945 -36.9898
   -14.3650 -14.2409 -14.1385 -14.0386  -7.4081  -7.2804  -7.0417  -6.9683
    -6.0683  -5.6890  -5.4390  -5.1846  -4.7195  -4.5401  -4.0175  -3.5155
    -2.6184  -2.5382  -0.0289   0.2450   0.6944   0.8313   0.9875

          k = 0.1875 0.5413 0.0000 ( 35162 PWs)   bands (ev):

   -62.8627 -62.8564 -37.1961 -37.1910 -37.0084 -37.0038 -36.9972 -36.9913
   -14.2166 -14.0920 -14.0557 -13.9726  -7.4569  -7.3463  -7.2524  -7.1835
    -6.1778  -5.8482  -5.3193  -5.1319  -4.7929  -4.5497  -4.2230  -3.7010
    -2.4340  -2.3395   0.0160   0.0995   0.8879   1.0481   1.1517

          k = 0.2500 0.4330 0.0000 ( 35195 PWs)   bands (ev):

   -62.8653 -62.8590 -37.1655 -37.1605 -37.0096 -37.0049 -37.0022 -36.9962
   -14.3713 -14.2440 -14.1369 -14.0330  -7.2966  -7.1523  -7.0418  -6.9823
    -5.9707  -5.5309  -5.4501  -5.1709  -5.0318  -4.9184  -3.9745  -3.4709
    -2.6277  -2.5673  -0.0814   0.2310   0.6882   0.8294   0.8842

          k = 0.2500 0.5052 0.0000 ( 35193 PWs)   bands (ev):

   -62.8621 -62.8558 -37.1703 -37.1652 -37.0420 -37.0374 -36.9961 -36.9902
   -14.1923 -14.0638 -14.0319 -13.9470  -7.3548  -7.2797  -7.1776  -7.0734
    -6.0248  -5.6994  -5.4409  -5.2592  -5.1715  -5.0253  -4.2490  -3.7192
    -2.3894  -2.3281  -0.1096  -0.0048   0.7671   1.0093   1.1477

          k = 0.2500 0.5774 0.0000 ( 35190 PWs)   bands (ev):

   -62.8610 -62.8547 -37.1702 -37.1650 -37.0552 -37.0507 -36.9939 -36.9880
   -14.1312 -14.0015 -13.9893 -13.9126  -7.4524  -7.3825  -7.1051  -7.0173
    -6.1367  -5.8763  -5.4795  -5.2012  -5.1423  -5.0042  -4.3864  -3.8346
    -2.2630  -2.1944  -0.1797  -0.1506   0.7759   1.1002   1.2362

          k = 0.3125 0.5413 0.0000 ( 35172 PWs)   bands (ev):

   -62.8604 -62.8541 -37.1490 -37.1441 -37.0838 -37.0790 -36.9927 -36.9868
   -14.1045 -13.9708 -13.9644 -13.8873  -7.5168  -7.4542  -6.8773  -6.7710
    -6.1115  -5.9922  -5.8378  -5.3934  -5.1225  -4.9322  -4.4767  -3.9011
    -2.1820  -2.1205  -0.2919  -0.2697   0.6846   1.0580   1.2804

          k =-0.0625 0.0361 0.0000 ( 35493 PWs)   bands (ev):

   -62.9048 -62.8985 -37.0794 -37.0738 -36.8574 -36.8524 -36.8456 -36.8402
   -16.2081 -16.0709 -14.9915 -14.7840  -7.9544  -7.4207  -4.7752  -4.7592
    -4.6717  -4.5725  -4.5627  -3.9438  -3.6195  -3.6080  -3.4660  -3.0934
    -2.4041  -1.6929   0.5799   0.6695   0.7247   0.7969   0.8486

          k =-0.1250 0.0722 0.0000 ( 35435 PWs)   bands (ev):

   -62.9003 -62.8941 -37.0708 -37.0651 -36.9014 -36.8965 -36.8556 -36.8502
   -16.0355 -15.8979 -14.9135 -14.7142  -7.7665  -7.2332  -5.1368  -5.1017
    -4.9964  -4.4583  -4.3931  -4.3838  -3.8704  -3.8579  -3.4282  -2.9063
    -2.4534  -1.8771   0.2550   0.4681   0.4866   0.6645   0.7039

          k =-0.1875 0.1083 0.0000 ( 35345 PWs)   bands (ev):

   -62.8937 -62.8874 -37.0578 -37.0521 -36.9668 -36.9620 -36.8706 -36.8652
   -15.7647 -15.6270 -14.7914 -14.6052  -7.5130  -7.0010  -5.5965  -5.5120
    -5.3860  -4.9855  -4.1962  -4.1812  -4.1198  -4.1096  -3.5453  -2.9529
    -2.6266  -2.2273  -0.0854   0.2880   0.4523   0.4825   0.5244

          k =-0.2500 0.1443 0.0000 ( 35323 PWs)   bands (ev):

   -62.8859 -62.8796 -37.0435 -37.0420 -37.0390 -37.0361 -36.8882 -36.8828
   -15.4220 -15.2849 -14.6376 -14.4685  -7.3208  -6.9172  -6.0241  -5.8026
    -5.7730  -5.4924  -4.5238  -4.5089  -3.8072  -3.7957  -3.7580  -3.1591
    -2.9129  -2.6314  -0.1890   0.2458   0.2818   0.3111   0.7315

          k =-0.3125 0.1804 0.0000 ( 35299 PWs)   bands (ev):

   -62.8780 -62.8717 -37.1184 -37.1138 -37.0271 -37.0213 -36.9058 -36.9004
   -15.0468 -14.9116 -14.4707 -14.3212  -7.3698  -7.1378  -6.3715  -6.0870
    -6.0460  -5.7449  -4.8117  -4.7962  -4.0387  -3.4798  -3.4500  -3.3855
    -3.1269  -2.8777  -0.0637   0.1551   0.1949   0.3670   1.0550

          k =-0.3750 0.2165 0.0000 ( 35224 PWs)   bands (ev):

   -62.8713 -62.8650 -37.1816 -37.1771 -37.0140 -37.0082 -36.9206 -36.9152
   -14.6958 -14.5628 -14.3150 -14.1860  -7.6205  -7.4677  -6.7064  -6.4634
    -6.1945  -5.8149  -5.0322  -5.0162  -4.2333  -3.5649  -3.2158  -3.1862
    -3.1043  -2.8299   0.1443   0.1657   0.1977   0.5303   1.3393

          k =-0.4375 0.2526 0.0000 ( 35152 PWs)   bands (ev):

   -62.8668 -62.8605 -37.2235 -37.2191 -37.0053 -36.9995 -36.9305 -36.9251
   -14.4421 -14.3091 -14.1984 -14.0880  -7.8615  -7.7261  -6.9534  -6.7348
    -6.2985  -5.9273  -5.1698  -5.1535  -4.3483  -3.6666  -3.0578  -3.0233
    -2.9324  -2.6162   0.1902   0.2046   0.4747   0.6941   1.4985

          k = 0.5000-0.2887 0.0000 ( 35026 PWs)   bands (ev):

   -62.8653 -62.8590 -37.2382 -37.2338 -37.0022 -36.9964 -36.9339 -36.9286
   -14.3508 -14.2162 -14.1523 -14.0508  -7.9572  -7.8231  -7.0432  -6.8311
    -6.3436  -5.9814  -5.2165  -5.2001  -4.3852  -3.7001  -3.0057  -2.9673
    -2.8397  -2.5033   0.2186   0.2287   0.6163   0.7686   1.5385

          k = 0.1250 0.0000 0.0000 ( 35467 PWs)   bands (ev):

   -62.9018 -62.8955 -37.0736 -37.0679 -36.8866 -36.8819 -36.8530 -36.8473
   -16.0923 -15.9547 -14.9392 -14.7370  -7.8263  -7.2917  -5.0216  -4.9956
    -4.8935  -4.4542  -4.4450  -4.2991  -3.8386  -3.8202  -3.3849  -2.9087
    -2.4298  -1.8044   0.3536   0.5092   0.5200   0.7052   0.7187

          k =-0.1250 0.1443 0.0000 ( 35370 PWs)   bands (ev):

   -62.8962 -62.8900 -37.0628 -37.0571 -36.9404 -36.9352 -36.8664 -36.8613
   -15.8701 -15.7327 -14.8386 -14.6478  -7.6010  -7.0751  -5.4217  -5.3664
    -5.2168  -4.7467  -4.2441  -4.2260  -4.2124  -4.1740  -3.3578  -2.8375
    -2.5380  -2.0837   0.0190   0.3154   0.4022   0.4971   0.5667

          k = 0.1875 0.0361 0.0000 ( 35370 PWs)   bands (ev):

   -62.8962 -62.8900 -37.0628 -37.0571 -36.9401 -36.9354 -36.8667 -36.8611
   -15.8705 -15.7325 -14.8390 -14.6473  -7.6015  -7.0747  -5.4208  -5.3671
    -5.2155  -4.7480  -4.2415  -4.2307  -4.2107  -4.1750  -3.3631  -2.8345
    -2.5388  -2.0692   0.0062   0.3124   0.3972   0.5114   0.5623

          k =-0.1875 0.1804 0.0000 ( 35362 PWs)   bands (ev):

   -62.8890 -62.8827 -37.0487 -37.0430 -37.0095 -37.0045 -36.8844 -36.8792
   -15.5626 -15.4257 -14.6999 -14.5244  -7.3642  -6.8960  -5.8461  -5.7043
    -5.5819  -5.2441  -4.6091  -4.5306  -3.9733  -3.9538  -3.4932  -2.9581
    -2.7722  -2.4586  -0.2149   0.1711   0.3269   0.4173   0.5213

          k = 0.2500 0.0722 0.0000 ( 35362 PWs)   bands (ev):

   -62.8890 -62.8827 -37.0486 -37.0429 -37.0093 -37.0047 -36.8846 -36.8790
   -15.5632 -15.4253 -14.7005 -14.5237  -7.3645  -6.8959  -5.8463  -5.7037
    -5.5812  -5.2441  -4.6115  -4.5302  -3.9728  -3.9556  -3.4958  -2.9563
    -2.7720  -2.4485  -0.2213   0.1700   0.3307   0.4209   0.5110

          k =-0.2500 0.2165 0.0000 ( 35310 PWs)   bands (ev):

   -62.8811 -62.8749 -37.0835 -37.0787 -37.0333 -37.0275 -36.9038 -36.8985
   -15.2019 -15.0665 -14.5382 -14.3811  -7.2832  -6.9786  -6.1886  -5.9469
    -5.8774  -5.6855  -4.9154  -4.8087  -3.7849  -3.7135  -3.6867  -3.1785
    -2.9993  -2.7713  -0.2339   0.1111   0.2498   0.4031   0.7961

          k = 0.3125 0.1083 0.0000 ( 35310 PWs)   bands (ev):

   -62.8811 -62.8749 -37.0833 -37.0788 -37.0333 -37.0275 -36.9039 -36.8984
   -15.2026 -15.0660 -14.5388 -14.3803  -7.2829  -6.9786  -6.1902  -5.9451
    -5.8790  -5.6828  -4.9181  -4.8090  -3.7924  -3.7183  -3.6769  -3.1758
    -2.9988  -2.7656  -0.2400   0.1138   0.2506   0.4047   0.7839

          k =-0.3125 0.2526 0.0000 ( 35243 PWs)   bands (ev):

   -62.8739 -62.8676 -37.1511 -37.1465 -37.0190 -37.0132 -36.9216 -36.9163
   -14.8354 -14.7023 -14.3748 -14.2377  -7.4532  -7.2751  -6.5342  -6.2983
    -6.1248  -5.7535  -5.1084  -5.0043  -4.0126  -3.6013  -3.5708  -3.3587
    -2.9929  -2.8171  -0.0978   0.1456   0.2908   0.4831   1.1298

          k = 0.3750 0.1443 0.0000 ( 35243 PWs)   bands (ev):

   -62.8739 -62.8676 -37.1510 -37.1465 -37.0190 -37.0133 -36.9217 -36.9163
   -14.8363 -14.7018 -14.3753 -14.2368  -7.4530  -7.2745  -6.5356  -6.2972
    -6.1252  -5.7516  -5.1102  -5.0058  -4.0166  -3.6036  -3.5709  -3.3485
    -2.9934  -2.8146  -0.1026   0.1445   0.2929   0.4847   1.1158

          k =-0.3750 0.2887 0.0000 ( 35169 PWs)   bands (ev):

   -62.8683 -62.8620 -37.2024 -37.1978 -37.0081 -37.0023 -36.9352 -36.9299
   -14.5284 -14.3965 -14.2358 -14.1185  -7.7072  -7.5679  -6.8581  -6.6576
    -6.2370  -5.8501  -5.2124  -5.1293  -4.2236  -3.6163  -3.4870  -3.3344
    -2.8293  -2.6359   0.0869   0.2210   0.4367   0.6268   1.4214

          k = 0.4375 0.1804 0.0000 ( 35169 PWs)   bands (ev):

   -62.8683 -62.8620 -37.2023 -37.1979 -37.0081 -37.0023 -36.9353 -36.9299
   -14.5293 -14.3962 -14.2361 -14.1177  -7.7071  -7.5674  -6.8590  -6.6569
    -6.2370  -5.8493  -5.2126  -5.1311  -4.2262  -3.6190  -3.4930  -3.3191
    -2.8291  -2.6362   0.0874   0.2158   0.4370   0.6291   1.4079

          k =-0.4375 0.3248 0.0000 ( 35128 PWs)   bands (ev):

   -62.8653 -62.8590 -37.2299 -37.2255 -37.0022 -36.9964 -36.9426 -36.9373
   -14.3541 -14.2201 -14.1504 -14.0479  -7.8761  -7.7425  -7.0440  -6.8547
    -6.3202  -5.9487  -5.2534  -5.1902  -4.3421  -3.6958  -3.4025  -3.2405
    -2.6850  -2.4521   0.1944   0.2525   0.6192   0.7749   1.6081

          k = 0.5000 0.2165 0.0000 ( 35128 PWs)   bands (ev):

   -62.8653 -62.8590 -37.2299 -37.2255 -37.0022 -36.9964 -36.9426 -36.9372
   -14.3545 -14.2200 -14.1504 -14.0476  -7.8760  -7.7423  -7.0443  -6.8545
    -6.3202  -5.9484  -5.2531  -5.1912  -4.3430  -3.6964  -3.4058  -3.2342
    -2.6843  -2.4529   0.1960   0.2499   0.6191   0.7749   1.6006

          k = 0.2500 0.0000 0.0000 ( 35331 PWs)   bands (ev):

   -62.8901 -62.8838 -37.0508 -37.0451 -36.9952 -36.9907 -36.8855 -36.8799
   -15.6117 -15.4737 -14.7220 -14.5426  -7.3822  -6.8922  -5.7674  -5.6585
    -5.4564  -5.0720  -4.7538  -4.6640  -4.0533  -4.0346  -3.3193  -2.8273
    -2.7086  -2.3572  -0.2387   0.1262   0.3323   0.3777   0.4422

          k =-0.1875 0.2526 0.0000 ( 35357 PWs)   bands (ev):

   -62.8828 -62.8766 -37.0589 -37.0540 -37.0366 -37.0307 -36.9085 -36.9034
   -15.2835 -15.1484 -14.5728 -14.4124  -7.2301  -6.8671  -6.0500  -5.8051
    -5.7507  -5.5392  -5.1896  -4.9900  -3.9608  -3.9149  -3.4161  -2.9610
    -2.9005  -2.6609  -0.3657   0.0079   0.3022   0.4382   0.5266

          k = 0.3125 0.0361 0.0000 ( 35357 PWs)   bands (ev):

   -62.8828 -62.8766 -37.0586 -37.0541 -37.0366 -37.0309 -36.9088 -36.9032
   -15.2849 -15.1476 -14.5740 -14.4107  -7.2295  -6.8677  -6.0524  -5.7931
    -5.7595  -5.5377  -5.1949  -4.9887  -3.9574  -3.9206  -3.4194  -2.9609
    -2.8974  -2.6460  -0.3737   0.0093   0.3038   0.4469   0.5104

          k =-0.2500 0.2887 0.0000 ( 35341 PWs)   bands (ev):

   -62.8756 -62.8693 -37.1210 -37.1162 -37.0224 -37.0166 -36.9322 -36.9271
   -14.9272 -14.7944 -14.4114 -14.2698  -7.2873  -7.0738  -6.3222  -6.1463
    -6.0453  -5.6974  -5.3591  -5.1184  -4.0349  -3.9541  -3.6419  -3.1404
    -2.9294  -2.7916  -0.3136   0.0685   0.3802   0.5059   0.7926

          k = 0.3750 0.0722 0.0000 ( 35341 PWs)   bands (ev):

   -62.8756 -62.8693 -37.1208 -37.1164 -37.0224 -37.0166 -36.9324 -36.9269
   -14.9290 -14.7934 -14.4126 -14.2680  -7.2863  -7.0734  -6.3245  -6.1380
    -6.0541  -5.6936  -5.3633  -5.1192  -4.0364  -3.9577  -3.6375  -3.1341
    -2.9271  -2.7892  -0.3187   0.0679   0.3821   0.5105   0.7734

          k =-0.3125 0.3248 0.0000 ( 35215 PWs)   bands (ev):

   -62.8694 -62.8631 -37.1731 -37.1684 -37.0103 -37.0045 -36.9524 -36.9472
   -14.5970 -14.4660 -14.2600 -14.1379  -7.4834  -7.3340  -6.7419  -6.6004
    -6.1425  -5.7242  -5.3836  -5.1690  -4.1273  -3.9734  -3.8934  -3.3810
    -2.7957  -2.6779  -0.1025   0.2457   0.4999   0.5871   1.1047

          k = 0.4375 0.1083 0.0000 ( 35215 PWs)   bands (ev):

   -62.8694 -62.8631 -37.1730 -37.1685 -37.0103 -37.0045 -36.9525 -36.9471
   -14.5990 -14.4652 -14.2609 -14.1361  -7.4831  -7.3327  -6.7434  -6.5985
    -6.1443  -5.7223  -5.3861  -5.1712  -4.1433  -3.9691  -3.8825  -3.3716
    -2.7966  -2.6778  -0.1027   0.2382   0.5023   0.5905   1.0795

          k =-0.3750 0.3608 0.0000 ( 35141 PWs)   bands (ev):

   -62.8653 -62.8590 -37.2076 -37.2031 -37.0023 -36.9965 -36.9659 -36.9606
   -14.3620 -14.2297 -14.1453 -14.0411  -7.6612  -7.5276  -7.0439  -6.9092
    -6.2458  -5.8486  -5.3464  -5.1759  -4.2660  -3.9824  -3.9263  -3.5619
    -2.6162  -2.4676   0.0943   0.2698   0.6548   0.8037   1.3800

          k = 0.5000 0.1443 0.0000 ( 35141 PWs)   bands (ev):

   -62.8653 -62.8590 -37.2075 -37.2031 -37.0023 -36.9965 -36.9660 -36.9606
   -14.3635 -14.2292 -14.1456 -14.0397  -7.6611  -7.5267  -7.0446  -6.9086
    -6.2461  -5.8480  -5.3465  -5.1783  -4.2743  -3.9810  -3.9239  -3.5523
    -2.6171  -2.4676   0.0972   0.2648   0.6544   0.8043   1.3505

          k =-0.4375 0.3969 0.0000 ( 35180 PWs)   bands (ev):

   -62.8638 -62.8575 -37.2197 -37.2152 -36.9994 -36.9937 -36.9707 -36.9653
   -14.2793 -14.1440 -14.0994 -14.0032  -7.7306  -7.5984  -7.1513  -7.0172
    -6.2979  -5.9141  -5.3147  -5.1724  -4.3553  -3.9803  -3.9143  -3.6136
    -2.5265  -2.3559   0.1494   0.2293   0.7642   0.9393   1.4995

          k = 0.3750 0.0000 0.0000 ( 35337 PWs)   bands (ev):

   -62.8762 -62.8699 -37.1072 -37.1028 -37.0236 -37.0178 -36.9392 -36.9336
   -14.9613 -14.8253 -14.4252 -14.2784  -7.2150  -6.9835  -6.1728  -6.0643
    -6.0369  -5.6799  -5.5064  -5.1873  -4.1920  -4.1386  -3.4946  -3.0231
    -2.9079  -2.7796  -0.4010   0.0267   0.4108   0.5241   0.6125

          k =-0.2500 0.3608 0.0000 ( 35241 PWs)   bands (ev):

   -62.8700 -62.8637 -37.1494 -37.1446 -37.0115 -37.0057 -36.9697 -36.9647
   -14.6342 -14.5047 -14.2713 -14.1477  -7.3124  -7.1492  -6.6419  -6.5646
    -6.0457  -5.5987  -5.5083  -5.2035  -4.5192  -4.4281  -3.7370  -3.2400
    -2.8106  -2.7287  -0.2293   0.2343   0.5412   0.5896   0.8160

          k = 0.4375 0.0361 0.0000 ( 35241 PWs)   bands (ev):

   -62.8700 -62.8637 -37.1491 -37.1448 -37.0115 -37.0058 -36.9700 -36.9644
   -14.6375 -14.5032 -14.2729 -14.1446  -7.3113  -7.1476  -6.6420  -6.5593
    -6.0595  -5.5955  -5.5112  -5.2028  -4.5179  -4.4302  -3.7307  -3.2330
    -2.8054  -2.7353  -0.2283   0.2292   0.5487   0.5883   0.7986

          k =-0.3125 0.3969 0.0000 ( 35167 PWs)   bands (ev):

   -62.8653 -62.8590 -37.1798 -37.1751 -37.0024 -36.9968 -36.9946 -36.9893
   -14.3695 -14.2395 -14.1397 -14.0345  -7.4126  -7.2734  -7.0412  -6.9601
    -6.1064  -5.6742  -5.4352  -5.1726  -4.7071  -4.5480  -4.0341  -3.5075
    -2.6173  -2.5340  -0.0280   0.2484   0.6918   0.8341   1.0086

          k = 0.5000 0.0722 0.0000 ( 35167 PWs)   bands (ev):

   -62.8653 -62.8590 -37.1796 -37.1753 -37.0025 -36.9971 -36.9947 -36.9889
   -14.3728 -14.2384 -14.1405 -14.0317  -7.4121  -7.2711  -7.0413  -6.9594
    -6.1102  -5.6742  -5.4373  -5.1739  -4.7207  -4.5391  -4.0229  -3.5042
    -2.6181  -2.5355  -0.0250   0.2453   0.6884   0.8369   0.9885

          k =-0.3750 0.4330 0.0000 ( 35162 PWs)   bands (ev):

   -62.8627 -62.8564 -37.1957 -37.1912 -37.0089 -37.0039 -36.9971 -36.9910
   -14.2250 -14.0905 -14.0566 -13.9652  -7.4678  -7.3325  -7.2517  -7.1732
    -6.2208  -5.8287  -5.3268  -5.1147  -4.7782  -4.5518  -4.2444  -3.6907
    -2.4388  -2.3288   0.0131   0.1034   0.8770   1.0644   1.1722

          k = 0.5625 0.1083 0.0000 ( 35162 PWs)   bands (ev):

   -62.8627 -62.8564 -37.1957 -37.1912 -37.0089 -37.0039 -36.9971 -36.9910
   -14.2264 -14.0902 -14.0567 -13.9639  -7.4675  -7.3312  -7.2521  -7.1735
    -6.2215  -5.8286  -5.3272  -5.1160  -4.7863  -4.5481  -4.2378  -3.6897
    -2.4394  -2.3290   0.0144   0.1024   0.8747   1.0674   1.1591

          k = 0.5000 0.0000 0.0000 ( 35195 PWs)   bands (ev):

   -62.8653 -62.8590 -37.1651 -37.1608 -37.0101 -37.0051 -37.0020 -36.9957
   -14.3766 -14.2423 -14.1383 -14.0283  -7.2968  -7.1493  -7.0394  -6.9788
    -5.9924  -5.5303  -5.4510  -5.1677  -5.0220  -4.9229  -3.9656  -3.4687
    -2.6247  -2.5722  -0.0778   0.2305   0.6810   0.8344   0.8759

          k =-0.3125 0.4691 0.0000 ( 35193 PWs)   bands (ev):

   -62.8621 -62.8558 -37.1701 -37.1653 -37.0422 -37.0373 -36.9960 -36.9901
   -14.1953 -14.0633 -14.0322 -13.9443  -7.3579  -7.2797  -7.1756  -7.0653
    -6.0545  -5.6851  -5.4279  -5.2699  -5.1694  -5.0159  -4.2564  -3.7170
    -2.3908  -2.3252  -0.1097  -0.0040   0.7720   1.0044   1.1446

          k = 0.5625 0.0361 0.0000 ( 35193 PWs)   bands (ev):

   -62.8621 -62.8558 -37.1698 -37.1655 -37.0425 -37.0372 -36.9960 -36.9901
   -14.1992 -14.0627 -14.0325 -13.9408  -7.3576  -7.2776  -7.1774  -7.0613
    -6.0599  -5.6881  -5.4390  -5.2629  -5.1713  -5.0126  -4.2438  -3.7196
    -2.3913  -2.3262  -0.1080  -0.0045   0.7649   1.0126   1.1334

          k =-0.3750 0.5052 0.0000 ( 35190 PWs)   bands (ev):

   -62.8610 -62.8547 -37.1698 -37.1653 -37.0556 -37.0505 -36.9939 -36.9880
   -14.1373 -14.0009 -13.9896 -13.9070  -7.4546  -7.3809  -7.1088  -6.9988
    -6.1792  -5.8590  -5.4714  -5.2227  -5.1391  -4.9748  -4.3941  -3.8334
    -2.2670  -2.1889  -0.1821  -0.1477   0.7809   1.0944   1.2216

          k = 0.6250 0.0000 0.0000 ( 35172 PWs)   bands (ev):

   -62.8604 -62.8541 -37.1487 -37.1443 -37.0841 -37.0788 -36.9927 -36.9868
   -14.1074 -13.9707 -13.9644 -13.8846  -7.5168  -7.4536  -6.8794  -6.7611
    -6.1222  -6.0106  -5.8199  -5.3961  -5.1249  -4.9262  -4.4709  -3.9039
    -2.1828  -2.1199  -0.2916  -0.2697   0.6851   1.0590   1.2724

     the Fermi energy is    -1.0717 ev

!    total energy              =    -989.17057454 Ry
     total all-electron energy =    -19385.830997 Ry
     estimated scf accuracy    <          7.1E-09 Ry
     smearing contrib. (-TS)   =       0.00002154 Ry
     internal energy E=F+TS    =    -989.17059608 Ry

     The total energy is F=E-TS. E is the sum of the following terms:
     one-electron contribution =  -10389.76525845 Ry
     hartree contribution      =    5197.95536307 Ry
     xc contribution           =     -59.62139098 Ry
     ewald contribution        =    4897.18912473 Ry
     one-center paw contrib.   =    -634.92843446 Ry

     convergence has been achieved in  28 iterations

     Writing all to output data dir ./tmp/gsfe_013/mos2_gsfe_013.save/ :
     XML data file, charge density, pseudopotentials, collected wavefunctions

     init_run     :     98.89s CPU    100.68s WALL (       1 calls)
     electrons    :   4578.14s CPU   4669.72s WALL (       1 calls)

     Called by init_run:
     wfcinit      :     52.94s CPU     53.21s WALL (       1 calls)
     potinit      :     43.16s CPU     43.59s WALL (       1 calls)
     hinit0       :      0.34s CPU      0.36s WALL (       1 calls)

     Called by electrons:
     c_bands      :   3773.33s CPU   3795.04s WALL (      29 calls)
     sum_band     :    606.80s CPU    639.39s WALL (      29 calls)
     v_of_rho     :    134.01s CPU    143.98s WALL (      29 calls)
     newd         :     64.55s CPU     92.68s WALL (      29 calls)
     PAW_pot      :      5.87s CPU      5.87s WALL (      29 calls)
     mix_rho      :     37.75s CPU     38.35s WALL (      29 calls)
     vdW_kernel   :     39.61s CPU     39.62s WALL (       1 calls)

     Called by c_bands:
     init_us_2    :     32.47s CPU     32.50s WALL (    4307 calls)
     init_us_2:cp :     32.46s CPU     32.49s WALL (    4307 calls)
     cegterg      :   3513.71s CPU   3534.91s WALL (    2117 calls)

     Called by *egterg:
     cdiaghg      :      3.45s CPU      3.45s WALL (    7131 calls)
     h_psi        :   2184.68s CPU   2186.86s WALL (    7277 calls)
     s_psi        :    473.23s CPU    473.72s WALL (    7277 calls)
     g_psi        :     15.25s CPU     15.26s WALL (    5087 calls)

     Called by h_psi:
     h_psi:calbec :    620.11s CPU    620.29s WALL (    7277 calls)
     vloc_psi     :   1084.02s CPU   1084.85s WALL (    7277 calls)
     add_vuspsi   :    473.71s CPU    473.86s WALL (    7277 calls)

     General routines
     calbec       :    875.54s CPU    875.80s WALL (    9394 calls)
     fft          :     35.96s CPU     35.97s WALL (    1826 calls)
     ffts         :     18.60s CPU     18.61s WALL (    3379 calls)
     fftw         :    959.23s CPU    959.80s WALL (  385511 calls)
     interpolate  :      0.86s CPU      0.87s WALL (      29 calls)

     Parallel routines

     PWSCF        :      1h17m CPU      1h19m WALL


   This run was terminated on:   6:49:43  15Jun2026            

=------------------------------------------------------------------------------=
   JOB DONE.
=------------------------------------------------------------------------------=
Note: The following floating-point exceptions are signalling: IEEE_UNDERFLOW_FLAG IEEE_DENORMAL
