Authorization required, but no authorization protocol specified

Authorization required, but no authorization protocol specified

Authorization required, but no authorization protocol specified

Authorization required, but no authorization protocol specified

Authorization required, but no authorization protocol specified

Authorization required, but no authorization protocol specified

Authorization required, but no authorization protocol specified

Authorization required, but no authorization protocol specified


     Program PWSCF v.7.3 starts on 15Jun2026 at  3:57:23 

     This program is part of the open-source Quantum ESPRESSO suite
     for quantum simulation of materials; please cite
         "P. Giannozzi et al., J. Phys.:Condens. Matter 21 395502 (2009);
         "P. Giannozzi et al., J. Phys.:Condens. Matter 29 465901 (2017);
         "P. Giannozzi et al., J. Chem. Phys. 152 154105 (2020);
          URL http://www.quantum-espresso.org", 
     in publications or presentations arising from this work. More details at
     http://www.quantum-espresso.org/quote

     Parallel version (MPI), running on     1 processors

     MPI processes distributed on     1 nodes
     8144 MiB available memory on the printing compute node when the environment starts

     Waiting for input...
     Reading input from standard input

     Current dimensions of program PWSCF are:
     Max number of different atomic species (ntypx) = 10
     Max number of k-points (npk) =  40000
     Max angular momentum in pseudopotentials (lmaxx) =  4
     file Mo.pbe-spn-kjpaw_psl.1.0.0.UPF: wavefunction(s)  4S 4D renormalized
     file S.pbe-n-kjpaw_psl.1.0.0.UPF: wavefunction(s)  3S 3P renormalized

     IMPORTANT: XC functional enforced from input :
     Exchange-correlation= VDW-DF2-B86R
                           (   1   4  26   0   2   0   0)
     Any further DFT definition will be discarded
     Please, verify this is what you really want


     Subspace diagonalization in iterative solution of the eigenvalue problem:
     a serial algorithm will be used


     G-vector sticks info
     --------------------
     sticks:   dense  smooth     PW     G-vecs:    dense   smooth      PW
     Sum        1573     769    223               797393   281171   43435

     Using Slab Decomposition



     bravais-lattice index     =            4
     lattice parameter (alat)  =       5.9715  a.u.
     unit-cell volume          =    2917.9067 (a.u.)^3
     number of atoms/cell      =            6
     number of atomic types    =            2
     number of electrons       =        52.00
     number of Kohn-Sham states=           31
     kinetic-energy cutoff     =      80.0000  Ry
     charge density cutoff     =     640.0000  Ry
     scf convergence threshold =      1.0E-08
     mixing beta               =       0.3000
     number of iterations used =            8  local-TF  mixing
     Exchange-correlation= VDW-DF2-B86R
                           (   1   4  26   0   2   0   0)

     celldm(1)=   5.971535  celldm(2)=   0.000000  celldm(3)=  15.822785
     celldm(4)=   0.000000  celldm(5)=   0.000000  celldm(6)=   0.000000

     crystal axes: (cart. coord. in units of alat)
               a(1) = (   1.000000   0.000000   0.000000 )  
               a(2) = (  -0.500000   0.866025   0.000000 )  
               a(3) = (   0.000000   0.000000  15.822785 )  

     reciprocal axes: (cart. coord. in units 2 pi/alat)
               b(1) = (  1.000000  0.577350 -0.000000 )  
               b(2) = (  0.000000  1.154701  0.000000 )  
               b(3) = (  0.000000 -0.000000  0.063200 )  


     PseudoPot. # 1 for Mo read from file:
     ./pseudo/Mo.pbe-spn-kjpaw_psl.1.0.0.UPF
     MD5 check sum: 4396e0c640fcce5c25f020efccf1ab12
     Pseudo is Projector augmented-wave + core cor, Zval = 14.0
     Generated using &quot;atomic&quot; code by A. Dal Corso  v.6.3
     Shape of augmentation charge: PSQ
     Using radial grid of 1229 points,  6 beta functions with: 
                l(1) =   0
                l(2) =   0
                l(3) =   1
                l(4) =   1
                l(5) =   2
                l(6) =   2
     Q(r) pseudized with 0 coefficients 


     PseudoPot. # 2 for S  read from file:
     ./pseudo/S.pbe-n-kjpaw_psl.1.0.0.UPF
     MD5 check sum: fb45dfebcf3e72a4e1bd4a866ec2e262
     Pseudo is Projector augmented-wave + core cor, Zval =  6.0
     Generated using &quot;atomic&quot; code by A. Dal Corso  v.6.3
     Shape of augmentation charge: PSQ
     Using radial grid of 1151 points,  6 beta functions with: 
                l(1) =   0
                l(2) =   0
                l(3) =   1
                l(4) =   1
                l(5) =   2
                l(6) =   2
     Q(r) pseudized with 0 coefficients 


     atomic species   valence    mass     pseudopotential
     Mo               14.00    95.96000     Mo( 1.00)
     S                 6.00    32.06000     S ( 1.00)

      2 Sym. Ops. (no inversion) found



   Cartesian axes

     site n.     atom                  positions (alat units)
         1        S      tau(   1) = (  -0.0000005   0.5773506   6.4231013  )
         2        Mo     tau(   2) = (   0.0000000   0.0000000   6.9204905  )
         3        S      tau(   3) = (  -0.0000005   0.5773506   7.4181013  )
         4        S      tau(   4) = (   0.0000005   0.8082901   8.4034019  )
         5        Mo     tau(   5) = (  -0.0000005   0.2309404   8.9017247  )
         6        S      tau(   6) = (   0.0000005   0.8082901   9.3996835  )

     number of k points=    73  Methfessel-Paxton smearing, width (Ry)=  0.0200
                       cart. coord. in units 2pi/alat
        k(    1) = (   0.0000000   0.0000000   0.0000000), wk =   0.0078125
        k(    2) = (   0.0000000   0.0721688   0.0000000), wk =   0.0156250
        k(    3) = (   0.0000000   0.1443376   0.0000000), wk =   0.0156250
        k(    4) = (   0.0000000   0.2165064   0.0000000), wk =   0.0156250
        k(    5) = (   0.0000000   0.2886751   0.0000000), wk =   0.0156250
        k(    6) = (   0.0000000   0.3608439   0.0000000), wk =   0.0156250
        k(    7) = (   0.0000000   0.4330127   0.0000000), wk =   0.0156250
        k(    8) = (   0.0000000   0.5051815   0.0000000), wk =   0.0156250
        k(    9) = (   0.0000000  -0.5773503   0.0000000), wk =   0.0078125
        k(   10) = (   0.0625000   0.1082532   0.0000000), wk =   0.0312500
        k(   11) = (   0.0625000   0.1804220   0.0000000), wk =   0.0312500
        k(   12) = (   0.0625000   0.2525907   0.0000000), wk =   0.0312500
        k(   13) = (   0.0625000   0.3247595   0.0000000), wk =   0.0312500
        k(   14) = (   0.0625000   0.3969283   0.0000000), wk =   0.0312500
        k(   15) = (   0.0625000   0.4690971   0.0000000), wk =   0.0312500
        k(   16) = (   0.0625000   0.5412659   0.0000000), wk =   0.0312500
        k(   17) = (   0.1250000   0.2165064   0.0000000), wk =   0.0312500
        k(   18) = (   0.1250000   0.2886751   0.0000000), wk =   0.0312500
        k(   19) = (   0.1250000   0.3608439   0.0000000), wk =   0.0312500
        k(   20) = (   0.1250000   0.4330127   0.0000000), wk =   0.0312500
        k(   21) = (   0.1250000   0.5051815   0.0000000), wk =   0.0312500
        k(   22) = (   0.1250000   0.5773503   0.0000000), wk =   0.0156250
        k(   23) = (   0.1875000   0.3247595   0.0000000), wk =   0.0312500
        k(   24) = (   0.1875000   0.3969283   0.0000000), wk =   0.0312500
        k(   25) = (   0.1875000   0.4690971   0.0000000), wk =   0.0312500
        k(   26) = (   0.1875000   0.5412659   0.0000000), wk =   0.0312500
        k(   27) = (   0.2500000   0.4330127   0.0000000), wk =   0.0312500
        k(   28) = (   0.2500000   0.5051815   0.0000000), wk =   0.0312500
        k(   29) = (   0.2500000   0.5773503   0.0000000), wk =   0.0156250
        k(   30) = (   0.3125000   0.5412659   0.0000000), wk =   0.0312500
        k(   31) = (  -0.0625000   0.0360844   0.0000000), wk =   0.0312500
        k(   32) = (  -0.1250000   0.0721688   0.0000000), wk =   0.0312500
        k(   33) = (  -0.1875000   0.1082532   0.0000000), wk =   0.0312500
        k(   34) = (  -0.2500000   0.1443376   0.0000000), wk =   0.0312500
        k(   35) = (  -0.3125000   0.1804220   0.0000000), wk =   0.0312500
        k(   36) = (  -0.3750000   0.2165064   0.0000000), wk =   0.0312500
        k(   37) = (  -0.4375000   0.2525907   0.0000000), wk =   0.0312500
        k(   38) = (   0.5000000  -0.2886751   0.0000000), wk =   0.0156250
        k(   39) = (   0.1250000   0.0000000   0.0000000), wk =   0.0156250
        k(   40) = (  -0.1250000   0.1443376   0.0000000), wk =   0.0312500
        k(   41) = (   0.1875000   0.0360844   0.0000000), wk =   0.0312500
        k(   42) = (  -0.1875000   0.1804220   0.0000000), wk =   0.0312500
        k(   43) = (   0.2500000   0.0721688   0.0000000), wk =   0.0312500
        k(   44) = (  -0.2500000   0.2165064   0.0000000), wk =   0.0312500
        k(   45) = (   0.3125000   0.1082532   0.0000000), wk =   0.0312500
        k(   46) = (  -0.3125000   0.2525907   0.0000000), wk =   0.0312500
        k(   47) = (   0.3750000   0.1443376   0.0000000), wk =   0.0312500
        k(   48) = (  -0.3750000   0.2886751   0.0000000), wk =   0.0312500
        k(   49) = (   0.4375000   0.1804220   0.0000000), wk =   0.0312500
        k(   50) = (  -0.4375000   0.3247595   0.0000000), wk =   0.0312500
        k(   51) = (   0.5000000   0.2165064   0.0000000), wk =   0.0312500
        k(   52) = (   0.2500000   0.0000000   0.0000000), wk =   0.0156250
        k(   53) = (  -0.1875000   0.2525907   0.0000000), wk =   0.0312500
        k(   54) = (   0.3125000   0.0360844   0.0000000), wk =   0.0312500
        k(   55) = (  -0.2500000   0.2886751   0.0000000), wk =   0.0312500
        k(   56) = (   0.3750000   0.0721688   0.0000000), wk =   0.0312500
        k(   57) = (  -0.3125000   0.3247595   0.0000000), wk =   0.0312500
        k(   58) = (   0.4375000   0.1082532   0.0000000), wk =   0.0312500
        k(   59) = (  -0.3750000   0.3608439   0.0000000), wk =   0.0312500
        k(   60) = (   0.5000000   0.1443376   0.0000000), wk =   0.0312500
        k(   61) = (  -0.4375000   0.3969283   0.0000000), wk =   0.0312500
        k(   62) = (   0.3750000   0.0000000   0.0000000), wk =   0.0156250
        k(   63) = (  -0.2500000   0.3608439   0.0000000), wk =   0.0312500
        k(   64) = (   0.4375000   0.0360844   0.0000000), wk =   0.0312500
        k(   65) = (  -0.3125000   0.3969283   0.0000000), wk =   0.0312500
        k(   66) = (   0.5000000   0.0721688   0.0000000), wk =   0.0312500
        k(   67) = (  -0.3750000   0.4330127   0.0000000), wk =   0.0312500
        k(   68) = (   0.5625000   0.1082532   0.0000000), wk =   0.0312500
        k(   69) = (   0.5000000   0.0000000   0.0000000), wk =   0.0156250
        k(   70) = (  -0.3125000   0.4690971   0.0000000), wk =   0.0312500
        k(   71) = (   0.5625000   0.0360844   0.0000000), wk =   0.0312500
        k(   72) = (  -0.3750000   0.5051815   0.0000000), wk =   0.0312500
        k(   73) = (   0.6250000   0.0000000   0.0000000), wk =   0.0156250

     Dense  grid:   797393 G-vectors     FFT dimensions: (  50,  50, 768)

     Smooth grid:   281171 G-vectors     FFT dimensions: (  36,  36, 540)

     Estimated max dynamical RAM per process >       4.00 GB

     Initial potential from superposition of free atoms

     starting charge      51.9981, renormalised to      52.0000

     negative rho (up, down):  1.906E-04 0.000E+00


     %%%%%%%%%%%%%%%%%%%%%%%%%%%%%%%%%%%%%%%%%%%%%%%%%%%%%%%%%%%%%%%%%%%%%%%%
     %                                                                      %
     % You are using vdW-DF, which was implemented by the Thonhauser group. %
     % Please cite the following two papers that made this development      %
     % possible and the two reviews that describe the various versions:     %
     %                                                                      %
     %   T. Thonhauser et al., PRL 115, 136402 (2015).                      %
     %   T. Thonhauser et al., PRB 76, 125112 (2007).                       %
     %   K. Berland et al., Rep. Prog. Phys. 78, 066501 (2015).             %
     %   D.C. Langreth et al., J. Phys.: Condens. Matter 21, 084203 (2009). %
     %                                                                      %
     % If you are calculating stress with vdW-DF, please also cite:         %
     %                                                                      %
     %   R. Sabatini et al., J. Phys.: Condens. Matter 24, 424209 (2012).   %
     %                                                                      %
     %%%%%%%%%%%%%%%%%%%%%%%%%%%%%%%%%%%%%%%%%%%%%%%%%%%%%%%%%%%%%%%%%%%%%%%%

     %%%%%%%%%%%%%%%%%%%%%%%%%%%%%%%%%%%%%%%%%%%%%%%%%%%%%%%%%%%%%%%%%%%%%%%%
     %                                                                      %
     %  vdW-DF NEWS:                                                        %
     %                                                                      %
     %  * vdW-DF3 is now available. DOI: 10.1021/acs.jctc.0c00471           %
     %    use with input_dft = 'vdW-DF3-opt1' or 'vdW-DF3-opt2'             %
     %                                                                      %
     %  * Unscreened and range-separated hybrid vdW-DF-cx functionals       %
     %    DOI: 10.1063/1.4986522 and 10.1088/1361-648X/ac2ad2               %
     %    use with input_dft = 'vdW-DF-cx0'    and 'vdW-DF-ahcx'            %
     %  * Unscreened and range-separated hybrid vdW-DF2-b86r functionals    %
     %    DOI: 10.1063/1.4986522 and DOI: 10.1103/PhysRevX.12.041003        %
     %    use with input_dft = 'vdW-DF2-br0' and 'vdW-DF2-ahbr'             %
     %                                                                      %
     %%%%%%%%%%%%%%%%%%%%%%%%%%%%%%%%%%%%%%%%%%%%%%%%%%%%%%%%%%%%%%%%%%%%%%%%


     Starting wfcs are   36 randomized atomic wfcs
     Checking if some PAW data can be deallocated... 

     total cpu time spent up to now is      101.3 secs

     Self-consistent Calculation

     iteration #  1     ecut=    80.00 Ry     beta= 0.30
     Davidson diagonalization with overlap
     ethr =  1.00E-02,  avg # of iterations =  2.4

     Threshold (ethr) on eigenvalues was too large:
     Diagonalizing with lowered threshold

     Davidson diagonalization with overlap
     ethr =  2.80E-04,  avg # of iterations =  3.8

     negative rho (up, down):  7.424E-05 0.000E+00

     total cpu time spent up to now is      454.5 secs

     total energy              =    -989.21283967 Ry
     estimated scf accuracy    <       0.23108907 Ry

     iteration #  2     ecut=    80.00 Ry     beta= 0.30
     Davidson diagonalization with overlap
     ethr =  4.44E-04,  avg # of iterations =  1.0

     negative rho (up, down):  1.122E-04 0.000E+00

     total cpu time spent up to now is      588.1 secs

     total energy              =    -989.13830419 Ry
     estimated scf accuracy    <       0.16609237 Ry

     iteration #  3     ecut=    80.00 Ry     beta= 0.30
     Davidson diagonalization with overlap
     ethr =  3.19E-04,  avg # of iterations =  2.0

     negative rho (up, down):  3.519E-05 0.000E+00

     total cpu time spent up to now is      755.8 secs

     total energy              =    -989.17135933 Ry
     estimated scf accuracy    <       0.01555648 Ry

     iteration #  4     ecut=    80.00 Ry     beta= 0.30
     Davidson diagonalization with overlap
     ethr =  2.99E-05,  avg # of iterations =  2.2

     negative rho (up, down):  9.197E-06 0.000E+00

     total cpu time spent up to now is      927.4 secs

     total energy              =    -989.17182246 Ry
     estimated scf accuracy    <       0.00843517 Ry

     iteration #  5     ecut=    80.00 Ry     beta= 0.30
     Davidson diagonalization with overlap
     ethr =  1.62E-05,  avg # of iterations =  3.2

     negative rho (up, down):  3.360E-06 0.000E+00

     total cpu time spent up to now is     1082.2 secs

     total energy              =    -989.17215375 Ry
     estimated scf accuracy    <       0.00283656 Ry

     iteration #  6     ecut=    80.00 Ry     beta= 0.30
     Davidson diagonalization with overlap
     ethr =  5.45E-06,  avg # of iterations =  4.3

     negative rho (up, down):  6.045E-07 0.000E+00

     total cpu time spent up to now is     1230.7 secs

     total energy              =    -989.17191500 Ry
     estimated scf accuracy    <       0.00256178 Ry

     iteration #  7     ecut=    80.00 Ry     beta= 0.30
     Davidson diagonalization with overlap
     ethr =  4.93E-06,  avg # of iterations =  1.5

     negative rho (up, down):  4.617E-07 0.000E+00

     total cpu time spent up to now is     1369.3 secs

     total energy              =    -989.17157292 Ry
     estimated scf accuracy    <       0.00254198 Ry

     iteration #  8     ecut=    80.00 Ry     beta= 0.30
     Davidson diagonalization with overlap
     ethr =  4.89E-06,  avg # of iterations =  3.2

     negative rho (up, down):  7.364E-04 0.000E+00

     total cpu time spent up to now is     1540.4 secs

     total energy              =    -989.17107160 Ry
     estimated scf accuracy    <       0.00407997 Ry

     iteration #  9     ecut=    80.00 Ry     beta= 0.30
     Davidson diagonalization with overlap
     ethr =  4.89E-06,  avg # of iterations =  2.6

     negative rho (up, down):  1.965E-03 0.000E+00

     total cpu time spent up to now is     1707.5 secs

     total energy              =    -989.17148705 Ry
     estimated scf accuracy    <       0.00074777 Ry

     iteration # 10     ecut=    80.00 Ry     beta= 0.30
     Davidson diagonalization with overlap
     ethr =  1.44E-06,  avg # of iterations =  3.9

     negative rho (up, down):  3.633E-03 0.000E+00

     total cpu time spent up to now is     1859.8 secs

     total energy              =    -989.17149198 Ry
     estimated scf accuracy    <       0.00049010 Ry

     iteration # 11     ecut=    80.00 Ry     beta= 0.30
     Davidson diagonalization with overlap
     ethr =  9.42E-07,  avg # of iterations =  2.0

     negative rho (up, down):  5.073E-03 0.000E+00

     total cpu time spent up to now is     2026.8 secs

     total energy              =    -989.17155094 Ry
     estimated scf accuracy    <       0.00056968 Ry

     iteration # 12     ecut=    80.00 Ry     beta= 0.30
     Davidson diagonalization with overlap
     ethr =  9.42E-07,  avg # of iterations =  3.0

     negative rho (up, down):  5.059E-03 0.000E+00

     total cpu time spent up to now is     2184.3 secs

     total energy              =    -989.17133592 Ry
     estimated scf accuracy    <       0.00091942 Ry

     iteration # 13     ecut=    80.00 Ry     beta= 0.30
     Davidson diagonalization with overlap
     ethr =  9.42E-07,  avg # of iterations =  2.0

     negative rho (up, down):  6.179E-03 0.000E+00

     total cpu time spent up to now is     2349.2 secs

     total energy              =    -989.17137240 Ry
     estimated scf accuracy    <       0.00034164 Ry

     iteration # 14     ecut=    80.00 Ry     beta= 0.30
     Davidson diagonalization with overlap
     ethr =  6.57E-07,  avg # of iterations =  2.2

     negative rho (up, down):  5.258E-03 0.000E+00

     total cpu time spent up to now is     2500.1 secs

     total energy              =    -989.17142658 Ry
     estimated scf accuracy    <       0.00019495 Ry

     iteration # 15     ecut=    80.00 Ry     beta= 0.30
     Davidson diagonalization with overlap
     ethr =  3.75E-07,  avg # of iterations =  2.0

     negative rho (up, down):  4.500E-03 0.000E+00

     total cpu time spent up to now is     2653.3 secs

     total energy              =    -989.17140410 Ry
     estimated scf accuracy    <       0.00013373 Ry

     iteration # 16     ecut=    80.00 Ry     beta= 0.30
     Davidson diagonalization with overlap
     ethr =  2.57E-07,  avg # of iterations =  1.0

     negative rho (up, down):  3.147E-03 0.000E+00

     total cpu time spent up to now is     2786.6 secs

     total energy              =    -989.17139990 Ry
     estimated scf accuracy    <       0.00008985 Ry

     iteration # 17     ecut=    80.00 Ry     beta= 0.30
     Davidson diagonalization with overlap
     ethr =  1.73E-07,  avg # of iterations =  2.0

     negative rho (up, down):  2.602E-03 0.000E+00

     total cpu time spent up to now is     2949.2 secs

     total energy              =    -989.17143634 Ry
     estimated scf accuracy    <       0.00007553 Ry

     iteration # 18     ecut=    80.00 Ry     beta= 0.30
     Davidson diagonalization with overlap
     ethr =  1.45E-07,  avg # of iterations =  1.8

     negative rho (up, down):  1.265E-03 0.000E+00

     total cpu time spent up to now is     3093.3 secs

     total energy              =    -989.17146096 Ry
     estimated scf accuracy    <       0.00004683 Ry

     iteration # 19     ecut=    80.00 Ry     beta= 0.30
     Davidson diagonalization with overlap
     ethr =  9.00E-08,  avg # of iterations =  3.2

     negative rho (up, down):  1.218E-03 0.000E+00

     total cpu time spent up to now is     3293.3 secs

     total energy              =    -989.17148119 Ry
     estimated scf accuracy    <       0.00008219 Ry

     iteration # 20     ecut=    80.00 Ry     beta= 0.30
     Davidson diagonalization with overlap
     ethr =  9.00E-08,  avg # of iterations =  2.0

     negative rho (up, down):  7.355E-04 0.000E+00

     total cpu time spent up to now is     3461.9 secs

     total energy              =    -989.17148774 Ry
     estimated scf accuracy    <       0.00002340 Ry

     iteration # 21     ecut=    80.00 Ry     beta= 0.30
     Davidson diagonalization with overlap
     ethr =  4.50E-08,  avg # of iterations =  2.1

     negative rho (up, down):  3.507E-04 0.000E+00

     total cpu time spent up to now is     3626.3 secs

     total energy              =    -989.17149293 Ry
     estimated scf accuracy    <       0.00000584 Ry

     iteration # 22     ecut=    80.00 Ry     beta= 0.30
     Davidson diagonalization with overlap
     ethr =  1.12E-08,  avg # of iterations =  2.9

     negative rho (up, down):  2.059E-04 0.000E+00

     total cpu time spent up to now is     3797.5 secs

     total energy              =    -989.17149368 Ry
     estimated scf accuracy    <       0.00000400 Ry

     iteration # 23     ecut=    80.00 Ry     beta= 0.30
     Davidson diagonalization with overlap
     ethr =  7.69E-09,  avg # of iterations =  2.0

     negative rho (up, down):  2.023E-04 0.000E+00

     total cpu time spent up to now is     3969.5 secs

     total energy              =    -989.17149435 Ry
     estimated scf accuracy    <       0.00000061 Ry

     iteration # 24     ecut=    80.00 Ry     beta= 0.30
     Davidson diagonalization with overlap
     ethr =  1.18E-09,  avg # of iterations =  2.3

     negative rho (up, down):  1.999E-04 0.000E+00

     total cpu time spent up to now is     4133.8 secs

     total energy              =    -989.17149390 Ry
     estimated scf accuracy    <       0.00000026 Ry

     iteration # 25     ecut=    80.00 Ry     beta= 0.30
     Davidson diagonalization with overlap
     ethr =  4.91E-10,  avg # of iterations =  2.1

     negative rho (up, down):  2.186E-04 0.000E+00

     total cpu time spent up to now is     4299.4 secs

     total energy              =    -989.17149391 Ry
     estimated scf accuracy    <       0.00000006 Ry

     iteration # 26     ecut=    80.00 Ry     beta= 0.30
     Davidson diagonalization with overlap
     ethr =  1.13E-10,  avg # of iterations =  2.1

     negative rho (up, down):  2.244E-04 0.000E+00

     total cpu time spent up to now is     4453.5 secs

     total energy              =    -989.17149390 Ry
     estimated scf accuracy    <       0.00000004 Ry

     iteration # 27     ecut=    80.00 Ry     beta= 0.30
     Davidson diagonalization with overlap
     ethr =  8.59E-11,  avg # of iterations =  1.0

     negative rho (up, down):  2.349E-04 0.000E+00

     total cpu time spent up to now is     4587.0 secs

     total energy              =    -989.17149393 Ry
     estimated scf accuracy    <       0.00000004 Ry

     iteration # 28     ecut=    80.00 Ry     beta= 0.30
     Davidson diagonalization with overlap
     ethr =  7.34E-11,  avg # of iterations =  1.6

     negative rho (up, down):  2.365E-04 0.000E+00

     total cpu time spent up to now is     4727.7 secs

     total energy              =    -989.17149388 Ry
     estimated scf accuracy    <       0.00000003 Ry

     iteration # 29     ecut=    80.00 Ry     beta= 0.30
     Davidson diagonalization with overlap
     ethr =  6.16E-11,  avg # of iterations =  1.0

     negative rho (up, down):  2.375E-04 0.000E+00

     total cpu time spent up to now is     4861.1 secs

     total energy              =    -989.17149370 Ry
     estimated scf accuracy    <       0.00000003 Ry

     iteration # 30     ecut=    80.00 Ry     beta= 0.30
     Davidson diagonalization with overlap
     ethr =  6.16E-11,  avg # of iterations =  1.3

     negative rho (up, down):  2.391E-04 0.000E+00

     total cpu time spent up to now is     4997.5 secs

     total energy              =    -989.17149370 Ry
     estimated scf accuracy    <       0.00000003 Ry

     iteration # 31     ecut=    80.00 Ry     beta= 0.30
     Davidson diagonalization with overlap
     ethr =  5.36E-11,  avg # of iterations =  1.0

     negative rho (up, down):  2.399E-04 0.000E+00

     total cpu time spent up to now is     5130.8 secs

     total energy              =    -989.17149369 Ry
     estimated scf accuracy    <       0.00000003 Ry

     iteration # 32     ecut=    80.00 Ry     beta= 0.30
     Davidson diagonalization with overlap
     ethr =  4.89E-11,  avg # of iterations =  1.0

     negative rho (up, down):  2.298E-04 0.000E+00

     total cpu time spent up to now is     5264.2 secs

     total energy              =    -989.17149361 Ry
     estimated scf accuracy    <       0.00000002 Ry

     iteration # 33     ecut=    80.00 Ry     beta= 0.30
     Davidson diagonalization with overlap
     ethr =  3.66E-11,  avg # of iterations =  2.2

     negative rho (up, down):  2.303E-04 0.000E+00

     total cpu time spent up to now is     5431.8 secs

     total energy              =    -989.17149375 Ry
     estimated scf accuracy    <       0.00000002 Ry

     iteration # 34     ecut=    80.00 Ry     beta= 0.30
     Davidson diagonalization with overlap
     ethr =  3.07E-11,  avg # of iterations =  1.4

     negative rho (up, down):  2.234E-04 0.000E+00

     total cpu time spent up to now is     5569.0 secs

     End of self-consistent calculation

          k = 0.0000 0.0000 0.0000 ( 35507 PWs)   bands (ev):

   -62.9068 -62.8981 -37.0827 -37.0746 -36.8428 -36.8423 -36.8351 -36.8347
   -16.2648 -16.1297 -15.0155 -14.8075  -8.0162  -7.4899  -4.6346  -4.6332
    -4.6288  -4.6251  -4.5138  -3.5242  -3.5207  -3.5134  -3.5068  -3.4297
    -2.3960  -1.6523   0.6917   0.7231   0.7386   0.7596   0.9093

          k = 0.0000 0.0722 0.0000 ( 35493 PWs)   bands (ev):

   -62.9053 -62.8966 -37.0797 -37.0716 -36.8584 -36.8503 -36.8458 -36.8387
   -16.2055 -16.0704 -14.9887 -14.7837  -7.9483  -7.4214  -4.7743  -4.7596
    -4.6630  -4.5728  -4.5623  -3.9450  -3.6219  -3.6026  -3.4547  -3.1007
    -2.3999  -1.7081   0.6152   0.6651   0.7419   0.7675   0.8232

          k = 0.0000 0.1443 0.0000 ( 35435 PWs)   bands (ev):

   -62.9008 -62.8922 -37.0710 -37.0629 -36.9024 -36.8944 -36.8559 -36.8487
   -16.0325 -15.8977 -14.9103 -14.7145  -7.7597  -7.2344  -5.1347  -5.1018
    -4.9931  -4.4587  -4.3950  -4.3813  -3.8741  -3.8511  -3.4030  -2.9197
    -2.4484  -1.9116   0.3049   0.4686   0.4951   0.6435   0.6724

          k = 0.0000 0.2165 0.0000 ( 35345 PWs)   bands (ev):

   -62.8942 -62.8855 -37.0581 -37.0499 -36.9678 -36.9598 -36.8709 -36.8637
   -15.7609 -15.6272 -14.7876 -14.6064  -7.5057  -7.0023  -5.5888  -5.5169
    -5.3833  -4.9887  -4.2031  -4.1739  -4.1211  -4.1037  -3.5045  -2.9732
    -2.6199  -2.2791  -0.0461   0.2878   0.4273   0.5133   0.5295

          k = 0.0000 0.2887 0.0000 ( 35323 PWs)   bands (ev):

   -62.8863 -62.8776 -37.0449 -37.0418 -37.0380 -37.0327 -36.8885 -36.8813
   -15.4168 -15.2859 -14.6328 -14.4712  -7.3157  -6.9175  -6.0037  -5.8228
    -5.7615  -5.5016  -4.5302  -4.5001  -3.8014  -3.7716  -3.7317  -3.1878
    -2.9060  -2.6861  -0.1604   0.2404   0.2641   0.3363   0.7448

          k = 0.0000 0.3608 0.0000 ( 35299 PWs)   bands (ev):

   -62.8785 -62.8698 -37.1194 -37.1118 -37.0273 -37.0190 -36.9060 -36.8989
   -15.0390 -14.9138 -14.4647 -14.3263  -7.3671  -7.1428  -6.3461  -6.1090
    -6.0107  -5.7743  -4.8189  -4.7867  -3.9761  -3.4843  -3.4385  -3.4313
    -3.1197  -2.9274  -0.0416   0.1366   0.2153   0.3676   1.0775

          k = 0.0000 0.4330 0.0000 ( 35224 PWs)   bands (ev):

   -62.8718 -62.8631 -37.1826 -37.1751 -37.0142 -37.0059 -36.9208 -36.9138
   -14.6836 -14.5667 -14.3083 -14.1947  -7.6125  -7.4818  -6.6804  -6.4905
    -6.1432  -5.8518  -5.0398  -5.0063  -4.1645  -3.6171  -3.2305  -3.1653
    -3.1022  -2.8757   0.1310   0.1848   0.2119   0.5312   1.3797

          k = 0.0000 0.5052 0.0000 ( 35152 PWs)   bands (ev):

   -62.8673 -62.8586 -37.2246 -37.2170 -37.0055 -36.9972 -36.9307 -36.9236
   -14.4234 -14.3142 -14.1924 -14.1015  -7.8475  -7.7468  -6.9244  -6.7655
    -6.2457  -5.9645  -5.1776  -5.1433  -4.2739  -3.7270  -3.0757  -2.9941
    -2.9327  -2.6659   0.1825   0.2133   0.4950   0.6879   1.5629

          k = 0.0000-0.5774 0.0000 ( 35026 PWs)   bands (ev):

   -62.8658 -62.8570 -37.2392 -37.2317 -37.0024 -36.9941 -36.9342 -36.9271
   -14.3280 -14.2213 -14.1474 -14.0673  -7.9413  -7.8458  -7.0129  -6.8632
    -6.2915  -6.0181  -5.2244  -5.1898  -4.3086  -3.7631  -3.0253  -2.9372
    -2.8368  -2.5575   0.2134   0.2348   0.6459   0.7471   1.6166

          k = 0.0625 0.1083 0.0000 ( 35467 PWs)   bands (ev):

   -62.9023 -62.8936 -37.0738 -37.0657 -36.8876 -36.8798 -36.8532 -36.8458
   -16.0894 -15.9543 -14.9362 -14.7371  -7.8197  -7.2928  -5.0207  -4.9949
    -4.8893  -4.4538  -4.4438  -4.2987  -3.8388  -3.8165  -3.3696  -2.9169
    -2.4254  -1.8303   0.3966   0.5089   0.5232   0.6771   0.7074

          k = 0.0625 0.1804 0.0000 ( 35370 PWs)   bands (ev):

   -62.8967 -62.8880 -37.0630 -37.0549 -36.9411 -36.9332 -36.8668 -36.8596
   -15.8670 -15.7325 -14.8354 -14.6481  -7.5941  -7.0762  -5.4179  -5.3677
    -5.2138  -4.7479  -4.2458  -4.2250  -4.2102  -4.1701  -3.3349  -2.8473
    -2.5335  -2.1160   0.0464   0.3146   0.4083   0.4915   0.5734

          k = 0.0625 0.2526 0.0000 ( 35362 PWs)   bands (ev):

   -62.8895 -62.8808 -37.0489 -37.0408 -37.0103 -37.0024 -36.8848 -36.8776
   -15.5585 -15.4260 -14.6961 -14.5258  -7.3579  -6.8963  -5.8345  -5.7142
    -5.5767  -5.2481  -4.6082  -4.5267  -3.9757  -3.9492  -3.4568  -2.9728
    -2.7671  -2.5057  -0.1922   0.1712   0.3199   0.4361   0.5200

          k = 0.0625 0.3248 0.0000 ( 35310 PWs)   bands (ev):

   -62.8816 -62.8729 -37.0844 -37.0768 -37.0334 -37.0252 -36.9041 -36.8970
   -15.1960 -15.0677 -14.5333 -14.3843  -7.2803  -6.9796  -6.1666  -5.9507
    -5.8741  -5.6988  -4.9148  -4.8059  -3.7704  -3.7052  -3.6615  -3.2031
    -2.9956  -2.8159  -0.2231   0.1150   0.2514   0.4112   0.7971

          k = 0.0625 0.3969 0.0000 ( 35243 PWs)   bands (ev):

   -62.8743 -62.8656 -37.1520 -37.1444 -37.0192 -37.0110 -36.9219 -36.9148
   -14.8263 -14.7050 -14.3688 -14.2439  -7.4489  -7.2835  -6.5139  -6.3231
    -6.0738  -5.7836  -5.1095  -5.0027  -3.9616  -3.6074  -3.5700  -3.3918
    -2.9921  -2.8473  -0.0969   0.1481   0.3013   0.4870   1.1353

          k = 0.0625 0.4691 0.0000 ( 35169 PWs)   bands (ev):

   -62.8688 -62.8601 -37.2033 -37.1958 -37.0083 -37.0000 -36.9355 -36.9285
   -14.5137 -14.4008 -14.2296 -14.1289  -7.6962  -7.5850  -6.8351  -6.6841
    -6.1806  -5.8845  -5.2141  -5.1282  -4.1631  -3.6607  -3.4940  -3.3350
    -2.8260  -2.6665   0.0851   0.2194   0.4522   0.6263   1.4405

          k = 0.0625 0.5413 0.0000 ( 35128 PWs)   bands (ev):

   -62.8658 -62.8570 -37.2309 -37.2234 -37.0024 -36.9941 -36.9429 -36.9358
   -14.3329 -14.2249 -14.1455 -14.0631  -7.8607  -7.7645  -7.0189  -6.8828
    -6.2645  -5.9832  -5.2550  -5.1896  -4.2748  -3.7492  -3.4081  -3.2408
    -2.6767  -2.4905   0.1953   0.2504   0.6402   0.7577   1.6618

          k = 0.1250 0.2165 0.0000 ( 35331 PWs)   bands (ev):

   -62.8906 -62.8819 -37.0510 -37.0429 -36.9962 -36.9885 -36.8857 -36.8784
   -15.6076 -15.4740 -14.7181 -14.5440  -7.3753  -6.8928  -5.7621  -5.6622
    -5.4552  -5.0699  -4.7488  -4.6649  -4.0541  -4.0311  -3.2926  -2.8332
    -2.7060  -2.4036  -0.2157   0.1265   0.3358   0.3761   0.4492

          k = 0.1250 0.2887 0.0000 ( 35357 PWs)   bands (ev):

   -62.8833 -62.8746 -37.0597 -37.0522 -37.0368 -37.0284 -36.9089 -36.9017
   -15.2792 -15.1488 -14.5692 -14.4138  -7.2259  -6.8664  -6.0369  -5.8211
    -5.7389  -5.5386  -5.1872  -4.9925  -3.9601  -3.9136  -3.3882  -2.9663
    -2.8991  -2.6950  -0.3587   0.0074   0.3089   0.4451   0.5223

          k = 0.1250 0.3608 0.0000 ( 35341 PWs)   bands (ev):

   -62.8761 -62.8674 -37.1219 -37.1143 -37.0226 -37.0143 -36.9326 -36.9255
   -14.9207 -14.7958 -14.4068 -14.2734  -7.2852  -7.0761  -6.3143  -6.1670
    -5.9958  -5.7109  -5.3614  -5.1260  -4.0353  -3.9521  -3.6056  -3.1639
    -2.9309  -2.8118  -0.3132   0.0672   0.3891   0.5121   0.7814

          k = 0.1250 0.4330 0.0000 ( 35215 PWs)   bands (ev):

   -62.8699 -62.8612 -37.1740 -37.1664 -37.0105 -37.0022 -36.9527 -36.9457
   -14.5863 -14.4690 -14.2547 -14.1449  -7.4772  -7.3440  -6.7307  -6.6201
    -6.0797  -5.7497  -5.3856  -5.1796  -4.1289  -3.9680  -3.8548  -3.4173
    -2.7961  -2.6919  -0.1039   0.2379   0.5116   0.5898   1.0870

          k = 0.1250 0.5052 0.0000 ( 35141 PWs)   bands (ev):

   -62.8658 -62.8570 -37.2086 -37.2010 -37.0024 -36.9941 -36.9662 -36.9592
   -14.3449 -14.2335 -14.1407 -14.0528  -7.6482  -7.5461  -7.0303  -6.9288
    -6.1824  -5.8784  -5.3428  -5.1896  -4.2356  -3.9759  -3.9197  -3.6011
    -2.6092  -2.4896   0.0973   0.2628   0.6676   0.7902   1.3547

          k = 0.1250 0.5774 0.0000 ( 35180 PWs)   bands (ev):

   -62.8643 -62.8556 -37.2207 -37.2131 -36.9996 -36.9913 -36.9710 -36.9640
   -14.2577 -14.1478 -14.0958 -14.0186  -7.7146  -7.6210  -7.1367  -7.0370
    -6.2355  -5.9448  -5.3057  -5.1907  -4.3105  -3.9783  -3.9160  -3.6552
    -2.5153  -2.3831   0.1579   0.2212   0.7844   0.9073   1.4828

          k = 0.1875 0.3248 0.0000 ( 35337 PWs)   bands (ev):

   -62.8767 -62.8680 -37.1082 -37.1008 -37.0238 -37.0155 -36.9394 -36.9322
   -14.9543 -14.8270 -14.4203 -14.2824  -7.2143  -6.9831  -6.1722  -6.0971
    -5.9767  -5.6867  -5.5036  -5.1953  -4.1967  -4.1300  -3.4762  -3.0381
    -2.9147  -2.7937  -0.3931   0.0254   0.4139   0.5138   0.6333

          k = 0.1875 0.3969 0.0000 ( 35241 PWs)   bands (ev):

   -62.8705 -62.8618 -37.1502 -37.1427 -37.0117 -37.0034 -36.9702 -36.9631
   -14.6272 -14.5060 -14.2675 -14.1512  -7.3096  -7.1515  -6.6393  -6.5742
    -5.9980  -5.6100  -5.5109  -5.2190  -4.5180  -4.4260  -3.7122  -3.2631
    -2.8117  -2.7315  -0.2283   0.2295   0.5467   0.5924   0.8104

          k = 0.1875 0.4691 0.0000 ( 35167 PWs)   bands (ev):

   -62.8658 -62.8571 -37.1807 -37.1732 -37.0025 -36.9951 -36.9942 -36.9880
   -14.3575 -14.2419 -14.1361 -14.0419  -7.4044  -7.2825  -7.0380  -6.9717
    -6.0429  -5.6986  -5.4355  -5.1895  -4.7155  -4.5409  -4.0013  -3.5361
    -2.6147  -2.5408  -0.0265   0.2436   0.6997   0.8282   0.9951

          k = 0.1875 0.5413 0.0000 ( 35162 PWs)   bands (ev):

   -62.8632 -62.8545 -37.1967 -37.1891 -37.0090 -37.0020 -36.9974 -36.9891
   -14.2069 -14.0928 -14.0541 -13.9774  -7.4506  -7.3511  -7.2487  -7.1871
    -6.1542  -5.8572  -5.3130  -5.1394  -4.7853  -4.5511  -4.2064  -3.7231
    -2.4292  -2.3439   0.0187   0.0984   0.8969   1.0449   1.1533

          k = 0.2500 0.4330 0.0000 ( 35195 PWs)   bands (ev):

   -62.8658 -62.8571 -37.1661 -37.1587 -37.0102 -37.0031 -37.0024 -36.9940
   -14.3645 -14.2447 -14.1346 -14.0357  -7.2940  -7.1526  -7.0395  -6.9843
    -5.9481  -5.5389  -5.4454  -5.1736  -5.0291  -4.9214  -3.9608  -3.4897
    -2.6247  -2.5674  -0.0790   0.2296   0.6957   0.8278   0.8915

          k = 0.2500 0.5052 0.0000 ( 35193 PWs)   bands (ev):

   -62.8626 -62.8539 -37.1709 -37.1634 -37.0426 -37.0356 -36.9963 -36.9879
   -14.1834 -14.0643 -14.0305 -13.9511  -7.3504  -7.2816  -7.1756  -7.0758
    -6.0023  -5.7072  -5.4329  -5.2571  -5.1711  -5.0328  -4.2343  -3.7391
    -2.3855  -2.3294  -0.1080  -0.0050   0.7788   1.0088   1.1470

          k = 0.2500 0.5774 0.0000 ( 35190 PWs)   bands (ev):

   -62.8615 -62.8528 -37.1708 -37.1632 -37.0558 -37.0489 -36.9941 -36.9858
   -14.1213 -14.0017 -13.9882 -13.9177  -7.4483  -7.3844  -7.1008  -7.0225
    -6.1155  -5.8830  -5.4712  -5.1972  -5.1407  -5.0142  -4.3700  -3.8557
    -2.2586  -2.1966  -0.1776  -0.1510   0.7875   1.0930   1.2451

          k = 0.3125 0.5413 0.0000 ( 35172 PWs)   bands (ev):

   -62.8609 -62.8522 -37.1496 -37.1423 -37.0844 -37.0772 -36.9929 -36.9846
   -14.0954 -13.9709 -13.9633 -13.8918  -7.5136  -7.4556  -6.8739  -6.7735
    -6.1046  -5.9949  -5.8172  -5.4023  -5.1158  -4.9366  -4.4617  -3.9222
    -2.1784  -2.1212  -0.2909  -0.2691   0.6977   1.0443   1.2933

          k =-0.0625 0.0361 0.0000 ( 35493 PWs)   bands (ev):

   -62.9053 -62.8966 -37.0797 -37.0716 -36.8580 -36.8506 -36.8462 -36.8384
   -16.2056 -16.0704 -14.9888 -14.7836  -7.9485  -7.4213  -4.7733  -4.7594
    -4.6651  -4.5702  -4.5633  -3.9444  -3.6165  -3.6092  -3.4613  -3.0955
    -2.4003  -1.7021   0.5880   0.6688   0.7272   0.8117   0.8379

          k =-0.1250 0.0722 0.0000 ( 35435 PWs)   bands (ev):

   -62.9008 -62.8922 -37.0710 -37.0629 -36.9020 -36.8947 -36.8563 -36.8484
   -16.0329 -15.8974 -14.9108 -14.7140  -7.7603  -7.2338  -5.1343  -5.1018
    -4.9921  -4.4587  -4.3906  -4.3848  -3.8672  -3.8592  -3.4195  -2.9092
    -2.4498  -1.8886   0.2638   0.4678   0.4892   0.6725   0.6995

          k =-0.1875 0.1083 0.0000 ( 35345 PWs)   bands (ev):

   -62.8942 -62.8855 -37.0580 -37.0499 -36.9674 -36.9602 -36.8712 -36.8634
   -15.7619 -15.6266 -14.7887 -14.6051  -7.5067  -7.0016  -5.5925  -5.5128
    -5.3833  -4.9859  -4.1924  -4.1826  -4.1175  -4.1110  -3.5332  -2.9566
    -2.6232  -2.2400  -0.0786   0.2874   0.4611   0.4799   0.5249

          k =-0.2500 0.1443 0.0000 ( 35323 PWs)   bands (ev):

   -62.8863 -62.8776 -37.0440 -37.0423 -37.0372 -37.0339 -36.8888 -36.8810
   -15.4189 -15.2847 -14.6349 -14.4685  -7.3154  -6.9172  -6.0170  -5.8053
    -5.7702  -5.4937  -4.5202  -4.5105  -3.8028  -3.7926  -3.7503  -3.1635
    -2.9100  -2.6436  -0.1834   0.2482   0.2866   0.3055   0.7361

          k =-0.3125 0.1804 0.0000 ( 35299 PWs)   bands (ev):

   -62.8785 -62.8698 -37.1190 -37.1120 -37.0273 -37.0191 -36.9064 -36.8986
   -15.0432 -14.9115 -14.4680 -14.3216  -7.3664  -7.1378  -6.3635  -6.0871
    -6.0411  -5.7492  -4.8080  -4.7978  -4.0245  -3.4767  -3.4526  -3.3899
    -3.1242  -2.8888  -0.0587   0.1614   0.1906   0.3663   1.0603

          k =-0.3750 0.2165 0.0000 ( 35224 PWs)   bands (ev):

   -62.8718 -62.8631 -37.1822 -37.1753 -37.0143 -37.0060 -36.9212 -36.9134
   -14.6914 -14.5629 -14.3126 -14.1868  -7.6176  -7.4683  -6.7001  -6.4646
    -6.1855  -5.8194  -5.0285  -5.0179  -4.2183  -3.5731  -3.2100  -3.1903
    -3.1007  -2.8404   0.1486   0.1636   0.2019   0.5296   1.3456

          k =-0.4375 0.2526 0.0000 ( 35152 PWs)   bands (ev):

   -62.8673 -62.8586 -37.2241 -37.2173 -37.0055 -36.9973 -36.9311 -36.9233
   -14.4367 -14.3093 -14.1966 -14.0894  -7.8584  -7.7270  -6.9476  -6.7362
    -6.2891  -5.9314  -5.1660  -5.1553  -4.3324  -3.6760  -3.0509  -3.0283
    -2.9272  -2.6280   0.1925   0.2038   0.4786   0.6939   1.5061

          k = 0.5000-0.2887 0.0000 ( 35026 PWs)   bands (ev):

   -62.8658 -62.8570 -37.2388 -37.2320 -37.0024 -36.9942 -36.9345 -36.9267
   -14.3447 -14.2163 -14.1508 -14.0526  -7.9540  -7.8241  -7.0375  -6.8325
    -6.3344  -5.9852  -5.2127  -5.2019  -4.3689  -3.7099  -2.9982  -2.9729
    -2.8334  -2.5162   0.2200   0.2287   0.6199   0.7682   1.5468

          k = 0.1250 0.0000 0.0000 ( 35467 PWs)   bands (ev):

   -62.9023 -62.8936 -37.0738 -37.0657 -36.8872 -36.8801 -36.8536 -36.8455
   -16.0897 -15.9541 -14.9365 -14.7367  -7.8202  -7.2924  -5.0191  -4.9959
    -4.8884  -4.4517  -4.4459  -4.2996  -3.8357  -3.8212  -3.3778  -2.9109
    -2.4263  -1.8146   0.3620   0.5092   0.5215   0.7011   0.7291

          k =-0.1250 0.1443 0.0000 ( 35370 PWs)   bands (ev):

   -62.8967 -62.8880 -37.0630 -37.0549 -36.9410 -36.9334 -36.8670 -36.8595
   -15.8673 -15.7323 -14.8358 -14.6477  -7.5946  -7.0758  -5.4186  -5.3668
    -5.2136  -4.7467  -4.2408  -4.2268  -4.2097  -4.1754  -3.3458  -2.8411
    -2.5345  -2.0990   0.0281   0.3152   0.4057   0.5028   0.5632

          k = 0.1875 0.0361 0.0000 ( 35370 PWs)   bands (ev):

   -62.8967 -62.8880 -37.0630 -37.0549 -36.9407 -36.9336 -36.8673 -36.8592
   -15.8678 -15.7320 -14.8364 -14.6471  -7.5952  -7.0753  -5.4175  -5.3677
    -5.2119  -4.7483  -4.2381  -4.2312  -4.2089  -4.1762  -3.3527  -2.8372
    -2.5357  -2.0813   0.0130   0.3117   0.3993   0.5206   0.5573

          k =-0.1875 0.1804 0.0000 ( 35362 PWs)   bands (ev):

   -62.8895 -62.8808 -37.0489 -37.0408 -37.0100 -37.0027 -36.8850 -36.8774
   -15.5596 -15.4254 -14.6971 -14.5245  -7.3581  -6.8962  -5.8405  -5.7062
    -5.5796  -5.2445  -4.6047  -4.5325  -3.9707  -3.9547  -3.4795  -2.9617
    -2.7692  -2.4739  -0.2078   0.1693   0.3344   0.4121   0.5271

          k = 0.2500 0.0722 0.0000 ( 35362 PWs)   bands (ev):

   -62.8895 -62.8808 -37.0489 -37.0407 -37.0099 -37.0029 -36.8852 -36.8772
   -15.5602 -15.4250 -14.6978 -14.5237  -7.3584  -6.8961  -5.8409  -5.7055
    -5.5787  -5.2445  -4.6077  -4.5317  -3.9696  -3.9573  -3.4831  -2.9593
    -2.7691  -2.4617  -0.2155   0.1680   0.3390   0.4159   0.5149

          k =-0.2500 0.2165 0.0000 ( 35310 PWs)   bands (ev):

   -62.8816 -62.8729 -37.0841 -37.0769 -37.0335 -37.0253 -36.9044 -36.8967
   -15.1984 -15.0664 -14.5354 -14.3815  -7.2789  -6.9783  -6.1799  -5.9459
    -5.8766  -5.6888  -4.9108  -4.8105  -3.7745  -3.7129  -3.6816  -3.1840
    -2.9968  -2.7841  -0.2276   0.1078   0.2563   0.4000   0.8028

          k = 0.3125 0.1083 0.0000 ( 35310 PWs)   bands (ev):

   -62.8816 -62.8729 -37.0839 -37.0770 -37.0335 -37.0253 -36.9045 -36.8966
   -15.1994 -15.0658 -14.5362 -14.3805  -7.2787  -6.9783  -6.1819  -5.9436
    -5.8786  -5.6856  -4.9141  -4.8107  -3.7833  -3.7195  -3.6695  -3.1804
    -2.9958  -2.7774  -0.2348   0.1108   0.2576   0.4018   0.7879

          k =-0.3125 0.2526 0.0000 ( 35243 PWs)   bands (ev):

   -62.8744 -62.8656 -37.1517 -37.1447 -37.0193 -37.0110 -36.9222 -36.9145
   -14.8313 -14.7024 -14.3721 -14.2385  -7.4504  -7.2753  -6.5276  -6.2995
    -6.1157  -5.7582  -5.1043  -5.0059  -3.9971  -3.5991  -3.5704  -3.3712
    -2.9893  -2.8254  -0.0923   0.1428   0.2956   0.4815   1.1378

          k = 0.3750 0.1443 0.0000 ( 35243 PWs)   bands (ev):

   -62.8744 -62.8656 -37.1516 -37.1447 -37.0193 -37.0111 -36.9223 -36.9145
   -14.8324 -14.7018 -14.3728 -14.2374  -7.4502  -7.2747  -6.5293  -6.2982
    -6.1162  -5.7560  -5.1064  -5.0076  -4.0024  -3.6015  -3.5715  -3.3580
    -2.9895  -2.8228  -0.0980   0.1414   0.2983   0.4834   1.1206

          k =-0.3750 0.2887 0.0000 ( 35169 PWs)   bands (ev):

   -62.8688 -62.8601 -37.2029 -37.1960 -37.0083 -37.0001 -36.9359 -36.9281
   -14.5233 -14.3968 -14.2336 -14.1198  -7.7043  -7.5687  -6.8526  -6.6590
    -6.2267  -5.8543  -5.2087  -5.1308  -4.2072  -3.6222  -3.4821  -3.3455
    -2.8252  -2.6428   0.0904   0.2197   0.4405   0.6260   1.4304

          k = 0.4375 0.1804 0.0000 ( 35169 PWs)   bands (ev):

   -62.8688 -62.8601 -37.2029 -37.1961 -37.0084 -37.0001 -36.9359 -36.9281
   -14.5244 -14.3963 -14.2340 -14.1188  -7.7042  -7.5681  -6.8536  -6.6581
    -6.2267  -5.8534  -5.2089  -5.1329  -4.2107  -3.6253  -3.4905  -3.3259
    -2.8245  -2.6436   0.0912   0.2132   0.4408   0.6288   1.4138

          k =-0.4375 0.3248 0.0000 ( 35128 PWs)   bands (ev):

   -62.8658 -62.8570 -37.2305 -37.2237 -37.0024 -36.9942 -36.9432 -36.9354
   -14.3479 -14.2203 -14.1488 -14.0498  -7.8729  -7.7435  -7.0387  -6.8561
    -6.3103  -5.9524  -5.2499  -5.1919  -4.3252  -3.7043  -3.3979  -3.2482
    -2.6806  -2.4599   0.1966   0.2518   0.6224   0.7743   1.6168

          k = 0.5000 0.2165 0.0000 ( 35128 PWs)   bands (ev):

   -62.8658 -62.8570 -37.2305 -37.2237 -37.0024 -36.9942 -36.9432 -36.9354
   -14.3485 -14.2201 -14.1489 -14.0493  -7.8729  -7.7433  -7.0391  -6.8559
    -6.3102  -5.9521  -5.2494  -5.1931  -4.3264  -3.7050  -3.4023  -3.2403
    -2.6796  -2.4609   0.1987   0.2484   0.6223   0.7743   1.6076

          k = 0.2500 0.0000 0.0000 ( 35331 PWs)   bands (ev):

   -62.8906 -62.8819 -37.0510 -37.0429 -36.9958 -36.9889 -36.8861 -36.8780
   -15.6088 -15.4733 -14.7194 -14.5425  -7.3760  -6.8925  -5.7626  -5.6602
    -5.4536  -5.0720  -4.7499  -4.6659  -4.0501  -4.0362  -3.3063  -2.8293
    -2.7060  -2.3717  -0.2327   0.1243   0.3366   0.3831   0.4392

          k =-0.1875 0.2526 0.0000 ( 35357 PWs)   bands (ev):

   -62.8833 -62.8746 -37.0595 -37.0522 -37.0368 -37.0285 -36.9091 -36.9016
   -15.2800 -15.1483 -14.5699 -14.4128  -7.2253  -6.8666  -6.0413  -5.8101
    -5.7471  -5.5397  -5.1844  -4.9928  -3.9579  -3.9154  -3.4006  -2.9636
    -2.8986  -2.6792  -0.3587   0.0054   0.3081   0.4339   0.5330

          k = 0.3125 0.0361 0.0000 ( 35357 PWs)   bands (ev):

   -62.8833 -62.8746 -37.0591 -37.0523 -37.0368 -37.0287 -36.9094 -36.9014
   -15.2818 -15.1473 -14.5714 -14.4108  -7.2246  -6.8673  -6.0445  -5.7966
    -5.7565  -5.5380  -5.1908  -4.9910  -3.9531  -3.9229  -3.4054  -2.9633
    -2.8944  -2.6612  -0.3682   0.0071   0.3099   0.4429   0.5148

          k =-0.2500 0.2887 0.0000 ( 35341 PWs)   bands (ev):

   -62.8761 -62.8674 -37.1216 -37.1144 -37.0226 -37.0144 -36.9328 -36.9253
   -14.9231 -14.7945 -14.4086 -14.2707  -7.2844  -7.0735  -6.3161  -6.1480
    -6.0344  -5.7023  -5.3549  -5.1209  -4.0297  -3.9551  -3.6297  -3.1514
    -2.9266  -2.7999  -0.3079   0.0664   0.3849   0.5024   0.8010

          k = 0.3750 0.0722 0.0000 ( 35341 PWs)   bands (ev):

   -62.8761 -62.8674 -37.1214 -37.1146 -37.0226 -37.0144 -36.9330 -36.9251
   -14.9254 -14.7933 -14.4101 -14.2684  -7.2833  -7.0730  -6.3189  -6.1393
    -6.0440  -5.6978  -5.3598  -5.1217  -4.0314  -3.9596  -3.6248  -3.1434
    -2.9230  -2.7979  -0.3140   0.0658   0.3871   0.5078   0.7776

          k =-0.3125 0.3248 0.0000 ( 35215 PWs)   bands (ev):

   -62.8699 -62.8612 -37.1737 -37.1666 -37.0105 -37.0023 -36.9530 -36.9454
   -14.5920 -14.4664 -14.2575 -14.1393  -7.4808  -7.3344  -6.7374  -6.6020
    -6.1292  -5.7287  -5.3797  -5.1711  -4.1143  -3.9755  -3.8872  -3.3972
    -2.7919  -2.6822  -0.0987   0.2447   0.5033   0.5854   1.1164

          k = 0.4375 0.1083 0.0000 ( 35215 PWs)   bands (ev):

   -62.8699 -62.8612 -37.1735 -37.1668 -37.0106 -37.0024 -36.9532 -36.9453
   -14.5945 -14.4653 -14.2586 -14.1370  -7.4805  -7.3329  -6.7392  -6.5997
    -6.1314  -5.7266  -5.3826  -5.1737  -4.1348  -3.9697  -3.8736  -3.3857
    -2.7925  -2.6825  -0.0987   0.2357   0.5060   0.5897   1.0845

          k =-0.3750 0.3608 0.0000 ( 35141 PWs)   bands (ev):

   -62.8658 -62.8570 -37.2082 -37.2013 -37.0025 -36.9943 -36.9665 -36.9588
   -14.3558 -14.2299 -14.1436 -14.0430  -7.6581  -7.5285  -7.0396  -6.9106
    -6.2338  -5.8522  -5.3428  -5.1780  -4.2461  -3.9816  -3.9263  -3.5807
    -2.6125  -2.4714   0.0967   0.2692   0.6578   0.8022   1.3949

          k = 0.5000 0.1443 0.0000 ( 35141 PWs)   bands (ev):

   -62.8658 -62.8570 -37.2081 -37.2013 -37.0025 -36.9943 -36.9666 -36.9587
   -14.3578 -14.2294 -14.1440 -14.0414  -7.6581  -7.5274  -7.0405  -6.9098
    -6.2342  -5.8516  -5.3428  -5.1809  -4.2570  -3.9796  -3.9232  -3.5687
    -2.6135  -2.4716   0.1004   0.2631   0.6573   0.8030   1.3568

          k =-0.4375 0.3969 0.0000 ( 35180 PWs)   bands (ev):

   -62.8643 -62.8556 -37.2202 -37.2134 -36.9996 -36.9915 -36.9713 -36.9635
   -14.2727 -14.1441 -14.0981 -14.0054  -7.7274  -7.5994  -7.1471  -7.0185
    -6.2866  -5.9174  -5.3110  -5.1751  -4.3355  -3.9793  -3.9135  -3.6320
    -2.5230  -2.3599   0.1521   0.2284   0.7672   0.9367   1.5103

          k = 0.3750 0.0000 0.0000 ( 35337 PWs)   bands (ev):

   -62.8767 -62.8680 -37.1078 -37.1010 -37.0238 -37.0156 -36.9398 -36.9318
   -14.9577 -14.8252 -14.4227 -14.2788  -7.2119  -6.9829  -6.1694  -6.0581
    -6.0316  -5.6841  -5.5031  -5.1905  -4.1870  -4.1415  -3.4805  -3.0314
    -2.9034  -2.7903  -0.3963   0.0249   0.4153   0.5210   0.6174

          k =-0.2500 0.3608 0.0000 ( 35241 PWs)   bands (ev):

   -62.8705 -62.8618 -37.1500 -37.1428 -37.0117 -37.0035 -36.9703 -36.9629
   -14.6291 -14.5051 -14.2685 -14.1493  -7.3102  -7.1491  -6.6389  -6.5668
    -6.0266  -5.6044  -5.5046  -5.2072  -4.5158  -4.4292  -3.7238  -3.2569
    -2.8081  -2.7301  -0.2255   0.2332   0.5435   0.5888   0.8262

          k = 0.4375 0.0361 0.0000 ( 35241 PWs)   bands (ev):

   -62.8705 -62.8618 -37.1497 -37.1430 -37.0118 -37.0036 -36.9706 -36.9626
   -14.6332 -14.5032 -14.2706 -14.1454  -7.3089  -7.1472  -6.6390  -6.5606
    -6.0433  -5.6010  -5.5074  -5.2063  -4.5142  -4.4317  -3.7162  -3.2485
    -2.8007  -2.7391  -0.2242   0.2271   0.5525   0.5870   0.8043

          k =-0.3125 0.3969 0.0000 ( 35167 PWs)   bands (ev):

   -62.8658 -62.8571 -37.1804 -37.1733 -37.0026 -36.9952 -36.9947 -36.9874
   -14.3632 -14.2399 -14.1377 -14.0367  -7.4100  -7.2739  -7.0381  -6.9615
    -6.0909  -5.6786  -5.4309  -5.1749  -4.6998  -4.5511  -4.0225  -3.5253
    -2.6139  -2.5353  -0.0254   0.2476   0.6963   0.8317   1.0219

          k = 0.5000 0.0722 0.0000 ( 35167 PWs)   bands (ev):

   -62.8658 -62.8571 -37.1802 -37.1735 -37.0027 -36.9953 -36.9950 -36.9869
   -14.3672 -14.2386 -14.1387 -14.0332  -7.4094  -7.2712  -7.0382  -6.9607
    -6.0953  -5.6788  -5.4334  -5.1763  -4.7169  -4.5396  -4.0087  -3.5216
    -2.6145  -2.5374  -0.0218   0.2440   0.6919   0.8352   0.9960

          k =-0.3750 0.4330 0.0000 ( 35162 PWs)   bands (ev):

   -62.8632 -62.8545 -37.1963 -37.1894 -37.0095 -37.0021 -36.9973 -36.9888
   -14.2177 -14.0906 -14.0554 -13.9679  -7.4645  -7.3334  -7.2488  -7.1744
    -6.2081  -5.8315  -5.3229  -5.1178  -4.7671  -4.5540  -4.2335  -3.7095
    -2.4358  -2.3302   0.0152   0.1032   0.8824   1.0658   1.1790

          k = 0.5625 0.1083 0.0000 ( 35162 PWs)   bands (ev):

   -62.8632 -62.8545 -37.1963 -37.1894 -37.0095 -37.0021 -36.9973 -36.9887
   -14.2195 -14.0902 -14.0556 -13.9663  -7.4642  -7.3319  -7.2491  -7.1747
    -6.2089  -5.8314  -5.3233  -5.1192  -4.7774  -4.5491  -4.2254  -3.7085
    -2.4365  -2.3305   0.0167   0.1019   0.8795   1.0699   1.1619

          k = 0.5000 0.0000 0.0000 ( 35195 PWs)   bands (ev):

   -62.8658 -62.8571 -37.1657 -37.1590 -37.0107 -37.0033 -37.0022 -36.9935
   -14.3712 -14.2424 -14.1364 -14.0298  -7.2942  -7.1490  -7.0364  -6.9802
    -5.9748  -5.5383  -5.4459  -5.1695  -5.0165  -4.9275  -3.9500  -3.4872
    -2.6206  -2.5738  -0.0746   0.2291   0.6865   0.8342   0.8807

          k =-0.3125 0.4691 0.0000 ( 35193 PWs)   bands (ev):

   -62.8626 -62.8539 -37.1707 -37.1635 -37.0428 -37.0355 -36.9963 -36.9879
   -14.1873 -14.0635 -14.0309 -13.9477  -7.3543  -7.2813  -7.1732  -7.0662
    -6.0397  -5.6884  -5.4164  -5.2711  -5.1683  -5.0213  -4.2435  -3.7361
    -2.3875  -2.3256  -0.1081  -0.0041   0.7851   1.0024   1.1432

          k = 0.5625 0.0361 0.0000 ( 35193 PWs)   bands (ev):

   -62.8626 -62.8539 -37.1704 -37.1637 -37.0431 -37.0354 -36.9963 -36.9879
   -14.1922 -14.0627 -14.0314 -13.9433  -7.3540  -7.2788  -7.1755  -7.0614
    -6.0459  -5.6924  -5.4306  -5.2621  -5.1706  -5.0169  -4.2278  -3.7398
    -2.3880  -2.3269  -0.1060  -0.0047   0.7757   1.0131   1.1296

          k =-0.3750 0.5052 0.0000 ( 35190 PWs)   bands (ev):

   -62.8615 -62.8528 -37.1704 -37.1635 -37.0562 -37.0487 -36.9941 -36.9857
   -14.1292 -14.0009 -13.9886 -13.9105  -7.4513  -7.3822  -7.1058  -7.0001
    -6.1683  -5.8604  -5.4609  -5.2250  -5.1367  -4.9774  -4.3794  -3.8541
    -2.2640  -2.1893  -0.1805  -0.1475   0.7938   1.0854   1.2265

          k = 0.6250 0.0000 0.0000 ( 35172 PWs)   bands (ev):

   -62.8609 -62.8522 -37.1492 -37.1425 -37.0847 -37.0770 -36.9929 -36.9846
   -14.0990 -13.9706 -13.9634 -13.8884  -7.5137  -7.4548  -6.8766  -6.7617
    -6.1161  -6.0156  -5.7980  -5.4057  -5.1188  -4.9290  -4.4544  -3.9260
    -2.1795  -2.1204  -0.2903  -0.2691   0.6983   1.0452   1.2835

     the Fermi energy is    -1.0732 ev

!    total energy              =    -989.17149368 Ry
     total all-electron energy =    -19385.831916 Ry
     estimated scf accuracy    <          7.1E-09 Ry
     smearing contrib. (-TS)   =       0.00001926 Ry
     internal energy E=F+TS    =    -989.17151294 Ry

     The total energy is F=E-TS. E is the sum of the following terms:
     one-electron contribution =  -10389.75260199 Ry
     hartree contribution      =    5197.94670117 Ry
     xc contribution           =     -59.62015592 Ry
     ewald contribution        =    4897.18271631 Ry
     one-center paw contrib.   =    -634.92817251 Ry

     convergence has been achieved in  34 iterations

     Writing all to output data dir ./tmp/gsfe_012/mos2_gsfe_012.save/ :
     XML data file, charge density, pseudopotentials, collected wavefunctions

     init_run     :     99.43s CPU    101.20s WALL (       1 calls)
     electrons    :   5357.69s CPU   5467.71s WALL (       1 calls)

     Called by init_run:
     wfcinit      :     53.15s CPU     53.42s WALL (       1 calls)
     potinit      :     43.44s CPU     43.86s WALL (       1 calls)
     hinit0       :      0.36s CPU      0.38s WALL (       1 calls)

     Called by electrons:
     c_bands      :   4378.45s CPU   4403.98s WALL (      35 calls)
     sum_band     :    736.58s CPU    775.84s WALL (      35 calls)
     v_of_rho     :    154.81s CPU    166.59s WALL (      35 calls)
     newd         :     78.38s CPU    112.50s WALL (      35 calls)
     PAW_pot      :      7.14s CPU      7.14s WALL (      35 calls)
     mix_rho      :     46.55s CPU     47.28s WALL (      35 calls)
     vdW_kernel   :     39.95s CPU     39.96s WALL (       1 calls)

     Called by c_bands:
     init_us_2    :     39.15s CPU     39.18s WALL (    5183 calls)
     init_us_2:cp :     39.14s CPU     39.17s WALL (    5183 calls)
     cegterg      :   4065.19s CPU   4090.11s WALL (    2555 calls)

     Called by *egterg:
     cdiaghg      :      3.79s CPU      3.80s WALL (    7983 calls)
     h_psi        :   2543.01s CPU   2545.28s WALL (    8129 calls)
     s_psi        :    551.23s CPU    551.80s WALL (    8129 calls)
     g_psi        :     17.41s CPU     17.42s WALL (    5501 calls)

     Called by h_psi:
     h_psi:calbec :    721.86s CPU    722.05s WALL (    8129 calls)
     vloc_psi     :   1261.68s CPU   1262.54s WALL (    8129 calls)
     add_vuspsi   :    551.48s CPU    551.66s WALL (    8129 calls)

     General routines
     calbec       :   1031.63s CPU   1031.92s WALL (   10684 calls)
     fft          :     43.71s CPU     43.73s WALL (    2204 calls)
     ffts         :     22.87s CPU     22.88s WALL (    4129 calls)
     fftw         :   1124.57s CPU   1125.19s WALL (  451903 calls)
     interpolate  :      1.04s CPU      1.05s WALL (      35 calls)

     Parallel routines

     PWSCF        :      1h30m CPU      1h32m WALL


   This run was terminated on:   5:30:12  15Jun2026            

=------------------------------------------------------------------------------=
   JOB DONE.
=------------------------------------------------------------------------------=
Note: The following floating-point exceptions are signalling: IEEE_UNDERFLOW_FLAG IEEE_DENORMAL
