Authorization required, but no authorization protocol specified

Authorization required, but no authorization protocol specified

Authorization required, but no authorization protocol specified

Authorization required, but no authorization protocol specified

Authorization required, but no authorization protocol specified

Authorization required, but no authorization protocol specified

Authorization required, but no authorization protocol specified

Authorization required, but no authorization protocol specified


     Program PWSCF v.7.3 starts on 15Jun2026 at  9:35:49 

     This program is part of the open-source Quantum ESPRESSO suite
     for quantum simulation of materials; please cite
         "P. Giannozzi et al., J. Phys.:Condens. Matter 21 395502 (2009);
         "P. Giannozzi et al., J. Phys.:Condens. Matter 29 465901 (2017);
         "P. Giannozzi et al., J. Chem. Phys. 152 154105 (2020);
          URL http://www.quantum-espresso.org", 
     in publications or presentations arising from this work. More details at
     http://www.quantum-espresso.org/quote

     Parallel version (MPI), running on     1 processors

     MPI processes distributed on     1 nodes
     10856 MiB available memory on the printing compute node when the environment starts

     Waiting for input...
     Reading input from standard input

     Current dimensions of program PWSCF are:
     Max number of different atomic species (ntypx) = 10
     Max number of k-points (npk) =  40000
     Max angular momentum in pseudopotentials (lmaxx) =  4
     file Mo.pbe-spn-kjpaw_psl.1.0.0.UPF: wavefunction(s)  4S 4D renormalized
     file S.pbe-n-kjpaw_psl.1.0.0.UPF: wavefunction(s)  3S 3P renormalized

     IMPORTANT: XC functional enforced from input :
     Exchange-correlation= VDW-DF2-B86R
                           (   1   4  26   0   2   0   0)
     Any further DFT definition will be discarded
     Please, verify this is what you really want


     Subspace diagonalization in iterative solution of the eigenvalue problem:
     a serial algorithm will be used


     G-vector sticks info
     --------------------
     sticks:   dense  smooth     PW     G-vecs:    dense   smooth      PW
     Sum        1573     769    223               797393   281171   43435

     Using Slab Decomposition



     bravais-lattice index     =            4
     lattice parameter (alat)  =       5.9715  a.u.
     unit-cell volume          =    2917.9067 (a.u.)^3
     number of atoms/cell      =            6
     number of atomic types    =            2
     number of electrons       =        52.00
     number of Kohn-Sham states=           31
     kinetic-energy cutoff     =      80.0000  Ry
     charge density cutoff     =     640.0000  Ry
     scf convergence threshold =      1.0E-08
     mixing beta               =       0.3000
     number of iterations used =            8  local-TF  mixing
     Exchange-correlation= VDW-DF2-B86R
                           (   1   4  26   0   2   0   0)

     celldm(1)=   5.971535  celldm(2)=   0.000000  celldm(3)=  15.822785
     celldm(4)=   0.000000  celldm(5)=   0.000000  celldm(6)=   0.000000

     crystal axes: (cart. coord. in units of alat)
               a(1) = (   1.000000   0.000000   0.000000 )  
               a(2) = (  -0.500000   0.866025   0.000000 )  
               a(3) = (   0.000000   0.000000  15.822785 )  

     reciprocal axes: (cart. coord. in units 2 pi/alat)
               b(1) = (  1.000000  0.577350 -0.000000 )  
               b(2) = (  0.000000  1.154701  0.000000 )  
               b(3) = (  0.000000 -0.000000  0.063200 )  


     PseudoPot. # 1 for Mo read from file:
     ./pseudo/Mo.pbe-spn-kjpaw_psl.1.0.0.UPF
     MD5 check sum: 4396e0c640fcce5c25f020efccf1ab12
     Pseudo is Projector augmented-wave + core cor, Zval = 14.0
     Generated using &quot;atomic&quot; code by A. Dal Corso  v.6.3
     Shape of augmentation charge: PSQ
     Using radial grid of 1229 points,  6 beta functions with: 
                l(1) =   0
                l(2) =   0
                l(3) =   1
                l(4) =   1
                l(5) =   2
                l(6) =   2
     Q(r) pseudized with 0 coefficients 


     PseudoPot. # 2 for S  read from file:
     ./pseudo/S.pbe-n-kjpaw_psl.1.0.0.UPF
     MD5 check sum: fb45dfebcf3e72a4e1bd4a866ec2e262
     Pseudo is Projector augmented-wave + core cor, Zval =  6.0
     Generated using &quot;atomic&quot; code by A. Dal Corso  v.6.3
     Shape of augmentation charge: PSQ
     Using radial grid of 1151 points,  6 beta functions with: 
                l(1) =   0
                l(2) =   0
                l(3) =   1
                l(4) =   1
                l(5) =   2
                l(6) =   2
     Q(r) pseudized with 0 coefficients 


     atomic species   valence    mass     pseudopotential
     Mo               14.00    95.96000     Mo( 1.00)
     S                 6.00    32.06000     S ( 1.00)

      2 Sym. Ops. (no inversion) found



   Cartesian axes

     site n.     atom                  positions (alat units)
         1        S      tau(   1) = (  -0.0000005   0.5773506   6.4231013  )
         2        Mo     tau(   2) = (   0.0000000   0.0000000   6.9204905  )
         3        S      tau(   3) = (  -0.0000005   0.5773506   7.4181013  )
         4        S      tau(   4) = (   0.0000000   0.6928203   8.4034019  )
         5        Mo     tau(   5) = (   0.0000005   0.1154698   8.9017247  )
         6        S      tau(   6) = (   0.0000000   0.6928203   9.3996835  )

     number of k points=    73  Methfessel-Paxton smearing, width (Ry)=  0.0200
                       cart. coord. in units 2pi/alat
        k(    1) = (   0.0000000   0.0000000   0.0000000), wk =   0.0078125
        k(    2) = (   0.0000000   0.0721688   0.0000000), wk =   0.0156250
        k(    3) = (   0.0000000   0.1443376   0.0000000), wk =   0.0156250
        k(    4) = (   0.0000000   0.2165064   0.0000000), wk =   0.0156250
        k(    5) = (   0.0000000   0.2886751   0.0000000), wk =   0.0156250
        k(    6) = (   0.0000000   0.3608439   0.0000000), wk =   0.0156250
        k(    7) = (   0.0000000   0.4330127   0.0000000), wk =   0.0156250
        k(    8) = (   0.0000000   0.5051815   0.0000000), wk =   0.0156250
        k(    9) = (   0.0000000  -0.5773503   0.0000000), wk =   0.0078125
        k(   10) = (   0.0625000   0.1082532   0.0000000), wk =   0.0312500
        k(   11) = (   0.0625000   0.1804220   0.0000000), wk =   0.0312500
        k(   12) = (   0.0625000   0.2525907   0.0000000), wk =   0.0312500
        k(   13) = (   0.0625000   0.3247595   0.0000000), wk =   0.0312500
        k(   14) = (   0.0625000   0.3969283   0.0000000), wk =   0.0312500
        k(   15) = (   0.0625000   0.4690971   0.0000000), wk =   0.0312500
        k(   16) = (   0.0625000   0.5412659   0.0000000), wk =   0.0312500
        k(   17) = (   0.1250000   0.2165064   0.0000000), wk =   0.0312500
        k(   18) = (   0.1250000   0.2886751   0.0000000), wk =   0.0312500
        k(   19) = (   0.1250000   0.3608439   0.0000000), wk =   0.0312500
        k(   20) = (   0.1250000   0.4330127   0.0000000), wk =   0.0312500
        k(   21) = (   0.1250000   0.5051815   0.0000000), wk =   0.0312500
        k(   22) = (   0.1250000   0.5773503   0.0000000), wk =   0.0156250
        k(   23) = (   0.1875000   0.3247595   0.0000000), wk =   0.0312500
        k(   24) = (   0.1875000   0.3969283   0.0000000), wk =   0.0312500
        k(   25) = (   0.1875000   0.4690971   0.0000000), wk =   0.0312500
        k(   26) = (   0.1875000   0.5412659   0.0000000), wk =   0.0312500
        k(   27) = (   0.2500000   0.4330127   0.0000000), wk =   0.0312500
        k(   28) = (   0.2500000   0.5051815   0.0000000), wk =   0.0312500
        k(   29) = (   0.2500000   0.5773503   0.0000000), wk =   0.0156250
        k(   30) = (   0.3125000   0.5412659   0.0000000), wk =   0.0312500
        k(   31) = (  -0.0625000   0.0360844   0.0000000), wk =   0.0312500
        k(   32) = (  -0.1250000   0.0721688   0.0000000), wk =   0.0312500
        k(   33) = (  -0.1875000   0.1082532   0.0000000), wk =   0.0312500
        k(   34) = (  -0.2500000   0.1443376   0.0000000), wk =   0.0312500
        k(   35) = (  -0.3125000   0.1804220   0.0000000), wk =   0.0312500
        k(   36) = (  -0.3750000   0.2165064   0.0000000), wk =   0.0312500
        k(   37) = (  -0.4375000   0.2525907   0.0000000), wk =   0.0312500
        k(   38) = (   0.5000000  -0.2886751   0.0000000), wk =   0.0156250
        k(   39) = (   0.1250000   0.0000000   0.0000000), wk =   0.0156250
        k(   40) = (  -0.1250000   0.1443376   0.0000000), wk =   0.0312500
        k(   41) = (   0.1875000   0.0360844   0.0000000), wk =   0.0312500
        k(   42) = (  -0.1875000   0.1804220   0.0000000), wk =   0.0312500
        k(   43) = (   0.2500000   0.0721688   0.0000000), wk =   0.0312500
        k(   44) = (  -0.2500000   0.2165064   0.0000000), wk =   0.0312500
        k(   45) = (   0.3125000   0.1082532   0.0000000), wk =   0.0312500
        k(   46) = (  -0.3125000   0.2525907   0.0000000), wk =   0.0312500
        k(   47) = (   0.3750000   0.1443376   0.0000000), wk =   0.0312500
        k(   48) = (  -0.3750000   0.2886751   0.0000000), wk =   0.0312500
        k(   49) = (   0.4375000   0.1804220   0.0000000), wk =   0.0312500
        k(   50) = (  -0.4375000   0.3247595   0.0000000), wk =   0.0312500
        k(   51) = (   0.5000000   0.2165064   0.0000000), wk =   0.0312500
        k(   52) = (   0.2500000   0.0000000   0.0000000), wk =   0.0156250
        k(   53) = (  -0.1875000   0.2525907   0.0000000), wk =   0.0312500
        k(   54) = (   0.3125000   0.0360844   0.0000000), wk =   0.0312500
        k(   55) = (  -0.2500000   0.2886751   0.0000000), wk =   0.0312500
        k(   56) = (   0.3750000   0.0721688   0.0000000), wk =   0.0312500
        k(   57) = (  -0.3125000   0.3247595   0.0000000), wk =   0.0312500
        k(   58) = (   0.4375000   0.1082532   0.0000000), wk =   0.0312500
        k(   59) = (  -0.3750000   0.3608439   0.0000000), wk =   0.0312500
        k(   60) = (   0.5000000   0.1443376   0.0000000), wk =   0.0312500
        k(   61) = (  -0.4375000   0.3969283   0.0000000), wk =   0.0312500
        k(   62) = (   0.3750000   0.0000000   0.0000000), wk =   0.0156250
        k(   63) = (  -0.2500000   0.3608439   0.0000000), wk =   0.0312500
        k(   64) = (   0.4375000   0.0360844   0.0000000), wk =   0.0312500
        k(   65) = (  -0.3125000   0.3969283   0.0000000), wk =   0.0312500
        k(   66) = (   0.5000000   0.0721688   0.0000000), wk =   0.0312500
        k(   67) = (  -0.3750000   0.4330127   0.0000000), wk =   0.0312500
        k(   68) = (   0.5625000   0.1082532   0.0000000), wk =   0.0312500
        k(   69) = (   0.5000000   0.0000000   0.0000000), wk =   0.0156250
        k(   70) = (  -0.3125000   0.4690971   0.0000000), wk =   0.0312500
        k(   71) = (   0.5625000   0.0360844   0.0000000), wk =   0.0312500
        k(   72) = (  -0.3750000   0.5051815   0.0000000), wk =   0.0312500
        k(   73) = (   0.6250000   0.0000000   0.0000000), wk =   0.0156250

     Dense  grid:   797393 G-vectors     FFT dimensions: (  50,  50, 768)

     Smooth grid:   281171 G-vectors     FFT dimensions: (  36,  36, 540)

     Estimated max dynamical RAM per process >       4.00 GB

     Initial potential from superposition of free atoms

     starting charge      51.9981, renormalised to      52.0000

     negative rho (up, down):  1.941E-04 0.000E+00


     %%%%%%%%%%%%%%%%%%%%%%%%%%%%%%%%%%%%%%%%%%%%%%%%%%%%%%%%%%%%%%%%%%%%%%%%
     %                                                                      %
     % You are using vdW-DF, which was implemented by the Thonhauser group. %
     % Please cite the following two papers that made this development      %
     % possible and the two reviews that describe the various versions:     %
     %                                                                      %
     %   T. Thonhauser et al., PRL 115, 136402 (2015).                      %
     %   T. Thonhauser et al., PRB 76, 125112 (2007).                       %
     %   K. Berland et al., Rep. Prog. Phys. 78, 066501 (2015).             %
     %   D.C. Langreth et al., J. Phys.: Condens. Matter 21, 084203 (2009). %
     %                                                                      %
     % If you are calculating stress with vdW-DF, please also cite:         %
     %                                                                      %
     %   R. Sabatini et al., J. Phys.: Condens. Matter 24, 424209 (2012).   %
     %                                                                      %
     %%%%%%%%%%%%%%%%%%%%%%%%%%%%%%%%%%%%%%%%%%%%%%%%%%%%%%%%%%%%%%%%%%%%%%%%

     %%%%%%%%%%%%%%%%%%%%%%%%%%%%%%%%%%%%%%%%%%%%%%%%%%%%%%%%%%%%%%%%%%%%%%%%
     %                                                                      %
     %  vdW-DF NEWS:                                                        %
     %                                                                      %
     %  * vdW-DF3 is now available. DOI: 10.1021/acs.jctc.0c00471           %
     %    use with input_dft = 'vdW-DF3-opt1' or 'vdW-DF3-opt2'             %
     %                                                                      %
     %  * Unscreened and range-separated hybrid vdW-DF-cx functionals       %
     %    DOI: 10.1063/1.4986522 and 10.1088/1361-648X/ac2ad2               %
     %    use with input_dft = 'vdW-DF-cx0'    and 'vdW-DF-ahcx'            %
     %  * Unscreened and range-separated hybrid vdW-DF2-b86r functionals    %
     %    DOI: 10.1063/1.4986522 and DOI: 10.1103/PhysRevX.12.041003        %
     %    use with input_dft = 'vdW-DF2-br0' and 'vdW-DF2-ahbr'             %
     %                                                                      %
     %%%%%%%%%%%%%%%%%%%%%%%%%%%%%%%%%%%%%%%%%%%%%%%%%%%%%%%%%%%%%%%%%%%%%%%%


     Starting wfcs are   36 randomized atomic wfcs
     Checking if some PAW data can be deallocated... 

     total cpu time spent up to now is      101.5 secs

     Self-consistent Calculation

     iteration #  1     ecut=    80.00 Ry     beta= 0.30
     Davidson diagonalization with overlap
     ethr =  1.00E-02,  avg # of iterations =  2.4

     Threshold (ethr) on eigenvalues was too large:
     Diagonalizing with lowered threshold

     Davidson diagonalization with overlap
     ethr =  2.83E-04,  avg # of iterations =  3.8

     negative rho (up, down):  7.056E-05 0.000E+00

     total cpu time spent up to now is      454.4 secs

     total energy              =    -989.20983927 Ry
     estimated scf accuracy    <       0.23311003 Ry

     iteration #  2     ecut=    80.00 Ry     beta= 0.30
     Davidson diagonalization with overlap
     ethr =  4.48E-04,  avg # of iterations =  1.0

     negative rho (up, down):  1.108E-04 0.000E+00

     total cpu time spent up to now is      588.2 secs

     total energy              =    -989.13451397 Ry
     estimated scf accuracy    <       0.16699878 Ry

     iteration #  3     ecut=    80.00 Ry     beta= 0.30
     Davidson diagonalization with overlap
     ethr =  3.21E-04,  avg # of iterations =  2.0

     negative rho (up, down):  3.887E-05 0.000E+00

     total cpu time spent up to now is      756.2 secs

     total energy              =    -989.16799765 Ry
     estimated scf accuracy    <       0.01558847 Ry

     iteration #  4     ecut=    80.00 Ry     beta= 0.30
     Davidson diagonalization with overlap
     ethr =  3.00E-05,  avg # of iterations =  2.2

     negative rho (up, down):  1.161E-05 0.000E+00

     total cpu time spent up to now is      927.9 secs

     total energy              =    -989.16847931 Ry
     estimated scf accuracy    <       0.00835274 Ry

     iteration #  5     ecut=    80.00 Ry     beta= 0.30
     Davidson diagonalization with overlap
     ethr =  1.61E-05,  avg # of iterations =  3.3

     negative rho (up, down):  3.526E-06 0.000E+00

     total cpu time spent up to now is     1082.1 secs

     total energy              =    -989.16885108 Ry
     estimated scf accuracy    <       0.00272251 Ry

     iteration #  6     ecut=    80.00 Ry     beta= 0.30
     Davidson diagonalization with overlap
     ethr =  5.24E-06,  avg # of iterations =  4.3

     negative rho (up, down):  5.143E-07 0.000E+00

     total cpu time spent up to now is     1229.4 secs

     total energy              =    -989.16858636 Ry
     estimated scf accuracy    <       0.00244776 Ry

     iteration #  7     ecut=    80.00 Ry     beta= 0.30
     Davidson diagonalization with overlap
     ethr =  4.71E-06,  avg # of iterations =  1.4

     negative rho (up, down):  4.817E-07 0.000E+00

     total cpu time spent up to now is     1367.7 secs

     total energy              =    -989.16833322 Ry
     estimated scf accuracy    <       0.00240429 Ry

     iteration #  8     ecut=    80.00 Ry     beta= 0.30
     Davidson diagonalization with overlap
     ethr =  4.62E-06,  avg # of iterations =  3.4

     negative rho (up, down):  6.693E-04 0.000E+00

     total cpu time spent up to now is     1538.6 secs

     total energy              =    -989.16775984 Ry
     estimated scf accuracy    <       0.00403954 Ry

     iteration #  9     ecut=    80.00 Ry     beta= 0.30
     Davidson diagonalization with overlap
     ethr =  4.62E-06,  avg # of iterations =  2.4

     negative rho (up, down):  1.951E-03 0.000E+00

     total cpu time spent up to now is     1706.4 secs

     total energy              =    -989.16815985 Ry
     estimated scf accuracy    <       0.00074277 Ry

     iteration # 10     ecut=    80.00 Ry     beta= 0.30
     Davidson diagonalization with overlap
     ethr =  1.43E-06,  avg # of iterations =  3.6

     negative rho (up, down):  2.894E-03 0.000E+00

     total cpu time spent up to now is     1858.0 secs

     total energy              =    -989.16819957 Ry
     estimated scf accuracy    <       0.00048481 Ry

     iteration # 11     ecut=    80.00 Ry     beta= 0.30
     Davidson diagonalization with overlap
     ethr =  9.32E-07,  avg # of iterations =  2.2

     negative rho (up, down):  4.793E-03 0.000E+00

     total cpu time spent up to now is     2024.1 secs

     total energy              =    -989.16821474 Ry
     estimated scf accuracy    <       0.00047944 Ry

     iteration # 12     ecut=    80.00 Ry     beta= 0.30
     Davidson diagonalization with overlap
     ethr =  9.22E-07,  avg # of iterations =  2.9

     negative rho (up, down):  5.450E-03 0.000E+00

     total cpu time spent up to now is     2183.9 secs

     total energy              =    -989.16807700 Ry
     estimated scf accuracy    <       0.00075208 Ry

     iteration # 13     ecut=    80.00 Ry     beta= 0.30
     Davidson diagonalization with overlap
     ethr =  9.22E-07,  avg # of iterations =  2.0

     negative rho (up, down):  5.820E-03 0.000E+00

     total cpu time spent up to now is     2345.8 secs

     total energy              =    -989.16807577 Ry
     estimated scf accuracy    <       0.00034701 Ry

     iteration # 14     ecut=    80.00 Ry     beta= 0.30
     Davidson diagonalization with overlap
     ethr =  6.67E-07,  avg # of iterations =  2.1

     negative rho (up, down):  5.396E-03 0.000E+00

     total cpu time spent up to now is     2498.2 secs

     total energy              =    -989.16811241 Ry
     estimated scf accuracy    <       0.00018006 Ry

     iteration # 15     ecut=    80.00 Ry     beta= 0.30
     Davidson diagonalization with overlap
     ethr =  3.46E-07,  avg # of iterations =  2.3

     negative rho (up, down):  5.145E-03 0.000E+00

     total cpu time spent up to now is     2648.5 secs

     total energy              =    -989.16813485 Ry
     estimated scf accuracy    <       0.00015736 Ry

     iteration # 16     ecut=    80.00 Ry     beta= 0.30
     Davidson diagonalization with overlap
     ethr =  3.03E-07,  avg # of iterations =  1.0

     negative rho (up, down):  3.282E-03 0.000E+00

     total cpu time spent up to now is     2782.1 secs

     total energy              =    -989.16808866 Ry
     estimated scf accuracy    <       0.00011485 Ry

     iteration # 17     ecut=    80.00 Ry     beta= 0.30
     Davidson diagonalization with overlap
     ethr =  2.21E-07,  avg # of iterations =  2.9

     negative rho (up, down):  3.200E-03 0.000E+00

     total cpu time spent up to now is     2944.3 secs

     total energy              =    -989.16804302 Ry
     estimated scf accuracy    <       0.00013702 Ry

     iteration # 18     ecut=    80.00 Ry     beta= 0.30
     Davidson diagonalization with overlap
     ethr =  2.21E-07,  avg # of iterations =  3.6

     negative rho (up, down):  2.220E-03 0.000E+00

     total cpu time spent up to now is     3127.2 secs

     total energy              =    -989.16812162 Ry
     estimated scf accuracy    <       0.00015097 Ry

     iteration # 19     ecut=    80.00 Ry     beta= 0.30
     Davidson diagonalization with overlap
     ethr =  2.21E-07,  avg # of iterations =  2.1

     negative rho (up, down):  1.653E-03 0.000E+00

     total cpu time spent up to now is     3303.4 secs

     total energy              =    -989.16814293 Ry
     estimated scf accuracy    <       0.00003784 Ry

     iteration # 20     ecut=    80.00 Ry     beta= 0.30
     Davidson diagonalization with overlap
     ethr =  7.28E-08,  avg # of iterations =  3.0

     negative rho (up, down):  1.017E-03 0.000E+00

     total cpu time spent up to now is     3468.1 secs

     total energy              =    -989.16816885 Ry
     estimated scf accuracy    <       0.00001325 Ry

     iteration # 21     ecut=    80.00 Ry     beta= 0.30
     Davidson diagonalization with overlap
     ethr =  2.55E-08,  avg # of iterations =  2.0

     negative rho (up, down):  7.906E-04 0.000E+00

     total cpu time spent up to now is     3620.9 secs

     total energy              =    -989.16817432 Ry
     estimated scf accuracy    <       0.00000318 Ry

     iteration # 22     ecut=    80.00 Ry     beta= 0.30
     Davidson diagonalization with overlap
     ethr =  6.11E-09,  avg # of iterations =  2.2

     negative rho (up, down):  3.466E-04 0.000E+00

     total cpu time spent up to now is     3769.4 secs

     total energy              =    -989.16817658 Ry
     estimated scf accuracy    <       0.00000120 Ry

     iteration # 23     ecut=    80.00 Ry     beta= 0.30
     Davidson diagonalization with overlap
     ethr =  2.32E-09,  avg # of iterations =  2.8

     negative rho (up, down):  2.986E-04 0.000E+00

     total cpu time spent up to now is     3944.3 secs

     total energy              =    -989.16817691 Ry
     estimated scf accuracy    <       0.00000041 Ry

     iteration # 24     ecut=    80.00 Ry     beta= 0.30
     Davidson diagonalization with overlap
     ethr =  7.79E-10,  avg # of iterations =  1.3

     negative rho (up, down):  2.368E-04 0.000E+00

     total cpu time spent up to now is     4084.2 secs

     total energy              =    -989.16817639 Ry
     estimated scf accuracy    <       0.00000019 Ry

     iteration # 25     ecut=    80.00 Ry     beta= 0.30
     Davidson diagonalization with overlap
     ethr =  3.69E-10,  avg # of iterations =  2.7

     negative rho (up, down):  2.429E-04 0.000E+00

     total cpu time spent up to now is     4255.7 secs

     total energy              =    -989.16817622 Ry
     estimated scf accuracy    <       0.00000003 Ry

     iteration # 26     ecut=    80.00 Ry     beta= 0.30
     Davidson diagonalization with overlap
     ethr =  5.22E-11,  avg # of iterations =  3.6

     negative rho (up, down):  2.360E-04 0.000E+00

     total cpu time spent up to now is     4421.7 secs

     total energy              =    -989.16817643 Ry
     estimated scf accuracy    <       0.00000002 Ry

     iteration # 27     ecut=    80.00 Ry     beta= 0.30
     Davidson diagonalization with overlap
     ethr =  4.05E-11,  avg # of iterations =  3.6

     negative rho (up, down):  2.303E-04 0.000E+00

     total cpu time spent up to now is     4611.6 secs

     total energy              =    -989.16817641 Ry
     estimated scf accuracy    <       0.00000002 Ry

     iteration # 28     ecut=    80.00 Ry     beta= 0.30
     Davidson diagonalization with overlap
     ethr =  4.05E-11,  avg # of iterations =  2.1

     negative rho (up, down):  2.263E-04 0.000E+00

     total cpu time spent up to now is     4760.0 secs

     End of self-consistent calculation

          k = 0.0000 0.0000 0.0000 ( 35507 PWs)   bands (ev):

   -62.9022 -62.9021 -37.0795 -37.0791 -36.8386 -36.8383 -36.8377 -36.8374
   -16.2708 -16.1287 -15.0223 -14.8060  -8.0342  -7.4849  -4.6380  -4.6378
    -4.6225  -4.6209  -4.5427  -3.5291  -3.5280  -3.5054  -3.5032  -3.4204
    -2.4072  -1.6200   0.6734   0.6850   0.7605   0.7660   0.9002

          k = 0.0000 0.0722 0.0000 ( 35493 PWs)   bands (ev):

   -62.9007 -62.9005 -37.0765 -37.0760 -36.8539 -36.8532 -36.8421 -36.8410
   -16.2117 -16.0693 -14.9955 -14.7820  -7.9668  -7.4163  -4.7781  -4.7556
    -4.6845  -4.5761  -4.5583  -3.9393  -3.6264  -3.5995  -3.4730  -3.0872
    -2.4107  -1.6681   0.5716   0.6738   0.7250   0.7425   0.8633

          k = 0.0000 0.1443 0.0000 ( 35435 PWs)   bands (ev):

   -62.8962 -62.8961 -37.0678 -37.0674 -36.8980 -36.8973 -36.8522 -36.8510
   -16.0392 -15.8963 -14.9175 -14.7122  -7.7793  -7.2288  -5.1411  -5.0981
    -5.0046  -4.4539  -4.3981  -4.3777  -3.8777  -3.8488  -3.4425  -2.8997
    -2.4589  -1.8523   0.2492   0.4724   0.4849   0.6301   0.7092

          k = 0.0000 0.2165 0.0000 ( 35345 PWs)   bands (ev):

   -62.8896 -62.8894 -37.0549 -37.0544 -36.9634 -36.9626 -36.8671 -36.8660
   -15.7687 -15.6252 -14.7951 -14.6030  -7.5261  -6.9970  -5.6025  -5.5086
    -5.3897  -4.9824  -4.2069  -4.1725  -4.1229  -4.1005  -3.5646  -2.9459
    -2.6312  -2.2047  -0.0885   0.2935   0.4193   0.4968   0.5333

          k = 0.0000 0.2887 0.0000 ( 35323 PWs)   bands (ev):

   -62.8817 -62.8816 -37.0412 -37.0402 -37.0381 -37.0378 -36.8848 -36.8836
   -15.4264 -15.2830 -14.6409 -14.4661  -7.3320  -6.9147  -6.0347  -5.8026
    -5.7702  -5.4888  -4.5330  -4.4989  -3.8053  -3.8038  -3.7693  -3.1525
    -2.9163  -2.6113  -0.1926   0.2356   0.2691   0.3382   0.7252

          k = 0.0000 0.3608 0.0000 ( 35299 PWs)   bands (ev):

   -62.8739 -62.8737 -37.1153 -37.1143 -37.0240 -37.0237 -36.9023 -36.9011
   -15.0517 -14.9095 -14.4735 -14.3186  -7.3759  -7.1370  -6.3838  -6.0911
    -6.0456  -5.7382  -4.8213  -4.7858  -4.0572  -3.4868  -3.4369  -3.3829
    -3.1302  -2.8594  -0.0677   0.1341   0.2163   0.3720   1.0498

          k = 0.0000 0.4330 0.0000 ( 35224 PWs)   bands (ev):

   -62.8672 -62.8670 -37.1786 -37.1775 -37.0109 -37.0106 -36.9172 -36.9160
   -14.7016 -14.5606 -14.3170 -14.1832  -7.6232  -7.4681  -6.7145  -6.4651
    -6.2021  -5.8096  -5.0421  -5.0056  -4.2526  -3.5536  -3.2333  -3.1642
    -3.1135  -2.8127   0.1301   0.1854   0.1891   0.5354   1.3364

          k = 0.0000 0.5052 0.0000 ( 35152 PWs)   bands (ev):

   -62.8627 -62.8626 -37.2206 -37.2194 -37.0022 -37.0018 -36.9271 -36.9258
   -14.4491 -14.3069 -14.1992 -14.0849  -7.8633  -7.7271  -6.9594  -6.7366
    -6.3068  -5.9232  -5.1798  -5.1427  -4.3684  -3.6544  -3.0788  -2.9934
    -2.9490  -2.5969   0.1827   0.2138   0.4731   0.6961   1.4992

          k = 0.0000-0.5774 0.0000 ( 35026 PWs)   bands (ev):

   -62.8612 -62.8610 -37.2352 -37.2341 -36.9991 -36.9988 -36.9305 -36.9293
   -14.3584 -14.2142 -14.1524 -14.0475  -7.9589  -7.8243  -7.0486  -6.8330
    -6.3517  -5.9777  -5.2265  -5.1892  -4.4056  -3.6876  -3.0285  -2.9367
    -2.8573  -2.4824   0.2139   0.2352   0.6172   0.7673   1.5412

          k = 0.0625 0.1083 0.0000 ( 35467 PWs)   bands (ev):

   -62.8977 -62.8975 -37.0707 -37.0702 -36.8833 -36.8825 -36.8493 -36.8483
   -16.0959 -15.9530 -14.9431 -14.7350  -7.8389  -7.2874  -5.0257  -4.9918
    -4.9036  -4.4580  -4.4390  -4.2946  -3.8451  -3.8117  -3.3978  -2.9022
    -2.4354  -1.7807   0.3478   0.5106   0.5216   0.6760   0.7164

          k = 0.0625 0.1804 0.0000 ( 35370 PWs)   bands (ev):

   -62.8921 -62.8920 -37.0598 -37.0594 -36.9368 -36.9360 -36.8631 -36.8619
   -15.8742 -15.7308 -14.8427 -14.6453  -7.6144  -7.0706  -5.4265  -5.3627
    -5.2222  -4.7440  -4.2517  -4.2218  -4.2147  -4.1655  -3.3816  -2.8280
    -2.5431  -2.0471   0.0037   0.3188   0.3971   0.4782   0.5836

          k = 0.0625 0.2526 0.0000 ( 35362 PWs)   bands (ev):

   -62.8849 -62.8847 -37.0457 -37.0452 -37.0060 -37.0052 -36.8810 -36.8799
   -15.5672 -15.4236 -14.7039 -14.5216  -7.3768  -6.8927  -5.8550  -5.6997
    -5.5835  -5.2410  -4.6189  -4.5213  -3.9790  -3.9460  -3.5181  -2.9500
    -2.7758  -2.4268  -0.2250   0.1798   0.3051   0.4446   0.5040

          k = 0.0625 0.3248 0.0000 ( 35310 PWs)   bands (ev):

   -62.8770 -62.8769 -37.0803 -37.0793 -37.0302 -37.0298 -36.9004 -36.8992
   -15.2071 -15.0642 -14.5417 -14.3780  -7.2915  -6.9771  -6.2037  -5.9480
    -5.8759  -5.6768  -4.9257  -4.7996  -3.8059  -3.7100  -3.6907  -3.1677
    -3.0033  -2.7460  -0.2462   0.1261   0.2332   0.4176   0.7799

          k = 0.0625 0.3969 0.0000 ( 35243 PWs)   bands (ev):

   -62.8698 -62.8696 -37.1480 -37.1469 -37.0159 -37.0156 -36.9183 -36.9170
   -14.8415 -14.6998 -14.3775 -14.2344  -7.4570  -7.2745  -6.5448  -6.2991
    -6.1321  -5.7454  -5.1183  -4.9960  -4.0374  -3.6070  -3.5668  -3.3314
    -3.0011  -2.8000  -0.1110   0.1579   0.2829   0.4920   1.1119

          k = 0.0625 0.4691 0.0000 ( 35169 PWs)   bands (ev):

   -62.8642 -62.8640 -37.1993 -37.1982 -37.0050 -37.0047 -36.9319 -36.9306
   -14.5356 -14.3941 -14.2374 -14.1149  -7.7093  -7.5683  -6.8653  -6.6581
    -6.2466  -5.8446  -5.2213  -5.1212  -4.2484  -3.6094  -3.4984  -3.3024
    -2.8379  -2.6229   0.0788   0.2270   0.4338   0.6322   1.4050

          k = 0.0625 0.5413 0.0000 ( 35128 PWs)   bands (ev):

   -62.8612 -62.8610 -37.2270 -37.2258 -36.9991 -36.9988 -36.9392 -36.9380
   -14.3621 -14.2180 -14.1506 -14.0443  -7.8778  -7.7435  -7.0498  -6.8555
    -6.3292  -5.9446  -5.2617  -5.1817  -4.3668  -3.6847  -3.4134  -3.2169
    -2.6921  -2.4398   0.1913   0.2563   0.6190   0.7749   1.6029

          k = 0.1250 0.2165 0.0000 ( 35331 PWs)   bands (ev):

   -62.8860 -62.8858 -37.0478 -37.0474 -36.9921 -36.9911 -36.8818 -36.8808
   -15.6157 -15.4719 -14.7255 -14.5404  -7.3949  -6.8888  -5.7764  -5.6523
    -5.4612  -5.0685  -4.7606  -4.6554  -4.0590  -4.0261  -3.3452  -2.8210
    -2.7121  -2.3287  -0.2450   0.1351   0.3191   0.3675   0.4563

          k = 0.1250 0.2887 0.0000 ( 35357 PWs)   bands (ev):

   -62.8787 -62.8786 -37.0556 -37.0546 -37.0335 -37.0331 -36.9052 -36.9040
   -15.2893 -15.1458 -14.5771 -14.4085  -7.2397  -6.8656  -6.0670  -5.7956
    -5.7523  -5.5343  -5.2013  -4.9800  -3.9664  -3.9095  -3.4468  -2.9532
    -2.9028  -2.6168  -0.3814   0.0183   0.2903   0.4598   0.5053

          k = 0.1250 0.3608 0.0000 ( 35341 PWs)   bands (ev):

   -62.8715 -62.8713 -37.1178 -37.1168 -37.0193 -37.0190 -36.9289 -36.9277
   -14.9340 -14.7915 -14.4151 -14.2655  -7.2918  -7.0727  -6.3358  -6.1438
    -6.0575  -5.6840  -5.3700  -5.1108  -4.0470  -3.9479  -3.6608  -3.1141
    -2.9363  -2.7704  -0.3275   0.0770   0.3728   0.5207   0.7668

          k = 0.1250 0.4330 0.0000 ( 35215 PWs)   bands (ev):

   -62.8653 -62.8651 -37.1700 -37.1689 -37.0072 -37.0069 -36.9491 -36.9479
   -14.6050 -14.4631 -14.2625 -14.1333  -7.4859  -7.3332  -6.7498  -6.5981
    -6.1580  -5.7150  -5.3931  -5.1636  -4.1599  -3.9642  -3.8961  -3.3435
    -2.8051  -2.6668  -0.1117   0.2485   0.4972   0.5957   1.0708

          k = 0.1250 0.5052 0.0000 ( 35141 PWs)   bands (ev):

   -62.8612 -62.8610 -37.2046 -37.2034 -36.9991 -36.9988 -36.9626 -36.9614
   -14.3713 -14.2270 -14.1461 -14.0362  -7.6630  -7.5278  -7.0503  -6.9075
    -6.2579  -5.8434  -5.3533  -5.1712  -4.3069  -3.9811  -3.9218  -3.5191
    -2.6224  -2.4605   0.0911   0.2717   0.6524   0.8071   1.3367

          k = 0.1250 0.5774 0.0000 ( 35180 PWs)   bands (ev):

   -62.8597 -62.8595 -37.2167 -37.2155 -36.9963 -36.9960 -36.9674 -36.9661
   -14.2887 -14.1419 -14.0992 -13.9987  -7.7324  -7.5994  -7.1570  -7.0159
    -6.3084  -5.9103  -5.3201  -5.1670  -4.3929  -3.9807  -3.9130  -3.5739
    -2.5306  -2.3501   0.1476   0.2321   0.7636   0.9402   1.4660

          k = 0.1875 0.3248 0.0000 ( 35337 PWs)   bands (ev):

   -62.8721 -62.8719 -37.1043 -37.1031 -37.0205 -37.0201 -36.9356 -36.9345
   -14.9664 -14.8232 -14.4279 -14.2757  -7.2211  -6.9823  -6.1805  -6.0984
    -6.0193  -5.6685  -5.5117  -5.1779  -4.2040  -4.1258  -3.5254  -3.0025
    -2.9183  -2.7529  -0.4092   0.0346   0.4014   0.5306   0.6097

          k = 0.1875 0.3969 0.0000 ( 35241 PWs)   bands (ev):

   -62.8659 -62.8657 -37.1462 -37.1451 -37.0084 -37.0081 -36.9665 -36.9653
   -14.6437 -14.5009 -14.2749 -14.1414  -7.3149  -7.1472  -6.6475  -6.5575
    -6.0820  -5.5818  -5.5189  -5.1950  -4.5255  -4.4217  -3.7619  -3.1971
    -2.8170  -2.7215  -0.2371   0.2389   0.5394   0.5961   0.7892

          k = 0.1875 0.4691 0.0000 ( 35167 PWs)   bands (ev):

   -62.8612 -62.8610 -37.1767 -37.1756 -36.9991 -36.9988 -36.9915 -36.9902
   -14.3809 -14.2361 -14.1413 -14.0277  -7.4147  -7.2716  -7.0473  -6.9562
    -6.1284  -5.6656  -5.4448  -5.1690  -4.7267  -4.5352  -4.0522  -3.4636
    -2.6246  -2.5288  -0.0320   0.2519   0.6835   0.8434   0.9714

          k = 0.1875 0.5413 0.0000 ( 35162 PWs)   bands (ev):

   -62.8586 -62.8584 -37.1927 -37.1916 -37.0055 -37.0041 -36.9941 -36.9938
   -14.2371 -14.0881 -14.0563 -13.9583  -7.4694  -7.3313  -7.2583  -7.1708
    -6.2338  -5.8257  -5.3312  -5.1098  -4.8096  -4.5431  -4.2586  -3.6460
    -2.4426  -2.3260   0.0120   0.1054   0.8690   1.0574   1.1522

          k = 0.2500 0.4330 0.0000 ( 35195 PWs)   bands (ev):

   -62.8612 -62.8610 -37.1622 -37.1610 -37.0065 -37.0052 -36.9990 -36.9988
   -14.3854 -14.2397 -14.1394 -14.0237  -7.3005  -7.1486  -7.0445  -6.9741
    -6.0239  -5.5078  -5.4620  -5.1615  -5.0357  -4.9076  -4.0035  -3.4227
    -2.6332  -2.5639  -0.0847   0.2374   0.6714   0.8381   0.8684

          k = 0.2500 0.5052 0.0000 ( 35193 PWs)   bands (ev):

   -62.8580 -62.8578 -37.1669 -37.1658 -37.0390 -37.0377 -36.9929 -36.9926
   -14.2111 -14.0605 -14.0321 -13.9341  -7.3628  -7.2724  -7.1799  -7.0631
    -6.0785  -5.6791  -5.4574  -5.2617  -5.1697  -5.0039  -4.2807  -3.6685
    -2.3965  -2.3220  -0.1109  -0.0012   0.7417   1.0121   1.1515

          k = 0.2500 0.5774 0.0000 ( 35190 PWs)   bands (ev):

   -62.8569 -62.8567 -37.1668 -37.1656 -37.0523 -37.0509 -36.9908 -36.9905
   -14.1519 -13.9995 -13.9882 -13.8977  -7.4593  -7.3752  -7.1123  -7.0002
    -6.1880  -5.8591  -5.4965  -5.2088  -5.1422  -4.9766  -4.4223  -3.7815
    -2.2709  -2.1864  -0.1826  -0.1461   0.7509   1.1213   1.2163

          k = 0.3125 0.5413 0.0000 ( 35172 PWs)   bands (ev):

   -62.8563 -62.8561 -37.1458 -37.1445 -37.0807 -37.0794 -36.9896 -36.9893
   -14.1236 -13.9699 -13.9624 -13.8737  -7.5217  -7.4479  -6.8832  -6.7608
    -6.1282  -5.9797  -5.8872  -5.3702  -5.1365  -4.9183  -4.5090  -3.8477
    -2.1886  -2.1156  -0.2924  -0.2677   0.6562   1.0992   1.2460

          k =-0.0625 0.0361 0.0000 ( 35493 PWs)   bands (ev):

   -62.9007 -62.9005 -37.0765 -37.0760 -36.8541 -36.8530 -36.8419 -36.8412
   -16.2117 -16.0693 -14.9956 -14.7820  -7.9668  -7.4162  -4.7775  -4.7555
    -4.6855  -4.5755  -4.5583  -3.9392  -3.6247  -3.6016  -3.4747  -3.0857
    -2.4108  -1.6662   0.5612   0.6744   0.7221   0.7570   0.8697

          k =-0.1250 0.0722 0.0000 ( 35435 PWs)   bands (ev):

   -62.8962 -62.8961 -37.0678 -37.0674 -36.8982 -36.8971 -36.8520 -36.8512
   -16.0393 -15.8962 -14.9176 -14.7120  -7.7795  -7.2286  -5.1406  -5.0984
    -5.0043  -4.4541  -4.3969  -4.3784  -3.8757  -3.8512  -3.4470  -2.8969
    -2.4593  -1.8450   0.2357   0.4718   0.4837   0.6407   0.7177

          k =-0.1875 0.1083 0.0000 ( 35345 PWs)   bands (ev):

   -62.8896 -62.8894 -37.0548 -37.0544 -36.9636 -36.9624 -36.8670 -36.8662
   -15.7690 -15.6251 -14.7954 -14.6026  -7.5264  -6.9968  -5.6034  -5.5075
    -5.3899  -4.9816  -4.2037  -4.1749  -4.1223  -4.1027  -3.5723  -2.9418
    -2.6320  -2.1925  -0.0995   0.2929   0.4300   0.4894   0.5300

          k =-0.2500 0.1443 0.0000 ( 35323 PWs)   bands (ev):

   -62.8817 -62.8816 -37.0406 -37.0395 -37.0389 -37.0383 -36.8846 -36.8838
   -15.4270 -15.2827 -14.6416 -14.4653  -7.3320  -6.9144  -6.0384  -5.7928
    -5.7778  -5.4864  -4.5302  -4.5018  -3.8215  -3.8012  -3.7666  -3.1469
    -2.9170  -2.5981  -0.2003   0.2396   0.2741   0.3293   0.7228

          k =-0.3125 0.1804 0.0000 ( 35299 PWs)   bands (ev):

   -62.8739 -62.8737 -37.1155 -37.1141 -37.0240 -37.0237 -36.9021 -36.9013
   -15.0530 -14.9089 -14.4744 -14.3172  -7.3758  -7.1351  -6.3890  -6.0832
    -6.0553  -5.7318  -4.8183  -4.7889  -4.0699  -3.4848  -3.4406  -3.3732
    -3.1307  -2.8472  -0.0735   0.1411   0.2093   0.3716   1.0448

          k =-0.3750 0.2165 0.0000 ( 35224 PWs)   bands (ev):

   -62.8672 -62.8670 -37.1788 -37.1773 -37.0109 -37.0106 -36.9170 -36.9161
   -14.7038 -14.5596 -14.3181 -14.1809  -7.6248  -7.4636  -6.7199  -6.4577
    -6.2137  -5.8016  -5.0389  -5.0088  -4.2666  -3.5433  -3.2277  -3.1721
    -3.1115  -2.8013   0.1352   0.1748   0.1901   0.5349   1.3268

          k =-0.4375 0.2526 0.0000 ( 35152 PWs)   bands (ev):

   -62.8627 -62.8626 -37.2208 -37.2192 -37.0022 -37.0019 -36.9269 -36.9260
   -14.4528 -14.3059 -14.2001 -14.0816  -7.8662  -7.7212  -6.9653  -6.7287
    -6.3184  -5.9151  -5.1766  -5.1460  -4.3835  -3.6421  -3.0721  -3.0055
    -2.9443  -2.5847   0.1857   0.2110   0.4678   0.6977   1.4835

          k = 0.5000-0.2887 0.0000 ( 35026 PWs)   bands (ev):

   -62.8612 -62.8610 -37.2354 -37.2338 -36.9991 -36.9988 -36.9303 -36.9295
   -14.3629 -14.2133 -14.1529 -14.0436  -7.9622  -7.8180  -7.0548  -6.8248
    -6.3632  -5.9697  -5.2233  -5.1926  -4.4212  -3.6746  -3.0211  -2.9483
    -2.8539  -2.4693   0.2160   0.2334   0.6099   0.7727   1.5216

          k = 0.1250 0.0000 0.0000 ( 35467 PWs)   bands (ev):

   -62.8977 -62.8975 -37.0706 -37.0702 -36.8835 -36.8823 -36.8491 -36.8485
   -16.0960 -15.9530 -14.9432 -14.7349  -7.8390  -7.2873  -5.0252  -4.9919
    -4.9035  -4.4575  -4.4395  -4.2950  -3.8438  -3.8136  -3.3999  -2.9006
    -2.4356  -1.7758   0.3364   0.5108   0.5207   0.6855   0.7223

          k =-0.1250 0.1443 0.0000 ( 35370 PWs)   bands (ev):

   -62.8921 -62.8920 -37.0598 -37.0594 -36.9369 -36.9359 -36.8630 -36.8620
   -15.8743 -15.7308 -14.8428 -14.6452  -7.6145  -7.0705  -5.4266  -5.3625
    -5.2221  -4.7437  -4.2502  -4.2218  -4.2151  -4.1671  -3.3845  -2.8264
    -2.5434  -2.0417  -0.0024   0.3188   0.3966   0.4823   0.5802

          k = 0.1875 0.0361 0.0000 ( 35370 PWs)   bands (ev):

   -62.8921 -62.8920 -37.0598 -37.0594 -36.9371 -36.9358 -36.8628 -36.8622
   -15.8745 -15.7307 -14.8430 -14.6450  -7.6147  -7.0704  -5.4263  -5.3627
    -5.2216  -4.7442  -4.2486  -4.2266  -4.2115  -4.1681  -3.3862  -2.8255
    -2.5436  -2.0362  -0.0076   0.3175   0.3948   0.4877   0.5787

          k =-0.1875 0.1804 0.0000 ( 35362 PWs)   bands (ev):

   -62.8849 -62.8847 -37.0457 -37.0452 -37.0062 -37.0051 -36.8809 -36.8800
   -15.5675 -15.4234 -14.7042 -14.5212  -7.3769  -6.8926  -5.8566  -5.6971
    -5.5848  -5.2400  -4.6177  -4.5231  -3.9776  -3.9477  -3.5239  -2.9475
    -2.7761  -2.4170  -0.2303   0.1789   0.3098   0.4357   0.5078

          k = 0.2500 0.0722 0.0000 ( 35362 PWs)   bands (ev):

   -62.8849 -62.8847 -37.0456 -37.0452 -37.0063 -37.0050 -36.8808 -36.8801
   -15.5677 -15.4233 -14.7044 -14.5210  -7.3770  -6.8926  -5.8567  -5.6969
    -5.5845  -5.2400  -4.6184  -4.5233  -3.9779  -3.9479  -3.5246  -2.9470
    -2.7761  -2.4132  -0.2329   0.1786   0.3112   0.4379   0.5032

          k =-0.2500 0.2165 0.0000 ( 35310 PWs)   bands (ev):

   -62.8770 -62.8769 -37.0804 -37.0791 -37.0302 -37.0298 -36.9003 -36.8994
   -15.2078 -15.0638 -14.5423 -14.3772  -7.2912  -6.9764  -6.2075  -5.9470
    -5.8764  -5.6742  -4.9242  -4.8012  -3.8095  -3.7132  -3.6922  -3.1640
    -3.0029  -2.7360  -0.2478   0.1236   0.2351   0.4140   0.7817

          k = 0.3125 0.1083 0.0000 ( 35310 PWs)   bands (ev):

   -62.8770 -62.8769 -37.0804 -37.0790 -37.0302 -37.0299 -36.9002 -36.8994
   -15.2081 -15.0636 -14.5425 -14.3769  -7.2911  -6.9764  -6.2081  -5.9463
    -5.8769  -5.6731  -4.9252  -4.8016  -3.8128  -3.7110  -3.6917  -3.1629
    -3.0030  -2.7336  -0.2502   0.1250   0.2349   0.4148   0.7771

          k =-0.3125 0.2526 0.0000 ( 35243 PWs)   bands (ev):

   -62.8698 -62.8696 -37.1481 -37.1467 -37.0160 -37.0156 -36.9181 -36.9172
   -14.8429 -14.6991 -14.3784 -14.2328  -7.4576  -7.2716  -6.5485  -6.2918
    -6.1441  -5.7394  -5.1164  -4.9972  -4.0465  -3.6048  -3.5674  -3.3270
    -2.9992  -2.7930  -0.1096   0.1562   0.2810   0.4902   1.1125

          k = 0.3750 0.1443 0.0000 ( 35243 PWs)   bands (ev):

   -62.8698 -62.8696 -37.1482 -37.1467 -37.0160 -37.0156 -36.9181 -36.9172
   -14.8433 -14.6990 -14.3786 -14.2325  -7.4575  -7.2714  -6.5490  -6.2913
    -6.1444  -5.7387  -5.1170  -4.9980  -4.0478  -3.6061  -3.5667  -3.3235
    -3.0001  -2.7915  -0.1115   0.1561   0.2816   0.4910   1.1074

          k =-0.3750 0.2887 0.0000 ( 35169 PWs)   bands (ev):

   -62.8642 -62.8640 -37.1995 -37.1980 -37.0050 -37.0047 -36.9317 -36.9308
   -14.5383 -14.3931 -14.2383 -14.1124  -7.7116  -7.5632  -6.8696  -6.6513
    -6.2592  -5.8374  -5.2193  -5.1223  -4.2596  -3.6007  -3.4956  -3.3045
    -2.8368  -2.6155   0.0805   0.2272   0.4299   0.6320   1.4019

          k = 0.4375 0.1804 0.0000 ( 35169 PWs)   bands (ev):

   -62.8642 -62.8640 -37.1995 -37.1980 -37.0050 -37.0047 -36.9317 -36.9308
   -14.5386 -14.3930 -14.2384 -14.1121  -7.7116  -7.5630  -6.8699  -6.6510
    -6.2592  -5.8371  -5.2193  -5.1232  -4.2604  -3.6021  -3.4969  -3.2992
    -2.8372  -2.6152   0.0804   0.2254   0.4300   0.6329   1.3969

          k =-0.4375 0.3248 0.0000 ( 35128 PWs)   bands (ev):

   -62.8612 -62.8610 -37.2271 -37.2256 -36.9991 -36.9988 -36.9390 -36.9382
   -14.3662 -14.2171 -14.1512 -14.0406  -7.8810  -7.7374  -7.0546  -6.8485
    -6.3416  -5.9372  -5.2598  -5.1827  -4.3797  -3.6740  -3.4109  -3.2185
    -2.6926  -2.4302   0.1914   0.2572   0.6139   0.7794   1.5897

          k = 0.5000 0.2165 0.0000 ( 35128 PWs)   bands (ev):

   -62.8612 -62.8610 -37.2271 -37.2256 -36.9991 -36.9988 -36.9390 -36.9382
   -14.3663 -14.2170 -14.1512 -14.0405  -7.8810  -7.7373  -7.0547  -6.8484
    -6.3416  -5.9371  -5.2596  -5.1831  -4.3800  -3.6743  -3.4119  -3.2163
    -2.6925  -2.4303   0.1919   0.2563   0.6139   0.7794   1.5868

          k = 0.2500 0.0000 0.0000 ( 35331 PWs)   bands (ev):

   -62.8860 -62.8858 -37.0478 -37.0474 -36.9923 -36.9909 -36.8817 -36.8810
   -15.6161 -15.4717 -14.7258 -14.5400  -7.3951  -6.8887  -5.7764  -5.6517
    -5.4608  -5.0691  -4.7606  -4.6560  -4.0584  -4.0272  -3.3484  -2.8201
    -2.7121  -2.3190  -0.2508   0.1342   0.3207   0.3687   0.4533

          k =-0.1875 0.2526 0.0000 ( 35357 PWs)   bands (ev):

   -62.8787 -62.8786 -37.0556 -37.0545 -37.0335 -37.0332 -36.9051 -36.9041
   -15.2895 -15.1456 -14.5773 -14.4082  -7.2395  -6.8656  -6.0682  -5.7886
    -5.7588  -5.5348  -5.1999  -4.9802  -3.9658  -3.9100  -3.4499  -2.9530
    -2.9023  -2.6122  -0.3815   0.0176   0.2900   0.4544   0.5104

          k = 0.3125 0.0361 0.0000 ( 35357 PWs)   bands (ev):

   -62.8787 -62.8786 -37.0557 -37.0543 -37.0336 -37.0332 -36.9050 -36.9043
   -15.2900 -15.1453 -14.5777 -14.4076  -7.2393  -6.8658  -6.0690  -5.7818
    -5.7644  -5.5341  -5.2021  -4.9799  -3.9652  -3.9115  -3.4507  -2.9527
    -2.9019  -2.6064  -0.3846   0.0182   0.2905   0.4603   0.5019

          k =-0.2500 0.2887 0.0000 ( 35341 PWs)   bands (ev):

   -62.8715 -62.8713 -37.1179 -37.1166 -37.0193 -37.0190 -36.9288 -36.9278
   -14.9347 -14.7911 -14.4156 -14.2648  -7.2917  -7.0716  -6.3356  -6.1364
    -6.0709  -5.6828  -5.3674  -5.1094  -4.0456  -3.9485  -3.6670  -3.1124
    -2.9340  -2.7665  -0.3258   0.0768   0.3712   0.5175   0.7728

          k = 0.3750 0.0722 0.0000 ( 35341 PWs)   bands (ev):

   -62.8715 -62.8713 -37.1180 -37.1165 -37.0193 -37.0190 -36.9287 -36.9279
   -14.9354 -14.7908 -14.4160 -14.2641  -7.2913  -7.0715  -6.3366  -6.1309
    -6.0764  -5.6811  -5.3693  -5.1098  -4.0465  -3.9495  -3.6651  -3.1100
    -2.9342  -2.7647  -0.3279   0.0766   0.3719   0.5195   0.7656

          k =-0.3125 0.3248 0.0000 ( 35215 PWs)   bands (ev):

   -62.8653 -62.8651 -37.1701 -37.1687 -37.0072 -37.0069 -36.9490 -36.9480
   -14.6066 -14.4624 -14.2632 -14.1317  -7.4871  -7.3300  -6.7507  -6.5933
    -6.1721  -5.7107  -5.3908  -5.1611  -4.1567  -3.9658  -3.9040  -3.3392
    -2.8028  -2.6641  -0.1100   0.2509   0.4943   0.5943   1.0789

          k = 0.4375 0.1083 0.0000 ( 35215 PWs)   bands (ev):

   -62.8653 -62.8651 -37.1702 -37.1686 -37.0072 -37.0069 -36.9489 -36.9481
   -14.6073 -14.4621 -14.2635 -14.1310  -7.4870  -7.3296  -6.7513  -6.5924
    -6.1729  -5.7097  -5.3920  -5.1621  -4.1621  -3.9641  -3.9003  -3.3356
    -2.8038  -2.6635  -0.1101   0.2479   0.4954   0.5955   1.0701

          k =-0.3750 0.3608 0.0000 ( 35141 PWs)   bands (ev):

   -62.8612 -62.8610 -37.2047 -37.2032 -36.9992 -36.9988 -36.9624 -36.9615
   -14.3743 -14.2263 -14.1466 -14.0335  -7.6658  -7.5225  -7.0520  -6.9029
    -6.2722  -5.8374  -5.3528  -5.1680  -4.3099  -3.9824  -3.9232  -3.5142
    -2.6225  -2.4554   0.0909   0.2739   0.6498   0.8105   1.3473

          k = 0.5000 0.1443 0.0000 ( 35141 PWs)   bands (ev):

   -62.8612 -62.8610 -37.2048 -37.2032 -36.9992 -36.9988 -36.9624 -36.9615
   -14.3749 -14.2262 -14.1467 -14.0330  -7.6657  -7.5222  -7.0523  -6.9026
    -6.2724  -5.8371  -5.3529  -5.1690  -4.3125  -3.9819  -3.9225  -3.5108
    -2.6232  -2.4551   0.0919   0.2720   0.6498   0.8106   1.3374

          k =-0.4375 0.3969 0.0000 ( 35180 PWs)   bands (ev):

   -62.8597 -62.8595 -37.2169 -37.2153 -36.9963 -36.9960 -36.9671 -36.9663
   -14.2927 -14.1413 -14.0995 -13.9951  -7.7357  -7.5932  -7.1590  -7.0112
    -6.3227  -5.9039  -5.3209  -5.1629  -4.3993  -3.9808  -3.9130  -3.5677
    -2.5322  -2.3434   0.1458   0.2344   0.7594   0.9485   1.4742

          k = 0.3750 0.0000 0.0000 ( 35337 PWs)   bands (ev):

   -62.8721 -62.8719 -37.1044 -37.1029 -37.0205 -37.0202 -36.9354 -36.9347
   -14.9674 -14.8227 -14.4286 -14.2747  -7.2203  -6.9822  -6.1796  -6.0852
    -6.0371  -5.6675  -5.5120  -5.1765  -4.2018  -4.1285  -3.5259  -3.0012
    -2.9164  -2.7501  -0.4103   0.0344   0.4018   0.5345   0.6033

          k =-0.2500 0.3608 0.0000 ( 35241 PWs)   bands (ev):

   -62.8659 -62.8657 -37.1463 -37.1450 -37.0084 -37.0081 -36.9664 -36.9653
   -14.6442 -14.5007 -14.2751 -14.1409  -7.3151  -7.1464  -6.6466  -6.5556
    -6.0903  -5.5817  -5.5162  -5.1914  -4.5251  -4.4224  -3.7649  -3.1960
    -2.8151  -2.7215  -0.2362   0.2401   0.5381   0.5950   0.7937

          k = 0.4375 0.0361 0.0000 ( 35241 PWs)   bands (ev):

   -62.8659 -62.8657 -37.1464 -37.1448 -37.0085 -37.0081 -36.9663 -36.9655
   -14.6454 -14.5002 -14.2757 -14.1398  -7.3147  -7.1458  -6.6468  -6.5531
    -6.0958  -5.5791  -5.5188  -5.1912  -4.5246  -4.4232  -3.7623  -3.1933
    -2.8143  -2.7230  -0.2358   0.2380   0.5412   0.5946   0.7875

          k =-0.3125 0.3969 0.0000 ( 35167 PWs)   bands (ev):

   -62.8612 -62.8610 -37.1768 -37.1754 -36.9993 -36.9989 -36.9912 -36.9903
   -14.3824 -14.2357 -14.1417 -14.0263  -7.4164  -7.2690  -7.0463  -6.9536
    -6.1418  -5.6612  -5.4433  -5.1645  -4.7224  -4.5378  -4.0579  -3.4612
    -2.6235  -2.5278  -0.0316   0.2533   0.6827   0.8441   0.9788

          k = 0.5000 0.0722 0.0000 ( 35167 PWs)   bands (ev):

   -62.8612 -62.8610 -37.1769 -37.1753 -36.9994 -36.9990 -36.9910 -36.9903
   -14.3836 -14.2354 -14.1419 -14.0253  -7.4162  -7.2681  -7.0464  -6.9532
    -6.1434  -5.6609  -5.4443  -5.1652  -4.7271  -4.5349  -4.0536  -3.4598
    -2.6243  -2.5279  -0.0305   0.2520   0.6818   0.8448   0.9721

          k =-0.3750 0.4330 0.0000 ( 35162 PWs)   bands (ev):

   -62.8586 -62.8584 -37.1929 -37.1914 -37.0054 -37.0044 -36.9940 -36.9937
   -14.2399 -14.0878 -14.0564 -13.9557  -7.4731  -7.3271  -7.2567  -7.1674
    -6.2491  -5.8195  -5.3336  -5.1039  -4.8042  -4.5439  -4.2659  -3.6428
    -2.4437  -2.3225   0.0108   0.1070   0.8658   1.0625   1.1594

          k = 0.5625 0.1083 0.0000 ( 35162 PWs)   bands (ev):

   -62.8586 -62.8584 -37.1929 -37.1913 -37.0054 -37.0044 -36.9939 -36.9937
   -14.2404 -14.0877 -14.0565 -13.9552  -7.4730  -7.3265  -7.2569  -7.1674
    -6.2495  -5.8194  -5.3337  -5.1046  -4.8069  -4.5428  -4.2634  -3.6423
    -2.4441  -2.3224   0.0113   0.1065   0.8650   1.0633   1.1554

          k = 0.5000 0.0000 0.0000 ( 35195 PWs)   bands (ev):

   -62.8612 -62.8610 -37.1624 -37.1608 -37.0065 -37.0056 -36.9988 -36.9986
   -14.3872 -14.2392 -14.1398 -14.0220  -7.3006  -7.1473  -7.0437  -6.9725
    -6.0320  -5.5057  -5.4644  -5.1602  -5.0327  -4.9089  -4.0001  -3.4217
    -2.6325  -2.5654  -0.0833   0.2372   0.6692   0.8390   0.8661

          k =-0.3125 0.4691 0.0000 ( 35193 PWs)   bands (ev):

   -62.8580 -62.8578 -37.1670 -37.1657 -37.0390 -37.0378 -36.9929 -36.9926
   -14.2121 -14.0605 -14.0321 -13.9332  -7.3638  -7.2726  -7.1792  -7.0597
    -6.0890  -5.6746  -5.4528  -5.2653  -5.1690  -5.0004  -4.2833  -3.6678
    -2.3966  -2.3213  -0.1110  -0.0009   0.7434   1.0105   1.1503

          k = 0.5625 0.0361 0.0000 ( 35193 PWs)   bands (ev):

   -62.8580 -62.8578 -37.1671 -37.1655 -37.0389 -37.0380 -36.9929 -36.9926
   -14.2135 -14.0603 -14.0322 -13.9320  -7.3636  -7.2719  -7.1797  -7.0582
    -6.0914  -5.6750  -5.4570  -5.2628  -5.1698  -4.9996  -4.2786  -3.6685
    -2.3969  -2.3215  -0.1103  -0.0011   0.7411   1.0132   1.1460

          k =-0.3750 0.5052 0.0000 ( 35190 PWs)   bands (ev):

   -62.8569 -62.8567 -37.1669 -37.1654 -37.0521 -37.0511 -36.9907 -36.9905
   -14.1540 -13.9995 -13.9881 -13.8958  -7.4600  -7.3748  -7.1135  -6.9929
    -6.2037  -5.8533  -5.4937  -5.2156  -5.1416  -4.9662  -4.4252  -3.7812
    -2.2720  -2.1848  -0.1836  -0.1449   0.7527   1.1196   1.2109

          k = 0.6250 0.0000 0.0000 ( 35172 PWs)   bands (ev):

   -62.8563 -62.8561 -37.1459 -37.1443 -37.0805 -37.0796 -36.9896 -36.9893
   -14.1246 -13.9700 -13.9623 -13.8728  -7.5216  -7.4477  -6.8838  -6.7570
    -6.1339  -5.9890  -5.8768  -5.3709  -5.1375  -4.9163  -4.5069  -3.8486
    -2.1888  -2.1155  -0.2923  -0.2677   0.6564   1.1001   1.2428

     the Fermi energy is    -1.0650 ev

!    total energy              =    -989.16817626 Ry
     total all-electron energy =    -19385.828599 Ry
     estimated scf accuracy    <          3.8E-09 Ry
     smearing contrib. (-TS)   =       0.00002874 Ry
     internal energy E=F+TS    =    -989.16820500 Ry

     The total energy is F=E-TS. E is the sum of the following terms:
     one-electron contribution =  -10389.78990962 Ry
     hartree contribution      =    5197.96994363 Ry
     xc contribution           =     -59.62455606 Ry
     ewald contribution        =    4897.20542001 Ry
     one-center paw contrib.   =    -634.92910297 Ry

     convergence has been achieved in  28 iterations

     Writing all to output data dir ./tmp/gsfe_016/mos2_gsfe_016.save/ :
     XML data file, charge density, pseudopotentials, collected wavefunctions

     init_run     :     99.65s CPU    101.44s WALL (       1 calls)
     electrons    :   4566.26s CPU   4658.51s WALL (       1 calls)

     Called by init_run:
     wfcinit      :     53.20s CPU     53.46s WALL (       1 calls)
     potinit      :     43.66s CPU     44.09s WALL (       1 calls)
     hinit0       :      0.36s CPU      0.38s WALL (       1 calls)

     Called by electrons:
     c_bands      :   3765.17s CPU   3786.80s WALL (      29 calls)
     sum_band     :    605.15s CPU    638.03s WALL (      29 calls)
     v_of_rho     :    133.41s CPU    143.54s WALL (      29 calls)
     newd         :     64.12s CPU     92.58s WALL (      29 calls)
     PAW_pot      :      5.85s CPU      5.85s WALL (      29 calls)
     mix_rho      :     37.21s CPU     37.81s WALL (      29 calls)
     vdW_kernel   :     40.15s CPU     40.16s WALL (       1 calls)

     Called by c_bands:
     init_us_2    :     32.48s CPU     32.51s WALL (    4307 calls)
     init_us_2:cp :     32.48s CPU     32.50s WALL (    4307 calls)
     cegterg      :   3505.27s CPU   3526.41s WALL (    2117 calls)

     Called by *egterg:
     cdiaghg      :      3.60s CPU      3.60s WALL (    7469 calls)
     h_psi        :   2179.82s CPU   2181.86s WALL (    7615 calls)
     s_psi        :    471.89s CPU    472.33s WALL (    7615 calls)
     g_psi        :     15.12s CPU     15.14s WALL (    5425 calls)

     Called by h_psi:
     h_psi:calbec :    618.94s CPU    619.10s WALL (    7615 calls)
     vloc_psi     :   1081.75s CPU   1082.50s WALL (    7615 calls)
     add_vuspsi   :    472.22s CPU    472.36s WALL (    7615 calls)

     General routines
     calbec       :    873.47s CPU    873.70s WALL (    9732 calls)
     fft          :     35.25s CPU     35.27s WALL (    1826 calls)
     ffts         :     18.33s CPU     18.33s WALL (    3379 calls)
     fftw         :    956.71s CPU    957.26s WALL (  383601 calls)
     interpolate  :      0.84s CPU      0.85s WALL (      29 calls)

     Parallel routines

     PWSCF        :      1h17m CPU      1h19m WALL


   This run was terminated on:  10:55:10  15Jun2026            

=------------------------------------------------------------------------------=
   JOB DONE.
=------------------------------------------------------------------------------=
Note: The following floating-point exceptions are signalling: IEEE_UNDERFLOW_FLAG IEEE_DENORMAL
