Authorization required, but no authorization protocol specified

Authorization required, but no authorization protocol specified

Authorization required, but no authorization protocol specified

Authorization required, but no authorization protocol specified

Authorization required, but no authorization protocol specified

Authorization required, but no authorization protocol specified

Authorization required, but no authorization protocol specified

Authorization required, but no authorization protocol specified


     Program PWSCF v.7.3 starts on 15Jun2026 at 12:15:26 

     This program is part of the open-source Quantum ESPRESSO suite
     for quantum simulation of materials; please cite
         "P. Giannozzi et al., J. Phys.:Condens. Matter 21 395502 (2009);
         "P. Giannozzi et al., J. Phys.:Condens. Matter 29 465901 (2017);
         "P. Giannozzi et al., J. Chem. Phys. 152 154105 (2020);
          URL http://www.quantum-espresso.org", 
     in publications or presentations arising from this work. More details at
     http://www.quantum-espresso.org/quote

     Parallel version (MPI), running on     1 processors

     MPI processes distributed on     1 nodes
     8630 MiB available memory on the printing compute node when the environment starts

     Waiting for input...
     Reading input from standard input

     Current dimensions of program PWSCF are:
     Max number of different atomic species (ntypx) = 10
     Max number of k-points (npk) =  40000
     Max angular momentum in pseudopotentials (lmaxx) =  4
     file Mo.pbe-spn-kjpaw_psl.1.0.0.UPF: wavefunction(s)  4S 4D renormalized
     file S.pbe-n-kjpaw_psl.1.0.0.UPF: wavefunction(s)  3S 3P renormalized

     IMPORTANT: XC functional enforced from input :
     Exchange-correlation= VDW-DF2-B86R
                           (   1   4  26   0   2   0   0)
     Any further DFT definition will be discarded
     Please, verify this is what you really want


     Subspace diagonalization in iterative solution of the eigenvalue problem:
     a serial algorithm will be used


     G-vector sticks info
     --------------------
     sticks:   dense  smooth     PW     G-vecs:    dense   smooth      PW
     Sum        1573     769    223               797393   281171   43435

     Using Slab Decomposition



     bravais-lattice index     =            4
     lattice parameter (alat)  =       5.9715  a.u.
     unit-cell volume          =    2917.9067 (a.u.)^3
     number of atoms/cell      =            6
     number of atomic types    =            2
     number of electrons       =        52.00
     number of Kohn-Sham states=           31
     kinetic-energy cutoff     =      80.0000  Ry
     charge density cutoff     =     640.0000  Ry
     scf convergence threshold =      1.0E-08
     mixing beta               =       0.3000
     number of iterations used =            8  local-TF  mixing
     Exchange-correlation= VDW-DF2-B86R
                           (   1   4  26   0   2   0   0)

     celldm(1)=   5.971535  celldm(2)=   0.000000  celldm(3)=  15.822785
     celldm(4)=   0.000000  celldm(5)=   0.000000  celldm(6)=   0.000000

     crystal axes: (cart. coord. in units of alat)
               a(1) = (   1.000000   0.000000   0.000000 )  
               a(2) = (  -0.500000   0.866025   0.000000 )  
               a(3) = (   0.000000   0.000000  15.822785 )  

     reciprocal axes: (cart. coord. in units 2 pi/alat)
               b(1) = (  1.000000  0.577350 -0.000000 )  
               b(2) = (  0.000000  1.154701  0.000000 )  
               b(3) = (  0.000000 -0.000000  0.063200 )  


     PseudoPot. # 1 for Mo read from file:
     ./pseudo/Mo.pbe-spn-kjpaw_psl.1.0.0.UPF
     MD5 check sum: 4396e0c640fcce5c25f020efccf1ab12
     Pseudo is Projector augmented-wave + core cor, Zval = 14.0
     Generated using &quot;atomic&quot; code by A. Dal Corso  v.6.3
     Shape of augmentation charge: PSQ
     Using radial grid of 1229 points,  6 beta functions with: 
                l(1) =   0
                l(2) =   0
                l(3) =   1
                l(4) =   1
                l(5) =   2
                l(6) =   2
     Q(r) pseudized with 0 coefficients 


     PseudoPot. # 2 for S  read from file:
     ./pseudo/S.pbe-n-kjpaw_psl.1.0.0.UPF
     MD5 check sum: fb45dfebcf3e72a4e1bd4a866ec2e262
     Pseudo is Projector augmented-wave + core cor, Zval =  6.0
     Generated using &quot;atomic&quot; code by A. Dal Corso  v.6.3
     Shape of augmentation charge: PSQ
     Using radial grid of 1151 points,  6 beta functions with: 
                l(1) =   0
                l(2) =   0
                l(3) =   1
                l(4) =   1
                l(5) =   2
                l(6) =   2
     Q(r) pseudized with 0 coefficients 


     atomic species   valence    mass     pseudopotential
     Mo               14.00    95.96000     Mo( 1.00)
     S                 6.00    32.06000     S ( 1.00)

      2 Sym. Ops. (no inversion) found



   Cartesian axes

     site n.     atom                  positions (alat units)
         1        S      tau(   1) = (  -0.0000005   0.5773506   6.4231013  )
         2        Mo     tau(   2) = (   0.0000000   0.0000000   6.9204905  )
         3        S      tau(   3) = (  -0.0000005   0.5773506   7.4181013  )
         4        S      tau(   4) = (   0.0000005   0.6350850   8.4034019  )
         5        Mo     tau(   5) = (  -0.0000005   0.0577353   8.9017247  )
         6        S      tau(   6) = (   0.0000005   0.6350850   9.3996835  )

     number of k points=    73  Methfessel-Paxton smearing, width (Ry)=  0.0200
                       cart. coord. in units 2pi/alat
        k(    1) = (   0.0000000   0.0000000   0.0000000), wk =   0.0078125
        k(    2) = (   0.0000000   0.0721688   0.0000000), wk =   0.0156250
        k(    3) = (   0.0000000   0.1443376   0.0000000), wk =   0.0156250
        k(    4) = (   0.0000000   0.2165064   0.0000000), wk =   0.0156250
        k(    5) = (   0.0000000   0.2886751   0.0000000), wk =   0.0156250
        k(    6) = (   0.0000000   0.3608439   0.0000000), wk =   0.0156250
        k(    7) = (   0.0000000   0.4330127   0.0000000), wk =   0.0156250
        k(    8) = (   0.0000000   0.5051815   0.0000000), wk =   0.0156250
        k(    9) = (   0.0000000  -0.5773503   0.0000000), wk =   0.0078125
        k(   10) = (   0.0625000   0.1082532   0.0000000), wk =   0.0312500
        k(   11) = (   0.0625000   0.1804220   0.0000000), wk =   0.0312500
        k(   12) = (   0.0625000   0.2525907   0.0000000), wk =   0.0312500
        k(   13) = (   0.0625000   0.3247595   0.0000000), wk =   0.0312500
        k(   14) = (   0.0625000   0.3969283   0.0000000), wk =   0.0312500
        k(   15) = (   0.0625000   0.4690971   0.0000000), wk =   0.0312500
        k(   16) = (   0.0625000   0.5412659   0.0000000), wk =   0.0312500
        k(   17) = (   0.1250000   0.2165064   0.0000000), wk =   0.0312500
        k(   18) = (   0.1250000   0.2886751   0.0000000), wk =   0.0312500
        k(   19) = (   0.1250000   0.3608439   0.0000000), wk =   0.0312500
        k(   20) = (   0.1250000   0.4330127   0.0000000), wk =   0.0312500
        k(   21) = (   0.1250000   0.5051815   0.0000000), wk =   0.0312500
        k(   22) = (   0.1250000   0.5773503   0.0000000), wk =   0.0156250
        k(   23) = (   0.1875000   0.3247595   0.0000000), wk =   0.0312500
        k(   24) = (   0.1875000   0.3969283   0.0000000), wk =   0.0312500
        k(   25) = (   0.1875000   0.4690971   0.0000000), wk =   0.0312500
        k(   26) = (   0.1875000   0.5412659   0.0000000), wk =   0.0312500
        k(   27) = (   0.2500000   0.4330127   0.0000000), wk =   0.0312500
        k(   28) = (   0.2500000   0.5051815   0.0000000), wk =   0.0312500
        k(   29) = (   0.2500000   0.5773503   0.0000000), wk =   0.0156250
        k(   30) = (   0.3125000   0.5412659   0.0000000), wk =   0.0312500
        k(   31) = (  -0.0625000   0.0360844   0.0000000), wk =   0.0312500
        k(   32) = (  -0.1250000   0.0721688   0.0000000), wk =   0.0312500
        k(   33) = (  -0.1875000   0.1082532   0.0000000), wk =   0.0312500
        k(   34) = (  -0.2500000   0.1443376   0.0000000), wk =   0.0312500
        k(   35) = (  -0.3125000   0.1804220   0.0000000), wk =   0.0312500
        k(   36) = (  -0.3750000   0.2165064   0.0000000), wk =   0.0312500
        k(   37) = (  -0.4375000   0.2525907   0.0000000), wk =   0.0312500
        k(   38) = (   0.5000000  -0.2886751   0.0000000), wk =   0.0156250
        k(   39) = (   0.1250000   0.0000000   0.0000000), wk =   0.0156250
        k(   40) = (  -0.1250000   0.1443376   0.0000000), wk =   0.0312500
        k(   41) = (   0.1875000   0.0360844   0.0000000), wk =   0.0312500
        k(   42) = (  -0.1875000   0.1804220   0.0000000), wk =   0.0312500
        k(   43) = (   0.2500000   0.0721688   0.0000000), wk =   0.0312500
        k(   44) = (  -0.2500000   0.2165064   0.0000000), wk =   0.0312500
        k(   45) = (   0.3125000   0.1082532   0.0000000), wk =   0.0312500
        k(   46) = (  -0.3125000   0.2525907   0.0000000), wk =   0.0312500
        k(   47) = (   0.3750000   0.1443376   0.0000000), wk =   0.0312500
        k(   48) = (  -0.3750000   0.2886751   0.0000000), wk =   0.0312500
        k(   49) = (   0.4375000   0.1804220   0.0000000), wk =   0.0312500
        k(   50) = (  -0.4375000   0.3247595   0.0000000), wk =   0.0312500
        k(   51) = (   0.5000000   0.2165064   0.0000000), wk =   0.0312500
        k(   52) = (   0.2500000   0.0000000   0.0000000), wk =   0.0156250
        k(   53) = (  -0.1875000   0.2525907   0.0000000), wk =   0.0312500
        k(   54) = (   0.3125000   0.0360844   0.0000000), wk =   0.0312500
        k(   55) = (  -0.2500000   0.2886751   0.0000000), wk =   0.0312500
        k(   56) = (   0.3750000   0.0721688   0.0000000), wk =   0.0312500
        k(   57) = (  -0.3125000   0.3247595   0.0000000), wk =   0.0312500
        k(   58) = (   0.4375000   0.1082532   0.0000000), wk =   0.0312500
        k(   59) = (  -0.3750000   0.3608439   0.0000000), wk =   0.0312500
        k(   60) = (   0.5000000   0.1443376   0.0000000), wk =   0.0312500
        k(   61) = (  -0.4375000   0.3969283   0.0000000), wk =   0.0312500
        k(   62) = (   0.3750000   0.0000000   0.0000000), wk =   0.0156250
        k(   63) = (  -0.2500000   0.3608439   0.0000000), wk =   0.0312500
        k(   64) = (   0.4375000   0.0360844   0.0000000), wk =   0.0312500
        k(   65) = (  -0.3125000   0.3969283   0.0000000), wk =   0.0312500
        k(   66) = (   0.5000000   0.0721688   0.0000000), wk =   0.0312500
        k(   67) = (  -0.3750000   0.4330127   0.0000000), wk =   0.0312500
        k(   68) = (   0.5625000   0.1082532   0.0000000), wk =   0.0312500
        k(   69) = (   0.5000000   0.0000000   0.0000000), wk =   0.0156250
        k(   70) = (  -0.3125000   0.4690971   0.0000000), wk =   0.0312500
        k(   71) = (   0.5625000   0.0360844   0.0000000), wk =   0.0312500
        k(   72) = (  -0.3750000   0.5051815   0.0000000), wk =   0.0312500
        k(   73) = (   0.6250000   0.0000000   0.0000000), wk =   0.0156250

     Dense  grid:   797393 G-vectors     FFT dimensions: (  50,  50, 768)

     Smooth grid:   281171 G-vectors     FFT dimensions: (  36,  36, 540)

     Estimated max dynamical RAM per process >       4.00 GB

     Initial potential from superposition of free atoms

     starting charge      51.9981, renormalised to      52.0000

     negative rho (up, down):  1.894E-04 0.000E+00


     %%%%%%%%%%%%%%%%%%%%%%%%%%%%%%%%%%%%%%%%%%%%%%%%%%%%%%%%%%%%%%%%%%%%%%%%
     %                                                                      %
     % You are using vdW-DF, which was implemented by the Thonhauser group. %
     % Please cite the following two papers that made this development      %
     % possible and the two reviews that describe the various versions:     %
     %                                                                      %
     %   T. Thonhauser et al., PRL 115, 136402 (2015).                      %
     %   T. Thonhauser et al., PRB 76, 125112 (2007).                       %
     %   K. Berland et al., Rep. Prog. Phys. 78, 066501 (2015).             %
     %   D.C. Langreth et al., J. Phys.: Condens. Matter 21, 084203 (2009). %
     %                                                                      %
     % If you are calculating stress with vdW-DF, please also cite:         %
     %                                                                      %
     %   R. Sabatini et al., J. Phys.: Condens. Matter 24, 424209 (2012).   %
     %                                                                      %
     %%%%%%%%%%%%%%%%%%%%%%%%%%%%%%%%%%%%%%%%%%%%%%%%%%%%%%%%%%%%%%%%%%%%%%%%

     %%%%%%%%%%%%%%%%%%%%%%%%%%%%%%%%%%%%%%%%%%%%%%%%%%%%%%%%%%%%%%%%%%%%%%%%
     %                                                                      %
     %  vdW-DF NEWS:                                                        %
     %                                                                      %
     %  * vdW-DF3 is now available. DOI: 10.1021/acs.jctc.0c00471           %
     %    use with input_dft = 'vdW-DF3-opt1' or 'vdW-DF3-opt2'             %
     %                                                                      %
     %  * Unscreened and range-separated hybrid vdW-DF-cx functionals       %
     %    DOI: 10.1063/1.4986522 and 10.1088/1361-648X/ac2ad2               %
     %    use with input_dft = 'vdW-DF-cx0'    and 'vdW-DF-ahcx'            %
     %  * Unscreened and range-separated hybrid vdW-DF2-b86r functionals    %
     %    DOI: 10.1063/1.4986522 and DOI: 10.1103/PhysRevX.12.041003        %
     %    use with input_dft = 'vdW-DF2-br0' and 'vdW-DF2-ahbr'             %
     %                                                                      %
     %%%%%%%%%%%%%%%%%%%%%%%%%%%%%%%%%%%%%%%%%%%%%%%%%%%%%%%%%%%%%%%%%%%%%%%%


     Starting wfcs are   36 randomized atomic wfcs
     Checking if some PAW data can be deallocated... 

     total cpu time spent up to now is      103.8 secs

     Self-consistent Calculation

     iteration #  1     ecut=    80.00 Ry     beta= 0.30
     Davidson diagonalization with overlap
     ethr =  1.00E-02,  avg # of iterations =  2.5

     Threshold (ethr) on eigenvalues was too large:
     Diagonalizing with lowered threshold

     Davidson diagonalization with overlap
     ethr =  2.84E-04,  avg # of iterations =  3.8

     negative rho (up, down):  6.956E-05 0.000E+00

     total cpu time spent up to now is      462.8 secs

     total energy              =    -989.20856138 Ry
     estimated scf accuracy    <       0.23367216 Ry

     iteration #  2     ecut=    80.00 Ry     beta= 0.30
     Davidson diagonalization with overlap
     ethr =  4.49E-04,  avg # of iterations =  1.0

     negative rho (up, down):  9.636E-05 0.000E+00

     total cpu time spent up to now is      601.7 secs

     total energy              =    -989.13310610 Ry
     estimated scf accuracy    <       0.16609275 Ry

     iteration #  3     ecut=    80.00 Ry     beta= 0.30
     Davidson diagonalization with overlap
     ethr =  3.19E-04,  avg # of iterations =  2.0

     negative rho (up, down):  3.508E-05 0.000E+00

     total cpu time spent up to now is      774.6 secs

     total energy              =    -989.16693303 Ry
     estimated scf accuracy    <       0.01518786 Ry

     iteration #  4     ecut=    80.00 Ry     beta= 0.30
     Davidson diagonalization with overlap
     ethr =  2.92E-05,  avg # of iterations =  2.2

     negative rho (up, down):  1.182E-05 0.000E+00

     total cpu time spent up to now is      948.7 secs

     total energy              =    -989.16748071 Ry
     estimated scf accuracy    <       0.00784323 Ry

     iteration #  5     ecut=    80.00 Ry     beta= 0.30
     Davidson diagonalization with overlap
     ethr =  1.51E-05,  avg # of iterations =  3.4

     negative rho (up, down):  3.871E-06 0.000E+00

     total cpu time spent up to now is     1103.6 secs

     total energy              =    -989.16781900 Ry
     estimated scf accuracy    <       0.00260312 Ry

     iteration #  6     ecut=    80.00 Ry     beta= 0.30
     Davidson diagonalization with overlap
     ethr =  5.01E-06,  avg # of iterations =  4.1

     negative rho (up, down):  6.376E-07 0.000E+00

     total cpu time spent up to now is     1251.0 secs

     total energy              =    -989.16755055 Ry
     estimated scf accuracy    <       0.00236014 Ry

     iteration #  7     ecut=    80.00 Ry     beta= 0.30
     Davidson diagonalization with overlap
     ethr =  4.54E-06,  avg # of iterations =  1.7

     negative rho (up, down):  5.636E-07 0.000E+00

     total cpu time spent up to now is     1393.5 secs

     total energy              =    -989.16733997 Ry
     estimated scf accuracy    <       0.00234446 Ry

     iteration #  8     ecut=    80.00 Ry     beta= 0.30
     Davidson diagonalization with overlap
     ethr =  4.51E-06,  avg # of iterations =  3.3

     negative rho (up, down):  8.249E-04 0.000E+00

     total cpu time spent up to now is     1564.3 secs

     total energy              =    -989.16674415 Ry
     estimated scf accuracy    <       0.00383240 Ry

     iteration #  9     ecut=    80.00 Ry     beta= 0.30
     Davidson diagonalization with overlap
     ethr =  4.51E-06,  avg # of iterations =  2.2

     negative rho (up, down):  2.007E-03 0.000E+00

     total cpu time spent up to now is     1733.1 secs

     total energy              =    -989.16714616 Ry
     estimated scf accuracy    <       0.00076543 Ry

     iteration # 10     ecut=    80.00 Ry     beta= 0.30
     Davidson diagonalization with overlap
     ethr =  1.47E-06,  avg # of iterations =  3.5

     negative rho (up, down):  2.776E-03 0.000E+00

     total cpu time spent up to now is     1882.7 secs

     total energy              =    -989.16717210 Ry
     estimated scf accuracy    <       0.00049459 Ry

     iteration # 11     ecut=    80.00 Ry     beta= 0.30
     Davidson diagonalization with overlap
     ethr =  9.51E-07,  avg # of iterations =  2.2

     negative rho (up, down):  4.675E-03 0.000E+00

     total cpu time spent up to now is     2049.1 secs

     total energy              =    -989.16719954 Ry
     estimated scf accuracy    <       0.00048648 Ry

     iteration # 12     ecut=    80.00 Ry     beta= 0.30
     Davidson diagonalization with overlap
     ethr =  9.36E-07,  avg # of iterations =  2.8

     negative rho (up, down):  5.345E-03 0.000E+00

     total cpu time spent up to now is     2202.9 secs

     total energy              =    -989.16707328 Ry
     estimated scf accuracy    <       0.00064426 Ry

     iteration # 13     ecut=    80.00 Ry     beta= 0.30
     Davidson diagonalization with overlap
     ethr =  9.36E-07,  avg # of iterations =  2.0

     negative rho (up, down):  5.673E-03 0.000E+00

     total cpu time spent up to now is     2366.2 secs

     total energy              =    -989.16704553 Ry
     estimated scf accuracy    <       0.00037428 Ry

     iteration # 14     ecut=    80.00 Ry     beta= 0.30
     Davidson diagonalization with overlap
     ethr =  7.20E-07,  avg # of iterations =  2.0

     negative rho (up, down):  5.461E-03 0.000E+00

     total cpu time spent up to now is     2523.8 secs

     total energy              =    -989.16710614 Ry
     estimated scf accuracy    <       0.00017759 Ry

     iteration # 15     ecut=    80.00 Ry     beta= 0.30
     Davidson diagonalization with overlap
     ethr =  3.42E-07,  avg # of iterations =  2.0

     negative rho (up, down):  5.097E-03 0.000E+00

     total cpu time spent up to now is     2674.8 secs

     total energy              =    -989.16712360 Ry
     estimated scf accuracy    <       0.00012543 Ry

     iteration # 16     ecut=    80.00 Ry     beta= 0.30
     Davidson diagonalization with overlap
     ethr =  2.41E-07,  avg # of iterations =  1.1

     negative rho (up, down):  3.134E-03 0.000E+00

     total cpu time spent up to now is     2816.1 secs

     total energy              =    -989.16706758 Ry
     estimated scf accuracy    <       0.00011177 Ry

     iteration # 17     ecut=    80.00 Ry     beta= 0.30
     Davidson diagonalization with overlap
     ethr =  2.15E-07,  avg # of iterations =  2.0

     negative rho (up, down):  2.846E-03 0.000E+00

     total cpu time spent up to now is     2987.6 secs

     total energy              =    -989.16708297 Ry
     estimated scf accuracy    <       0.00010406 Ry

     iteration # 18     ecut=    80.00 Ry     beta= 0.30
     Davidson diagonalization with overlap
     ethr =  2.00E-07,  avg # of iterations =  1.2

     negative rho (up, down):  2.263E-03 0.000E+00

     total cpu time spent up to now is     3129.0 secs

     total energy              =    -989.16710672 Ry
     estimated scf accuracy    <       0.00006980 Ry

     iteration # 19     ecut=    80.00 Ry     beta= 0.30
     Davidson diagonalization with overlap
     ethr =  1.34E-07,  avg # of iterations =  2.0

     negative rho (up, down):  1.236E-03 0.000E+00

     total cpu time spent up to now is     3297.2 secs

     total energy              =    -989.16713453 Ry
     estimated scf accuracy    <       0.00001655 Ry

     iteration # 20     ecut=    80.00 Ry     beta= 0.30
     Davidson diagonalization with overlap
     ethr =  3.18E-08,  avg # of iterations =  2.0

     negative rho (up, down):  6.554E-04 0.000E+00

     total cpu time spent up to now is     3454.7 secs

     total energy              =    -989.16715308 Ry
     estimated scf accuracy    <       0.00000746 Ry

     iteration # 21     ecut=    80.00 Ry     beta= 0.30
     Davidson diagonalization with overlap
     ethr =  1.43E-08,  avg # of iterations =  2.2

     negative rho (up, down):  4.632E-04 0.000E+00

     total cpu time spent up to now is     3622.3 secs

     total energy              =    -989.16715746 Ry
     estimated scf accuracy    <       0.00000210 Ry

     iteration # 22     ecut=    80.00 Ry     beta= 0.30
     Davidson diagonalization with overlap
     ethr =  4.03E-09,  avg # of iterations =  2.0

     negative rho (up, down):  3.139E-04 0.000E+00

     total cpu time spent up to now is     3770.3 secs

     total energy              =    -989.16715760 Ry
     estimated scf accuracy    <       0.00000078 Ry

     iteration # 23     ecut=    80.00 Ry     beta= 0.30
     Davidson diagonalization with overlap
     ethr =  1.49E-09,  avg # of iterations =  2.2

     negative rho (up, down):  2.565E-04 0.000E+00

     total cpu time spent up to now is     3930.0 secs

     total energy              =    -989.16715761 Ry
     estimated scf accuracy    <       0.00000009 Ry

     iteration # 24     ecut=    80.00 Ry     beta= 0.30
     Davidson diagonalization with overlap
     ethr =  1.77E-10,  avg # of iterations =  2.8

     negative rho (up, down):  2.075E-04 0.000E+00

     total cpu time spent up to now is     4094.1 secs

     total energy              =    -989.16715776 Ry
     estimated scf accuracy    <       0.00000007 Ry

     iteration # 25     ecut=    80.00 Ry     beta= 0.30
     Davidson diagonalization with overlap
     ethr =  1.28E-10,  avg # of iterations =  2.1

     negative rho (up, down):  2.020E-04 0.000E+00

     total cpu time spent up to now is     4259.7 secs

     total energy              =    -989.16715758 Ry
     estimated scf accuracy    <       0.00000004 Ry

     iteration # 26     ecut=    80.00 Ry     beta= 0.30
     Davidson diagonalization with overlap
     ethr =  7.54E-11,  avg # of iterations =  1.5

     negative rho (up, down):  2.111E-04 0.000E+00

     total cpu time spent up to now is     4401.9 secs

     total energy              =    -989.16715724 Ry
     estimated scf accuracy    <       0.00000002 Ry

     iteration # 27     ecut=    80.00 Ry     beta= 0.30
     Davidson diagonalization with overlap
     ethr =  3.58E-11,  avg # of iterations =  2.7

     negative rho (up, down):  2.188E-04 0.000E+00

     total cpu time spent up to now is     4570.0 secs

     total energy              =    -989.16715723 Ry
     estimated scf accuracy    <       0.00000002 Ry

     iteration # 28     ecut=    80.00 Ry     beta= 0.30
     Davidson diagonalization with overlap
     ethr =  3.04E-11,  avg # of iterations =  2.1

     negative rho (up, down):  2.208E-04 0.000E+00

     total cpu time spent up to now is     4726.2 secs

     End of self-consistent calculation

          k = 0.0000 0.0000 0.0000 ( 35507 PWs)   bands (ev):

   -62.9027 -62.9016 -37.0804 -37.0787 -36.8390 -36.8388 -36.8368 -36.8367
   -16.2727 -16.1285 -15.0244 -14.8055  -8.0397  -7.4835  -4.6388  -4.6387
    -4.6204  -4.6200  -4.5520  -3.5303  -3.5300  -3.5031  -3.5024  -3.4180
    -2.4106  -1.6102   0.6680   0.6712   0.7666   0.7679   0.8978

          k = 0.0000 0.0722 0.0000 ( 35493 PWs)   bands (ev):

   -62.9011 -62.9000 -37.0774 -37.0757 -36.8544 -36.8524 -36.8425 -36.8402
   -16.2136 -16.0690 -14.9977 -14.7815  -7.9724  -7.4148  -4.7790  -4.7544
    -4.6913  -4.5768  -4.5574  -3.9377  -3.6275  -3.5988  -3.4783  -3.0834
    -2.4139  -1.6558   0.5554   0.6763   0.7214   0.7354   0.8768

          k = 0.0000 0.1443 0.0000 ( 35435 PWs)   bands (ev):

   -62.8967 -62.8956 -37.0687 -37.0670 -36.8985 -36.8964 -36.8525 -36.8503
   -16.0413 -15.8959 -14.9197 -14.7115  -7.7853  -7.2272  -5.1428  -5.0973
    -5.0080  -4.4526  -4.3988  -4.3769  -3.8786  -3.8483  -3.4540  -2.8944
    -2.4619  -1.8339   0.2309   0.4732   0.4827   0.6261   0.7204

          k = 0.0000 0.2165 0.0000 ( 35345 PWs)   bands (ev):

   -62.8900 -62.8889 -37.0557 -37.0540 -36.9639 -36.9618 -36.8675 -36.8652
   -15.7711 -15.6247 -14.7974 -14.6020  -7.5322  -6.9955  -5.6064  -5.5065
    -5.3917  -4.9805  -4.2080  -4.1723  -4.1233  -4.0997  -3.5816  -2.9390
    -2.6342  -2.1819  -0.1027   0.2951   0.4167   0.4922   0.5345

          k = 0.0000 0.2887 0.0000 ( 35323 PWs)   bands (ev):

   -62.8822 -62.8811 -37.0411 -37.0395 -37.0391 -37.0376 -36.8852 -36.8829
   -15.4293 -15.2822 -14.6434 -14.4646  -7.3370  -6.9138  -6.0435  -5.7942
    -5.7758  -5.4850  -4.5337  -4.4987  -3.8257  -3.8045  -3.7687  -3.1441
    -2.9188  -2.5884  -0.2032   0.2340   0.2705   0.3389   0.7194

          k = 0.0000 0.3608 0.0000 ( 35299 PWs)   bands (ev):

   -62.8743 -62.8732 -37.1158 -37.1134 -37.0249 -37.0233 -36.9027 -36.9004
   -15.0556 -14.9083 -14.4761 -14.3163  -7.3786  -7.1350  -6.3953  -6.0819
    -6.0589  -5.7285  -4.8220  -4.7857  -4.0794  -3.4876  -3.4364  -3.3714
    -3.1326  -2.8384  -0.0763   0.1332   0.2166   0.3732   1.0416

          k = 0.0000 0.4330 0.0000 ( 35224 PWs)   bands (ev):

   -62.8676 -62.8665 -37.1791 -37.1766 -37.0118 -37.0102 -36.9176 -36.9152
   -14.7069 -14.5590 -14.3194 -14.1799  -7.6265  -7.4636  -6.7247  -6.4571
    -6.2191  -5.7987  -5.0427  -5.0055  -4.2765  -3.5378  -3.2342  -3.1639
    -3.1163  -2.7932   0.1297   0.1816   0.1856   0.5366   1.3240

          k = 0.0000 0.5052 0.0000 ( 35152 PWs)   bands (ev):

   -62.8631 -62.8621 -37.2211 -37.2185 -37.0031 -37.0015 -36.9275 -36.9251
   -14.4565 -14.3053 -14.2009 -14.0803  -7.8677  -7.7212  -6.9694  -6.7283
    -6.3241  -5.9126  -5.1804  -5.1426  -4.3939  -3.6361  -3.0798  -2.9932
    -2.9530  -2.5758   0.1825   0.2140   0.4659   0.6985   1.4812

          k = 0.0000-0.5774 0.0000 ( 35026 PWs)   bands (ev):

   -62.8616 -62.8605 -37.2357 -37.2332 -37.0000 -36.9984 -36.9309 -36.9286
   -14.3670 -14.2127 -14.1534 -14.0421  -7.9637  -7.8181  -7.0586  -6.8245
    -6.3688  -5.9673  -5.2271  -5.1892  -4.4317  -3.6685  -3.0295  -2.9365
    -2.8624  -2.4598   0.2139   0.2355   0.6087   0.7727   1.5196

          k = 0.0625 0.1083 0.0000 ( 35467 PWs)   bands (ev):

   -62.8981 -62.8970 -37.0715 -37.0698 -36.8838 -36.8817 -36.8497 -36.8475
   -16.0979 -15.9527 -14.9453 -14.7344  -7.8447  -7.2859  -5.0271  -4.9909
    -4.9079  -4.4589  -4.4380  -4.2936  -3.8468  -3.8104  -3.4060  -2.8982
    -2.4383  -1.7656   0.3323   0.5104   0.5218   0.6684   0.7258

          k = 0.0625 0.1804 0.0000 ( 35370 PWs)   bands (ev):

   -62.8926 -62.8915 -37.0607 -37.0590 -36.9373 -36.9352 -36.8635 -36.8612
   -15.8765 -15.7304 -14.8450 -14.6445  -7.6206  -7.0691  -5.4289  -5.3614
    -5.2247  -4.7429  -4.2533  -4.2221  -4.2149  -4.1644  -3.3948  -2.8230
    -2.5458  -2.0259  -0.0104   0.3199   0.3942   0.4740   0.5868

          k = 0.0625 0.2526 0.0000 ( 35362 PWs)   bands (ev):

   -62.8853 -62.8842 -37.0465 -37.0449 -37.0066 -37.0043 -36.8814 -36.8791
   -15.5699 -15.4229 -14.7062 -14.5204  -7.3826  -6.8917  -5.8607  -5.6956
    -5.5858  -5.2389  -4.6219  -4.5200  -3.9801  -3.9451  -3.5350  -2.9447
    -2.7779  -2.4029  -0.2359   0.1824   0.3005   0.4467   0.4991

          k = 0.0625 0.3248 0.0000 ( 35310 PWs)   bands (ev):

   -62.8774 -62.8764 -37.0807 -37.0784 -37.0311 -37.0295 -36.9008 -36.8985
   -15.2105 -15.0632 -14.5442 -14.3762  -7.2950  -6.9762  -6.2145  -5.9476
    -5.8763  -5.6705  -4.9288  -4.7981  -3.8193  -3.7118  -3.6945  -3.1597
    -3.0050  -2.7244  -0.2536   0.1298   0.2272   0.4193   0.7748

          k = 0.0625 0.3969 0.0000 ( 35243 PWs)   bands (ev):

   -62.8702 -62.8691 -37.1484 -37.1460 -37.0168 -37.0152 -36.9186 -36.9163
   -14.8460 -14.6984 -14.3801 -14.2317  -7.4595  -7.2715  -6.5542  -6.2905
    -6.1497  -5.7356  -5.1208  -4.9943  -4.0578  -3.6074  -3.5660  -3.3161
    -3.0033  -2.7850  -0.1155   0.1612   0.2767   0.4934   1.1049

          k = 0.0625 0.4691 0.0000 ( 35169 PWs)   bands (ev):

   -62.8646 -62.8635 -37.1998 -37.1973 -37.0059 -37.0043 -36.9323 -36.9299
   -14.5420 -14.3924 -14.2394 -14.1110  -7.7131  -7.5631  -6.8739  -6.6504
    -6.2655  -5.8345  -5.2232  -5.1195  -4.2713  -3.5976  -3.4997  -3.2923
    -2.8408  -2.6094   0.0768   0.2295   0.4276   0.6339   1.3944

          k = 0.0625 0.5413 0.0000 ( 35128 PWs)   bands (ev):

   -62.8616 -62.8605 -37.2275 -37.2249 -37.0000 -36.9984 -36.9396 -36.9373
   -14.3704 -14.2165 -14.1518 -14.0391  -7.8825  -7.7373  -7.0584  -6.8478
    -6.3476  -5.9348  -5.2634  -5.1796  -4.3916  -3.6688  -3.4151  -3.2097
    -2.6960  -2.4242   0.1899   0.2583   0.6126   0.7799   1.5852

          k = 0.1250 0.2165 0.0000 ( 35331 PWs)   bands (ev):

   -62.8864 -62.8853 -37.0487 -37.0470 -36.9926 -36.9903 -36.8823 -36.8800
   -15.6182 -15.4713 -14.7277 -14.5394  -7.4009  -6.8877  -5.7803  -5.6497
    -5.4631  -5.0682  -4.7638  -4.6528  -4.0605  -4.0247  -3.3598  -2.8181
    -2.7137  -2.3065  -0.2545   0.1377   0.3135   0.3651   0.4585

          k = 0.1250 0.2887 0.0000 ( 35357 PWs)   bands (ev):

   -62.8792 -62.8781 -37.0560 -37.0537 -37.0344 -37.0328 -36.9056 -36.9033
   -15.2923 -15.1449 -14.5794 -14.4070  -7.2439  -6.8654  -6.0755  -5.7843
    -5.7607  -5.5331  -5.2052  -4.9766  -3.9686  -3.9081  -3.4626  -2.9504
    -2.9038  -2.5938  -0.3887   0.0216   0.2844   0.4654   0.4987

          k = 0.1250 0.3608 0.0000 ( 35341 PWs)   bands (ev):

   -62.8719 -62.8708 -37.1183 -37.1159 -37.0202 -37.0186 -36.9293 -36.9270
   -14.9380 -14.7903 -14.4175 -14.2633  -7.2938  -7.0715  -6.3422  -6.1309
    -6.0811  -5.6773  -5.3723  -5.1065  -4.0509  -3.9465  -3.6753  -3.1022
    -2.9376  -2.7569  -0.3320   0.0800   0.3675   0.5232   0.7624

          k = 0.1250 0.4330 0.0000 ( 35215 PWs)   bands (ev):

   -62.8657 -62.8646 -37.1705 -37.1680 -37.0081 -37.0065 -36.9495 -36.9471
   -14.6105 -14.4615 -14.2647 -14.1300  -7.4886  -7.3297  -6.7549  -6.5914
    -6.1810  -5.7066  -5.3951  -5.1589  -4.1696  -3.9627  -3.9063  -3.3239
    -2.8074  -2.6591  -0.1141   0.2519   0.4924   0.5973   1.0661

          k = 0.1250 0.5052 0.0000 ( 35141 PWs)   bands (ev):

   -62.8616 -62.8605 -37.2051 -37.2026 -37.0000 -36.9984 -36.9630 -36.9606
   -14.3789 -14.2256 -14.1474 -14.0315  -7.6673  -7.5223  -7.0557  -6.9015
    -6.2797  -5.8348  -5.3560  -5.1659  -4.3264  -3.9826  -3.9221  -3.4971
    -2.6258  -2.4520   0.0891   0.2745   0.6480   0.8121   1.3313

          k = 0.1250 0.5774 0.0000 ( 35180 PWs)   bands (ev):

   -62.8601 -62.8590 -37.2172 -37.2146 -36.9972 -36.9956 -36.9678 -36.9654
   -14.2974 -14.1408 -14.0999 -13.9932  -7.7373  -7.5931  -7.1625  -7.0100
    -6.3295  -5.9018  -5.3237  -5.1603  -4.4153  -3.9815  -3.9126  -3.5518
    -2.5345  -2.3405   0.1445   0.2353   0.7581   0.9499   1.4608

          k = 0.1875 0.3248 0.0000 ( 35337 PWs)   bands (ev):

   -62.8725 -62.8714 -37.1047 -37.1023 -37.0214 -37.0198 -36.9361 -36.9337
   -14.9701 -14.8222 -14.4302 -14.2738  -7.2232  -6.9821  -6.1834  -6.0984
    -6.0313  -5.6637  -5.5143  -5.1729  -4.2064  -4.1244  -3.5385  -2.9939
    -2.9199  -2.7396  -0.4143   0.0375   0.3975   0.5369   0.6012

          k = 0.1875 0.3969 0.0000 ( 35241 PWs)   bands (ev):

   -62.8663 -62.8652 -37.1467 -37.1442 -37.0093 -37.0077 -36.9669 -36.9645
   -14.6486 -14.4996 -14.2769 -14.1387  -7.3165  -7.1459  -6.6495  -6.5520
    -6.1069  -5.5742  -5.5220  -5.1878  -4.5279  -4.4204  -3.7751  -3.1790
    -2.8187  -2.7184  -0.2398   0.2419   0.5368   0.5972   0.7831

          k = 0.1875 0.4691 0.0000 ( 35167 PWs)   bands (ev):

   -62.8616 -62.8605 -37.1772 -37.1747 -37.0000 -36.9985 -36.9919 -36.9895
   -14.3876 -14.2347 -14.1427 -14.0237  -7.4179  -7.2682  -7.0495  -6.9516
    -6.1532  -5.6575  -5.4475  -5.1629  -4.7300  -4.5336  -4.0657  -3.4437
    -2.6273  -2.5256  -0.0336   0.2545   0.6786   0.8483   0.9643

          k = 0.1875 0.5413 0.0000 ( 35162 PWs)   bands (ev):

   -62.8590 -62.8579 -37.1932 -37.1907 -37.0058 -37.0034 -36.9950 -36.9934
   -14.2455 -14.0872 -14.0567 -13.9530  -7.4747  -7.3258  -7.2606  -7.1659
    -6.2571  -5.8180  -5.3360  -5.1012  -4.8170  -4.5409  -4.2724  -3.6250
    -2.4461  -2.3210   0.0099   0.1075   0.8613   1.0597   1.1529

          k = 0.2500 0.4330 0.0000 ( 35195 PWs)   bands (ev):

   -62.8616 -62.8605 -37.1627 -37.1602 -37.0068 -37.0044 -37.0000 -36.9985
   -14.3914 -14.2385 -14.1406 -14.0203  -7.3026  -7.1473  -7.0458  -6.9709
    -6.0458  -5.4952  -5.4714  -5.1580  -5.0378  -4.9036  -4.0149  -3.4038
    -2.6360  -2.5628  -0.0864   0.2398   0.6639   0.8427   0.8605

          k = 0.2500 0.5052 0.0000 ( 35193 PWs)   bands (ev):

   -62.8584 -62.8573 -37.1674 -37.1649 -37.0394 -37.0370 -36.9938 -36.9923
   -14.2189 -14.0599 -14.0324 -13.9294  -7.3663  -7.2700  -7.1812  -7.0587
    -6.1009  -5.6717  -5.4643  -5.2632  -5.1694  -4.9956  -4.2931  -3.6488
    -2.3996  -2.3201  -0.1119  -0.0001   0.7312   1.0126   1.1524

          k = 0.2500 0.5774 0.0000 ( 35190 PWs)   bands (ev):

   -62.8573 -62.8562 -37.1673 -37.1648 -37.0527 -37.0502 -36.9917 -36.9901
   -14.1604 -13.9994 -13.9879 -13.8923  -7.4624  -7.3728  -7.1155  -6.9929
    -6.2099  -5.8531  -5.5035  -5.2121  -5.1425  -4.9659  -4.4366  -3.7611
    -2.2743  -2.1838  -0.1843  -0.1446   0.7407   1.1306   1.2066

          k = 0.3125 0.5413 0.0000 ( 35172 PWs)   bands (ev):

   -62.8567 -62.8556 -37.1462 -37.1437 -37.0811 -37.0787 -36.9905 -36.9889
   -14.1315 -13.9701 -13.9619 -13.8688  -7.5240  -7.4457  -6.8860  -6.7566
    -6.1366  -5.9709  -5.9106  -5.3615  -5.1427  -4.9130  -4.5218  -3.8270
    -2.1917  -2.1141  -0.2930  -0.2673   0.6448   1.1203   1.2267

          k =-0.0625 0.0361 0.0000 ( 35493 PWs)   bands (ev):

   -62.9011 -62.9000 -37.0774 -37.0757 -36.8545 -36.8523 -36.8424 -36.8403
   -16.2136 -16.0690 -14.9977 -14.7815  -7.9724  -7.4148  -4.7787  -4.7545
    -4.6916  -4.5767  -4.5573  -3.9377  -3.6270  -3.5994  -3.4787  -3.0830
    -2.4139  -1.6553   0.5526   0.6764   0.7208   0.7392   0.8744

          k =-0.1250 0.0722 0.0000 ( 35435 PWs)   bands (ev):

   -62.8967 -62.8956 -37.0687 -37.0670 -36.8986 -36.8963 -36.8524 -36.8504
   -16.0413 -15.8959 -14.9197 -14.7115  -7.7853  -7.2272  -5.1426  -5.0975
    -5.0079  -4.4527  -4.3985  -4.3771  -3.8781  -3.8490  -3.4551  -2.8937
    -2.4620  -1.8320   0.2273   0.4730   0.4824   0.6289   0.7226

          k =-0.1875 0.1083 0.0000 ( 35345 PWs)   bands (ev):

   -62.8900 -62.8889 -37.0557 -37.0540 -36.9640 -36.9617 -36.8674 -36.8653
   -15.7712 -15.6247 -14.7975 -14.6019  -7.5323  -6.9955  -5.6066  -5.5061
    -5.3918  -4.9803  -4.2071  -4.1730  -4.1232  -4.1003  -3.5835  -2.9380
    -2.6344  -2.1786  -0.1056   0.2949   0.4196   0.4904   0.5335

          k =-0.2500 0.1443 0.0000 ( 35323 PWs)   bands (ev):

   -62.8822 -62.8811 -37.0408 -37.0400 -37.0388 -37.0378 -36.8851 -36.8830
   -15.4295 -15.2821 -14.6436 -14.4644  -7.3370  -6.9137  -6.0445  -5.7889
    -5.7806  -5.4843  -4.5330  -4.4995  -3.8297  -3.8038  -3.7682  -3.1428
    -2.9189  -2.5849  -0.2053   0.2352   0.2717   0.3366   0.7188

          k =-0.3125 0.1804 0.0000 ( 35299 PWs)   bands (ev):

   -62.8743 -62.8732 -37.1159 -37.1133 -37.0249 -37.0233 -36.9026 -36.9005
   -15.0559 -14.9082 -14.4763 -14.3160  -7.3786  -7.1344  -6.3966  -6.0801
    -6.0611  -5.7270  -4.8212  -4.7865  -4.0826  -3.4871  -3.4374  -3.3690
    -3.1327  -2.8351  -0.0778   0.1350   0.2149   0.3731   1.0404

          k =-0.3750 0.2165 0.0000 ( 35224 PWs)   bands (ev):

   -62.8676 -62.8665 -37.1792 -37.1765 -37.0118 -37.0102 -36.9175 -36.9153
   -14.7075 -14.5588 -14.3197 -14.1793  -7.6270  -7.4623  -6.7260  -6.4554
    -6.2218  -5.7968  -5.0419  -5.0063  -4.2800  -3.5353  -3.2328  -3.1661
    -3.1156  -2.7901   0.1310   0.1779   0.1868   0.5365   1.3216

          k =-0.4375 0.2526 0.0000 ( 35152 PWs)   bands (ev):

   -62.8631 -62.8621 -37.2212 -37.2184 -37.0031 -37.0015 -36.9274 -36.9252
   -14.4574 -14.3050 -14.2011 -14.0794  -7.8685  -7.7196  -6.9708  -6.7264
    -6.3269  -5.9107  -5.1796  -5.1435  -4.3977  -3.6330  -3.0781  -2.9968
    -2.9514  -2.5725   0.1833   0.2133   0.4645   0.6989   1.4773

          k = 0.5000-0.2887 0.0000 ( 35026 PWs)   bands (ev):

   -62.8616 -62.8605 -37.2358 -37.2331 -37.0000 -36.9984 -36.9308 -36.9287
   -14.3681 -14.2126 -14.1535 -14.0411  -7.9646  -7.8164  -7.0601  -6.8226
    -6.3715  -5.9655  -5.2263  -5.1900  -4.4357  -3.6652  -3.0276  -2.9398
    -2.8612  -2.4562   0.2144   0.2351   0.6069   0.7740   1.5147

          k = 0.1250 0.0000 0.0000 ( 35467 PWs)   bands (ev):

   -62.8981 -62.8970 -37.0715 -37.0698 -36.8839 -36.8816 -36.8496 -36.8476
   -16.0979 -15.9527 -14.9453 -14.7344  -7.8447  -7.2859  -5.0270  -4.9910
    -4.9079  -4.4588  -4.4381  -4.2936  -3.8463  -3.8111  -3.4065  -2.8978
    -2.4383  -1.7643   0.3293   0.5104   0.5216   0.6711   0.7275

          k =-0.1250 0.1443 0.0000 ( 35370 PWs)   bands (ev):

   -62.8926 -62.8915 -37.0607 -37.0590 -36.9374 -36.9351 -36.8634 -36.8612
   -15.8765 -15.7304 -14.8450 -14.6445  -7.6206  -7.0690  -5.4288  -5.3614
    -5.2247  -4.7428  -4.2529  -4.2220  -4.2151  -4.1648  -3.3956  -2.8226
    -2.5458  -2.0245  -0.0121   0.3199   0.3941   0.4751   0.5856

          k = 0.1875 0.0361 0.0000 ( 35370 PWs)   bands (ev):

   -62.8926 -62.8915 -37.0607 -37.0590 -36.9375 -36.9351 -36.8633 -36.8613
   -15.8765 -15.7303 -14.8450 -14.6444  -7.6206  -7.0690  -5.4288  -5.3614
    -5.2246  -4.7430  -4.2522  -4.2247  -4.2128  -4.1653  -3.3959  -2.8224
    -2.5459  -2.0231  -0.0135   0.3195   0.3936   0.4766   0.5855

          k =-0.1875 0.1804 0.0000 ( 35362 PWs)   bands (ev):

   -62.8853 -62.8842 -37.0465 -37.0449 -37.0067 -37.0043 -36.8814 -36.8792
   -15.5699 -15.4229 -14.7063 -14.5203  -7.3827  -6.8916  -5.8611  -5.6948
    -5.5863  -5.2387  -4.6215  -4.5205  -3.9797  -3.9455  -3.5365  -2.9441
    -2.7780  -2.4003  -0.2373   0.1821   0.3017   0.4441   0.5004

          k = 0.2500 0.0722 0.0000 ( 35362 PWs)   bands (ev):

   -62.8853 -62.8842 -37.0465 -37.0448 -37.0067 -37.0042 -36.8813 -36.8792
   -15.5700 -15.4228 -14.7064 -14.5202  -7.3827  -6.8916  -5.8611  -5.6947
    -5.5862  -5.2387  -4.6216  -4.5207  -3.9799  -3.9454  -3.5366  -2.9439
    -2.7780  -2.3993  -0.2380   0.1820   0.3021   0.4449   0.4990

          k =-0.2500 0.2165 0.0000 ( 35310 PWs)   bands (ev):

   -62.8774 -62.8764 -37.0808 -37.0783 -37.0311 -37.0295 -36.9007 -36.8986
   -15.2107 -15.0631 -14.5444 -14.3760  -7.2950  -6.9760  -6.2155  -5.9474
    -5.8763  -5.6699  -4.9283  -4.7986  -3.8203  -3.7128  -3.6946  -3.1589
    -3.0048  -2.7218  -0.2541   0.1291   0.2277   0.4183   0.7753

          k = 0.3125 0.1083 0.0000 ( 35310 PWs)   bands (ev):

   -62.8774 -62.8764 -37.0808 -37.0783 -37.0311 -37.0295 -36.9007 -36.8986
   -15.2107 -15.0630 -14.5444 -14.3759  -7.2949  -6.9760  -6.2157  -5.9472
    -5.8765  -5.6696  -4.9285  -4.7987  -3.8214  -3.7093  -3.6970  -3.1586
    -3.0050  -2.7211  -0.2547   0.1295   0.2276   0.4186   0.7741

          k =-0.3125 0.2526 0.0000 ( 35243 PWs)   bands (ev):

   -62.8702 -62.8691 -37.1485 -37.1459 -37.0169 -37.0153 -36.9186 -36.9164
   -14.8464 -14.6983 -14.3803 -14.2313  -7.4598  -7.2707  -6.5550  -6.2889
    -6.1526  -5.7342  -5.1201  -4.9947  -4.0601  -3.6069  -3.5661  -3.3151
    -3.0026  -2.7832  -0.1151   0.1607   0.2762   0.4929   1.1052

          k = 0.3750 0.1443 0.0000 ( 35243 PWs)   bands (ev):

   -62.8702 -62.8691 -37.1486 -37.1459 -37.0169 -37.0153 -36.9185 -36.9164
   -14.8465 -14.6982 -14.3803 -14.2312  -7.4597  -7.2706  -6.5552  -6.2887
    -6.1527  -5.7340  -5.1203  -4.9950  -4.0604  -3.6073  -3.5658  -3.3142
    -3.0030  -2.7827  -0.1156   0.1607   0.2763   0.4931   1.1038

          k =-0.3750 0.2887 0.0000 ( 35169 PWs)   bands (ev):

   -62.8646 -62.8635 -37.1999 -37.1972 -37.0059 -37.0043 -36.9322 -36.9300
   -14.5427 -14.3922 -14.2396 -14.1103  -7.7138  -7.5617  -6.8749  -6.6489
    -6.2685  -5.8328  -5.2226  -5.1198  -4.2741  -3.5955  -3.4991  -3.2928
    -2.8404  -2.6074   0.0772   0.2295   0.4266   0.6338   1.3936

          k = 0.4375 0.1804 0.0000 ( 35169 PWs)   bands (ev):

   -62.8646 -62.8635 -37.1999 -37.1972 -37.0059 -37.0043 -36.9322 -36.9300
   -14.5427 -14.3921 -14.2397 -14.1102  -7.7137  -7.5617  -6.8750  -6.6488
    -6.2685  -5.8327  -5.2225  -5.1201  -4.2743  -3.5960  -3.4992  -3.2915
    -2.8406  -2.6072   0.0772   0.2291   0.4266   0.6341   1.3923

          k =-0.4375 0.3248 0.0000 ( 35128 PWs)   bands (ev):

   -62.8616 -62.8605 -37.2276 -37.2248 -37.0000 -36.9984 -36.9395 -36.9373
   -14.3714 -14.2163 -14.1519 -14.0382  -7.8833  -7.7357  -7.0595  -6.8462
    -6.3506  -5.9331  -5.2627  -5.1800  -4.3948  -3.6662  -3.4145  -3.2100
    -2.6960  -2.4217   0.1899   0.2586   0.6113   0.7810   1.5819

          k = 0.5000 0.2165 0.0000 ( 35128 PWs)   bands (ev):

   -62.8616 -62.8605 -37.2275 -37.2248 -37.0000 -36.9984 -36.9395 -36.9373
   -14.3715 -14.2163 -14.1519 -14.0381  -7.8833  -7.7357  -7.0595  -6.8461
    -6.3506  -5.9331  -5.2627  -5.1801  -4.3948  -3.6663  -3.4147  -3.2095
    -2.6961  -2.4217   0.1900   0.2584   0.6113   0.7810   1.5811

          k = 0.2500 0.0000 0.0000 ( 35331 PWs)   bands (ev):

   -62.8864 -62.8853 -37.0487 -37.0470 -36.9927 -36.9902 -36.8822 -36.8801
   -15.6183 -15.4713 -14.7278 -14.5393  -7.4009  -6.8877  -5.7804  -5.6495
    -5.4630  -5.0683  -4.7638  -4.6531  -4.0605  -4.0248  -3.3606  -2.8179
    -2.7137  -2.3039  -0.2561   0.1375   0.3141   0.3653   0.4578

          k =-0.1875 0.2526 0.0000 ( 35357 PWs)   bands (ev):

   -62.8792 -62.8781 -37.0560 -37.0536 -37.0344 -37.0328 -36.9056 -36.9033
   -15.2924 -15.1449 -14.5795 -14.4069  -7.2439  -6.8654  -6.0758  -5.7801
    -5.7648  -5.5333  -5.2047  -4.9767  -3.9685  -3.9082  -3.4634  -2.9504
    -2.9036  -2.5926  -0.3887   0.0215   0.2843   0.4635   0.5006

          k = 0.3125 0.0361 0.0000 ( 35357 PWs)   bands (ev):

   -62.8792 -62.8781 -37.0561 -37.0535 -37.0345 -37.0328 -36.9055 -36.9034
   -15.2925 -15.1448 -14.5796 -14.4067  -7.2438  -6.8655  -6.0760  -5.7775
    -5.7671  -5.5330  -5.2054  -4.9766  -3.9685  -3.9083  -3.4635  -2.9502
    -2.9037  -2.5910  -0.3895   0.0216   0.2845   0.4658   0.4976

          k =-0.2500 0.2887 0.0000 ( 35341 PWs)   bands (ev):

   -62.8719 -62.8708 -37.1183 -37.1158 -37.0202 -37.0186 -36.9292 -36.9270
   -14.9382 -14.7902 -14.4176 -14.2631  -7.2939  -7.0711  -6.3419  -6.1292
    -6.0845  -5.6772  -5.3715  -5.1062  -4.0506  -3.9465  -3.6769  -3.1020
    -2.9368  -2.7559  -0.3315   0.0800   0.3671   0.5224   0.7640

          k = 0.3750 0.0722 0.0000 ( 35341 PWs)   bands (ev):

   -62.8719 -62.8708 -37.1184 -37.1158 -37.0202 -37.0186 -36.9292 -36.9271
   -14.9383 -14.7901 -14.4178 -14.2629  -7.2937  -7.0711  -6.3423  -6.1267
    -6.0869  -5.6767  -5.3721  -5.1063  -4.0509  -3.9466  -3.6764  -3.1012
    -2.9372  -2.7552  -0.3321   0.0800   0.3672   0.5229   0.7622

          k =-0.3125 0.3248 0.0000 ( 35215 PWs)   bands (ev):

   -62.8657 -62.8646 -37.1705 -37.1679 -37.0081 -37.0065 -36.9494 -36.9472
   -14.6109 -14.4614 -14.2648 -14.1296  -7.4890  -7.3288  -6.7549  -6.5905
    -6.1845  -5.7056  -5.3944  -5.1583  -4.1688  -3.9631  -3.9082  -3.3229
    -2.8065  -2.6586  -0.1136   0.2526   0.4917   0.5969   1.0682

          k = 0.4375 0.1083 0.0000 ( 35215 PWs)   bands (ev):

   -62.8657 -62.8646 -37.1706 -37.1679 -37.0081 -37.0065 -36.9494 -36.9472
   -14.6111 -14.4613 -14.2649 -14.1294  -7.4889  -7.3287  -6.7551  -6.5902
    -6.1847  -5.7053  -5.3948  -5.1586  -4.1702  -3.9625  -3.9075  -3.3219
    -2.8070  -2.6582  -0.1137   0.2518   0.4920   0.5972   1.0659

          k =-0.3750 0.3608 0.0000 ( 35141 PWs)   bands (ev):

   -62.8616 -62.8605 -37.2051 -37.2025 -37.0000 -36.9984 -36.9629 -36.9607
   -14.3797 -14.2254 -14.1475 -14.0309  -7.6680  -7.5209  -7.0559  -6.9005
    -6.2833  -5.8334  -5.3559  -5.1652  -4.3272  -3.9830  -3.9224  -3.4959
    -2.6257  -2.4507   0.0890   0.2751   0.6473   0.8130   1.3340

          k = 0.5000 0.1443 0.0000 ( 35141 PWs)   bands (ev):

   -62.8616 -62.8605 -37.2052 -37.2024 -37.0000 -36.9985 -36.9629 -36.9607
   -14.3798 -14.2254 -14.1475 -14.0307  -7.6680  -7.5208  -7.0559  -6.9004
    -6.2833  -5.8333  -5.3559  -5.1655  -4.3278  -3.9828  -3.9222  -3.4950
    -2.6259  -2.4506   0.0893   0.2746   0.6474   0.8130   1.3315

          k =-0.4375 0.3969 0.0000 ( 35180 PWs)   bands (ev):

   -62.8601 -62.8591 -37.2173 -37.2145 -36.9972 -36.9956 -36.9677 -36.9654
   -14.2984 -14.1407 -14.0999 -13.9923  -7.7381  -7.5915  -7.1627  -7.0090
    -6.3331  -5.9003  -5.3238  -5.1594  -4.4169  -3.9815  -3.9126  -3.5502
    -2.5348  -2.3387   0.1440   0.2360   0.7571   0.9520   1.4629

          k = 0.3750 0.0000 0.0000 ( 35337 PWs)   bands (ev):

   -62.8725 -62.8714 -37.1048 -37.1022 -37.0214 -37.0198 -36.9360 -36.9339
   -14.9703 -14.8221 -14.4304 -14.2735  -7.2230  -6.9820  -6.1833  -6.0948
    -6.0361  -5.6633  -5.5145  -5.1725  -4.2060  -4.1250  -3.5385  -2.9934
    -2.9199  -2.7386  -0.4146   0.0375   0.3976   0.5389   0.5992

          k =-0.2500 0.3608 0.0000 ( 35241 PWs)   bands (ev):

   -62.8663 -62.8652 -37.1467 -37.1442 -37.0093 -37.0077 -36.9669 -36.9646
   -14.6487 -14.4995 -14.2770 -14.1386  -7.3166  -7.1456  -6.6490  -6.5518
    -6.1090  -5.5744  -5.5211  -5.1869  -4.5279  -4.4205  -3.7759  -3.1788
    -2.8180  -2.7185  -0.2395   0.2422   0.5364   0.5969   0.7843

          k = 0.4375 0.0361 0.0000 ( 35241 PWs)   bands (ev):

   -62.8663 -62.8652 -37.1468 -37.1441 -37.0093 -37.0077 -36.9668 -36.9646
   -14.6490 -14.4994 -14.2771 -14.1383  -7.3165  -7.1454  -6.6491  -6.5510
    -6.1105  -5.5731  -5.5224  -5.1869  -4.5277  -4.4207  -3.7751  -3.1780
    -2.8181  -2.7186  -0.2394   0.2417   0.5373   0.5968   0.7827

          k =-0.3125 0.3969 0.0000 ( 35167 PWs)   bands (ev):

   -62.8616 -62.8605 -37.1772 -37.1746 -37.0001 -36.9985 -36.9918 -36.9895
   -14.3880 -14.2347 -14.1427 -14.0234  -7.4183  -7.2675  -7.0489  -6.9512
    -6.1566  -5.6565  -5.4471  -5.1618  -4.7290  -4.5342  -4.0671  -3.4431
    -2.6268  -2.5254  -0.0336   0.2549   0.6785   0.8484   0.9662

          k = 0.5000 0.0722 0.0000 ( 35167 PWs)   bands (ev):

   -62.8616 -62.8605 -37.1773 -37.1746 -37.0001 -36.9985 -36.9917 -36.9895
   -14.3883 -14.2346 -14.1428 -14.0231  -7.4183  -7.2673  -7.0490  -6.9511
    -6.1570  -5.6563  -5.4475  -5.1620  -4.7301  -4.5335  -4.0660  -3.4427
    -2.6272  -2.5253  -0.0333   0.2545   0.6783   0.8486   0.9645

          k =-0.3750 0.4330 0.0000 ( 35162 PWs)   bands (ev):

   -62.8590 -62.8579 -37.1933 -37.1906 -37.0058 -37.0035 -36.9950 -36.9934
   -14.2462 -14.0872 -14.0567 -13.9523  -7.4757  -7.3250  -7.2596  -7.1653
    -6.2610  -5.8165  -5.3366  -5.0998  -4.8155  -4.5412  -4.2742  -3.6242
    -2.4462  -2.3202   0.0095   0.1080   0.8606   1.0610   1.1546

          k = 0.5625 0.1083 0.0000 ( 35162 PWs)   bands (ev):

   -62.8590 -62.8579 -37.1933 -37.1906 -37.0058 -37.0035 -36.9950 -36.9934
   -14.2464 -14.0872 -14.0567 -13.9522  -7.4756  -7.3248  -7.2597  -7.1653
    -6.2611  -5.8164  -5.3366  -5.1000  -4.8161  -4.5409  -4.2735  -3.6240
    -2.4464  -2.3202   0.0096   0.1079   0.8604   1.0612   1.1536

          k = 0.5000 0.0000 0.0000 ( 35195 PWs)   bands (ev):

   -62.8616 -62.8605 -37.1628 -37.1601 -37.0068 -37.0046 -36.9999 -36.9984
   -14.3919 -14.2384 -14.1407 -14.0199  -7.3026  -7.1469  -7.0457  -6.9705
    -6.0480  -5.4927  -5.4740  -5.1576  -5.0372  -4.9038  -4.0139  -3.4035
    -2.6360  -2.5631  -0.0861   0.2397   0.6635   0.8428   0.8600

          k =-0.3125 0.4691 0.0000 ( 35193 PWs)   bands (ev):

   -62.8584 -62.8573 -37.1675 -37.1649 -37.0394 -37.0370 -36.9938 -36.9923
   -14.2191 -14.0598 -14.0324 -13.9292  -7.3665  -7.2701  -7.1811  -7.0577
    -6.1036  -5.6706  -5.4632  -5.2641  -5.1693  -4.9947  -4.2938  -3.6486
    -2.3996  -2.3200  -0.1119   0.0000   0.7317   1.0122   1.1521

          k = 0.5625 0.0361 0.0000 ( 35193 PWs)   bands (ev):

   -62.8584 -62.8573 -37.1675 -37.1648 -37.0393 -37.0371 -36.9938 -36.9923
   -14.2195 -14.0598 -14.0324 -13.9289  -7.3664  -7.2700  -7.1812  -7.0573
    -6.1043  -5.6704  -5.4644  -5.2634  -5.1695  -4.9946  -4.2925  -3.6488
    -2.3997  -2.3200  -0.1117  -0.0000   0.7311   1.0128   1.1510

          k =-0.3750 0.5052 0.0000 ( 35190 PWs)   bands (ev):

   -62.8573 -62.8562 -37.1674 -37.1647 -37.0526 -37.0503 -36.9917 -36.9901
   -14.1609 -13.9994 -13.9879 -13.8918  -7.4625  -7.3727  -7.1158  -6.9910
    -6.2140  -5.8516  -5.5028  -5.2137  -5.1425  -4.9633  -4.4373  -3.7610
    -2.2745  -2.1834  -0.1846  -0.1442   0.7412   1.1301   1.2053

          k = 0.6250 0.0000 0.0000 ( 35172 PWs)   bands (ev):

   -62.8567 -62.8556 -37.1463 -37.1436 -37.0810 -37.0787 -36.9905 -36.9889
   -14.1317 -13.9702 -13.9618 -13.8686  -7.5239  -7.4457  -6.8861  -6.7556
    -6.1385  -5.9738  -5.9071  -5.3616  -5.1431  -4.9125  -4.5212  -3.8272
    -2.1918  -2.1141  -0.2930  -0.2672   0.6448   1.1206   1.2259

     the Fermi energy is    -1.0626 ev

!    total energy              =    -989.16715710 Ry
     total all-electron energy =    -19385.827579 Ry
     estimated scf accuracy    <          3.1E-09 Ry
     smearing contrib. (-TS)   =       0.00003242 Ry
     internal energy E=F+TS    =    -989.16718952 Ry

     The total energy is F=E-TS. E is the sum of the following terms:
     one-electron contribution =  -10389.79973089 Ry
     hartree contribution      =    5197.97564589 Ry
     xc contribution           =     -59.62587917 Ry
     ewald contribution        =    4897.21216278 Ry
     one-center paw contrib.   =    -634.92938812 Ry

     convergence has been achieved in  28 iterations

     Writing all to output data dir ./tmp/gsfe_018/mos2_gsfe_018.save/ :
     XML data file, charge density, pseudopotentials, collected wavefunctions

     init_run     :    101.98s CPU    103.70s WALL (       1 calls)
     electrons    :   4529.20s CPU   4622.49s WALL (       1 calls)

     Called by init_run:
     wfcinit      :     54.65s CPU     54.91s WALL (       1 calls)
     potinit      :     44.40s CPU     44.82s WALL (       1 calls)
     hinit0       :      0.34s CPU      0.37s WALL (       1 calls)

     Called by electrons:
     c_bands      :   3712.12s CPU   3733.88s WALL (      29 calls)
     sum_band     :    616.58s CPU    649.97s WALL (      29 calls)
     v_of_rho     :    136.53s CPU    146.69s WALL (      29 calls)
     newd         :     65.55s CPU     94.30s WALL (      29 calls)
     PAW_pot      :      5.92s CPU      5.93s WALL (      29 calls)
     mix_rho      :     38.00s CPU     38.60s WALL (      29 calls)
     vdW_kernel   :     40.52s CPU     40.53s WALL (       1 calls)

     Called by c_bands:
     init_us_2    :     32.82s CPU     32.85s WALL (    4307 calls)
     init_us_2:cp :     32.81s CPU     32.85s WALL (    4307 calls)
     cegterg      :   3450.35s CPU   3471.62s WALL (    2117 calls)

     Called by *egterg:
     cdiaghg      :      3.24s CPU      3.25s WALL (    6888 calls)
     h_psi        :   2155.48s CPU   2157.47s WALL (    7034 calls)
     s_psi        :    463.74s CPU    464.21s WALL (    7034 calls)
     g_psi        :     14.60s CPU     14.61s WALL (    4844 calls)

     Called by h_psi:
     h_psi:calbec :    609.57s CPU    609.73s WALL (    7034 calls)
     vloc_psi     :   1074.92s CPU   1075.62s WALL (    7034 calls)
     add_vuspsi   :    464.21s CPU    464.33s WALL (    7034 calls)

     General routines
     calbec       :    867.50s CPU    867.73s WALL (    9151 calls)
     fft          :     36.53s CPU     36.54s WALL (    1826 calls)
     ffts         :     18.72s CPU     18.73s WALL (    3379 calls)
     fftw         :    953.05s CPU    953.55s WALL (  375551 calls)
     interpolate  :      0.87s CPU      0.88s WALL (      29 calls)

     Parallel routines

     PWSCF        :      1h17m CPU      1h18m WALL


   This run was terminated on:  13:34:13  15Jun2026            

=------------------------------------------------------------------------------=
   JOB DONE.
=------------------------------------------------------------------------------=
Note: The following floating-point exceptions are signalling: IEEE_UNDERFLOW_FLAG IEEE_DENORMAL
