Authorization required, but no authorization protocol specified

Authorization required, but no authorization protocol specified

Authorization required, but no authorization protocol specified

Authorization required, but no authorization protocol specified

Authorization required, but no authorization protocol specified

Authorization required, but no authorization protocol specified

Authorization required, but no authorization protocol specified

Authorization required, but no authorization protocol specified


     Program PWSCF v.7.3 starts on 15Jun2026 at 13:34:13 

     This program is part of the open-source Quantum ESPRESSO suite
     for quantum simulation of materials; please cite
         "P. Giannozzi et al., J. Phys.:Condens. Matter 21 395502 (2009);
         "P. Giannozzi et al., J. Phys.:Condens. Matter 29 465901 (2017);
         "P. Giannozzi et al., J. Chem. Phys. 152 154105 (2020);
          URL http://www.quantum-espresso.org", 
     in publications or presentations arising from this work. More details at
     http://www.quantum-espresso.org/quote

     Parallel version (MPI), running on     1 processors

     MPI processes distributed on     1 nodes
     10772 MiB available memory on the printing compute node when the environment starts

     Waiting for input...
     Reading input from standard input

     Current dimensions of program PWSCF are:
     Max number of different atomic species (ntypx) = 10
     Max number of k-points (npk) =  40000
     Max angular momentum in pseudopotentials (lmaxx) =  4
     file Mo.pbe-spn-kjpaw_psl.1.0.0.UPF: wavefunction(s)  4S 4D renormalized
     file S.pbe-n-kjpaw_psl.1.0.0.UPF: wavefunction(s)  3S 3P renormalized

     IMPORTANT: XC functional enforced from input :
     Exchange-correlation= VDW-DF2-B86R
                           (   1   4  26   0   2   0   0)
     Any further DFT definition will be discarded
     Please, verify this is what you really want


     Subspace diagonalization in iterative solution of the eigenvalue problem:
     a serial algorithm will be used


     G-vector sticks info
     --------------------
     sticks:   dense  smooth     PW     G-vecs:    dense   smooth      PW
     Sum        1573     769    223               797393   281171   43435

     Using Slab Decomposition



     bravais-lattice index     =            4
     lattice parameter (alat)  =       5.9715  a.u.
     unit-cell volume          =    2917.9067 (a.u.)^3
     number of atoms/cell      =            6
     number of atomic types    =            2
     number of electrons       =        52.00
     number of Kohn-Sham states=           31
     kinetic-energy cutoff     =      80.0000  Ry
     charge density cutoff     =     640.0000  Ry
     scf convergence threshold =      1.0E-08
     mixing beta               =       0.3000
     number of iterations used =            8  local-TF  mixing
     Exchange-correlation= VDW-DF2-B86R
                           (   1   4  26   0   2   0   0)

     celldm(1)=   5.971535  celldm(2)=   0.000000  celldm(3)=  15.822785
     celldm(4)=   0.000000  celldm(5)=   0.000000  celldm(6)=   0.000000

     crystal axes: (cart. coord. in units of alat)
               a(1) = (   1.000000   0.000000   0.000000 )  
               a(2) = (  -0.500000   0.866025   0.000000 )  
               a(3) = (   0.000000   0.000000  15.822785 )  

     reciprocal axes: (cart. coord. in units 2 pi/alat)
               b(1) = (  1.000000  0.577350 -0.000000 )  
               b(2) = (  0.000000  1.154701  0.000000 )  
               b(3) = (  0.000000 -0.000000  0.063200 )  


     PseudoPot. # 1 for Mo read from file:
     ./pseudo/Mo.pbe-spn-kjpaw_psl.1.0.0.UPF
     MD5 check sum: 4396e0c640fcce5c25f020efccf1ab12
     Pseudo is Projector augmented-wave + core cor, Zval = 14.0
     Generated using &quot;atomic&quot; code by A. Dal Corso  v.6.3
     Shape of augmentation charge: PSQ
     Using radial grid of 1229 points,  6 beta functions with: 
                l(1) =   0
                l(2) =   0
                l(3) =   1
                l(4) =   1
                l(5) =   2
                l(6) =   2
     Q(r) pseudized with 0 coefficients 


     PseudoPot. # 2 for S  read from file:
     ./pseudo/S.pbe-n-kjpaw_psl.1.0.0.UPF
     MD5 check sum: fb45dfebcf3e72a4e1bd4a866ec2e262
     Pseudo is Projector augmented-wave + core cor, Zval =  6.0
     Generated using &quot;atomic&quot; code by A. Dal Corso  v.6.3
     Shape of augmentation charge: PSQ
     Using radial grid of 1151 points,  6 beta functions with: 
                l(1) =   0
                l(2) =   0
                l(3) =   1
                l(4) =   1
                l(5) =   2
                l(6) =   2
     Q(r) pseudized with 0 coefficients 


     atomic species   valence    mass     pseudopotential
     Mo               14.00    95.96000     Mo( 1.00)
     S                 6.00    32.06000     S ( 1.00)

      2 Sym. Ops. (no inversion) found



   Cartesian axes

     site n.     atom                  positions (alat units)
         1        S      tau(   1) = (  -0.0000005   0.5773506   6.4231013  )
         2        Mo     tau(   2) = (   0.0000000   0.0000000   6.9204905  )
         3        S      tau(   3) = (  -0.0000005   0.5773506   7.4181013  )
         4        S      tau(   4) = (   0.0000000   0.6062178   8.4034019  )
         5        Mo     tau(   5) = (   0.0000005   0.0288672   8.9017247  )
         6        S      tau(   6) = (   0.0000000   0.6062178   9.3996835  )

     number of k points=    73  Methfessel-Paxton smearing, width (Ry)=  0.0200
                       cart. coord. in units 2pi/alat
        k(    1) = (   0.0000000   0.0000000   0.0000000), wk =   0.0078125
        k(    2) = (   0.0000000   0.0721688   0.0000000), wk =   0.0156250
        k(    3) = (   0.0000000   0.1443376   0.0000000), wk =   0.0156250
        k(    4) = (   0.0000000   0.2165064   0.0000000), wk =   0.0156250
        k(    5) = (   0.0000000   0.2886751   0.0000000), wk =   0.0156250
        k(    6) = (   0.0000000   0.3608439   0.0000000), wk =   0.0156250
        k(    7) = (   0.0000000   0.4330127   0.0000000), wk =   0.0156250
        k(    8) = (   0.0000000   0.5051815   0.0000000), wk =   0.0156250
        k(    9) = (   0.0000000  -0.5773503   0.0000000), wk =   0.0078125
        k(   10) = (   0.0625000   0.1082532   0.0000000), wk =   0.0312500
        k(   11) = (   0.0625000   0.1804220   0.0000000), wk =   0.0312500
        k(   12) = (   0.0625000   0.2525907   0.0000000), wk =   0.0312500
        k(   13) = (   0.0625000   0.3247595   0.0000000), wk =   0.0312500
        k(   14) = (   0.0625000   0.3969283   0.0000000), wk =   0.0312500
        k(   15) = (   0.0625000   0.4690971   0.0000000), wk =   0.0312500
        k(   16) = (   0.0625000   0.5412659   0.0000000), wk =   0.0312500
        k(   17) = (   0.1250000   0.2165064   0.0000000), wk =   0.0312500
        k(   18) = (   0.1250000   0.2886751   0.0000000), wk =   0.0312500
        k(   19) = (   0.1250000   0.3608439   0.0000000), wk =   0.0312500
        k(   20) = (   0.1250000   0.4330127   0.0000000), wk =   0.0312500
        k(   21) = (   0.1250000   0.5051815   0.0000000), wk =   0.0312500
        k(   22) = (   0.1250000   0.5773503   0.0000000), wk =   0.0156250
        k(   23) = (   0.1875000   0.3247595   0.0000000), wk =   0.0312500
        k(   24) = (   0.1875000   0.3969283   0.0000000), wk =   0.0312500
        k(   25) = (   0.1875000   0.4690971   0.0000000), wk =   0.0312500
        k(   26) = (   0.1875000   0.5412659   0.0000000), wk =   0.0312500
        k(   27) = (   0.2500000   0.4330127   0.0000000), wk =   0.0312500
        k(   28) = (   0.2500000   0.5051815   0.0000000), wk =   0.0312500
        k(   29) = (   0.2500000   0.5773503   0.0000000), wk =   0.0156250
        k(   30) = (   0.3125000   0.5412659   0.0000000), wk =   0.0312500
        k(   31) = (  -0.0625000   0.0360844   0.0000000), wk =   0.0312500
        k(   32) = (  -0.1250000   0.0721688   0.0000000), wk =   0.0312500
        k(   33) = (  -0.1875000   0.1082532   0.0000000), wk =   0.0312500
        k(   34) = (  -0.2500000   0.1443376   0.0000000), wk =   0.0312500
        k(   35) = (  -0.3125000   0.1804220   0.0000000), wk =   0.0312500
        k(   36) = (  -0.3750000   0.2165064   0.0000000), wk =   0.0312500
        k(   37) = (  -0.4375000   0.2525907   0.0000000), wk =   0.0312500
        k(   38) = (   0.5000000  -0.2886751   0.0000000), wk =   0.0156250
        k(   39) = (   0.1250000   0.0000000   0.0000000), wk =   0.0156250
        k(   40) = (  -0.1250000   0.1443376   0.0000000), wk =   0.0312500
        k(   41) = (   0.1875000   0.0360844   0.0000000), wk =   0.0312500
        k(   42) = (  -0.1875000   0.1804220   0.0000000), wk =   0.0312500
        k(   43) = (   0.2500000   0.0721688   0.0000000), wk =   0.0312500
        k(   44) = (  -0.2500000   0.2165064   0.0000000), wk =   0.0312500
        k(   45) = (   0.3125000   0.1082532   0.0000000), wk =   0.0312500
        k(   46) = (  -0.3125000   0.2525907   0.0000000), wk =   0.0312500
        k(   47) = (   0.3750000   0.1443376   0.0000000), wk =   0.0312500
        k(   48) = (  -0.3750000   0.2886751   0.0000000), wk =   0.0312500
        k(   49) = (   0.4375000   0.1804220   0.0000000), wk =   0.0312500
        k(   50) = (  -0.4375000   0.3247595   0.0000000), wk =   0.0312500
        k(   51) = (   0.5000000   0.2165064   0.0000000), wk =   0.0312500
        k(   52) = (   0.2500000   0.0000000   0.0000000), wk =   0.0156250
        k(   53) = (  -0.1875000   0.2525907   0.0000000), wk =   0.0312500
        k(   54) = (   0.3125000   0.0360844   0.0000000), wk =   0.0312500
        k(   55) = (  -0.2500000   0.2886751   0.0000000), wk =   0.0312500
        k(   56) = (   0.3750000   0.0721688   0.0000000), wk =   0.0312500
        k(   57) = (  -0.3125000   0.3247595   0.0000000), wk =   0.0312500
        k(   58) = (   0.4375000   0.1082532   0.0000000), wk =   0.0312500
        k(   59) = (  -0.3750000   0.3608439   0.0000000), wk =   0.0312500
        k(   60) = (   0.5000000   0.1443376   0.0000000), wk =   0.0312500
        k(   61) = (  -0.4375000   0.3969283   0.0000000), wk =   0.0312500
        k(   62) = (   0.3750000   0.0000000   0.0000000), wk =   0.0156250
        k(   63) = (  -0.2500000   0.3608439   0.0000000), wk =   0.0312500
        k(   64) = (   0.4375000   0.0360844   0.0000000), wk =   0.0312500
        k(   65) = (  -0.3125000   0.3969283   0.0000000), wk =   0.0312500
        k(   66) = (   0.5000000   0.0721688   0.0000000), wk =   0.0312500
        k(   67) = (  -0.3750000   0.4330127   0.0000000), wk =   0.0312500
        k(   68) = (   0.5625000   0.1082532   0.0000000), wk =   0.0312500
        k(   69) = (   0.5000000   0.0000000   0.0000000), wk =   0.0156250
        k(   70) = (  -0.3125000   0.4690971   0.0000000), wk =   0.0312500
        k(   71) = (   0.5625000   0.0360844   0.0000000), wk =   0.0312500
        k(   72) = (  -0.3750000   0.5051815   0.0000000), wk =   0.0312500
        k(   73) = (   0.6250000   0.0000000   0.0000000), wk =   0.0156250

     Dense  grid:   797393 G-vectors     FFT dimensions: (  50,  50, 768)

     Smooth grid:   281171 G-vectors     FFT dimensions: (  36,  36, 540)

     Estimated max dynamical RAM per process >       4.00 GB

     Initial potential from superposition of free atoms

     starting charge      51.9981, renormalised to      52.0000

     negative rho (up, down):  1.924E-04 0.000E+00


     %%%%%%%%%%%%%%%%%%%%%%%%%%%%%%%%%%%%%%%%%%%%%%%%%%%%%%%%%%%%%%%%%%%%%%%%
     %                                                                      %
     % You are using vdW-DF, which was implemented by the Thonhauser group. %
     % Please cite the following two papers that made this development      %
     % possible and the two reviews that describe the various versions:     %
     %                                                                      %
     %   T. Thonhauser et al., PRL 115, 136402 (2015).                      %
     %   T. Thonhauser et al., PRB 76, 125112 (2007).                       %
     %   K. Berland et al., Rep. Prog. Phys. 78, 066501 (2015).             %
     %   D.C. Langreth et al., J. Phys.: Condens. Matter 21, 084203 (2009). %
     %                                                                      %
     % If you are calculating stress with vdW-DF, please also cite:         %
     %                                                                      %
     %   R. Sabatini et al., J. Phys.: Condens. Matter 24, 424209 (2012).   %
     %                                                                      %
     %%%%%%%%%%%%%%%%%%%%%%%%%%%%%%%%%%%%%%%%%%%%%%%%%%%%%%%%%%%%%%%%%%%%%%%%

     %%%%%%%%%%%%%%%%%%%%%%%%%%%%%%%%%%%%%%%%%%%%%%%%%%%%%%%%%%%%%%%%%%%%%%%%
     %                                                                      %
     %  vdW-DF NEWS:                                                        %
     %                                                                      %
     %  * vdW-DF3 is now available. DOI: 10.1021/acs.jctc.0c00471           %
     %    use with input_dft = 'vdW-DF3-opt1' or 'vdW-DF3-opt2'             %
     %                                                                      %
     %  * Unscreened and range-separated hybrid vdW-DF-cx functionals       %
     %    DOI: 10.1063/1.4986522 and 10.1088/1361-648X/ac2ad2               %
     %    use with input_dft = 'vdW-DF-cx0'    and 'vdW-DF-ahcx'            %
     %  * Unscreened and range-separated hybrid vdW-DF2-b86r functionals    %
     %    DOI: 10.1063/1.4986522 and DOI: 10.1103/PhysRevX.12.041003        %
     %    use with input_dft = 'vdW-DF2-br0' and 'vdW-DF2-ahbr'             %
     %                                                                      %
     %%%%%%%%%%%%%%%%%%%%%%%%%%%%%%%%%%%%%%%%%%%%%%%%%%%%%%%%%%%%%%%%%%%%%%%%


     Starting wfcs are   36 randomized atomic wfcs
     Checking if some PAW data can be deallocated... 

     total cpu time spent up to now is      102.9 secs

     Self-consistent Calculation

     iteration #  1     ecut=    80.00 Ry     beta= 0.30
     Davidson diagonalization with overlap
     ethr =  1.00E-02,  avg # of iterations =  2.5

     Threshold (ethr) on eigenvalues was too large:
     Diagonalizing with lowered threshold

     Davidson diagonalization with overlap
     ethr =  2.85E-04,  avg # of iterations =  3.8

     negative rho (up, down):  7.324E-05 0.000E+00

     total cpu time spent up to now is      459.7 secs

     total energy              =    -989.20852472 Ry
     estimated scf accuracy    <       0.23362528 Ry

     iteration #  2     ecut=    80.00 Ry     beta= 0.30
     Davidson diagonalization with overlap
     ethr =  4.49E-04,  avg # of iterations =  1.0

     negative rho (up, down):  1.001E-04 0.000E+00

     total cpu time spent up to now is      594.5 secs

     total energy              =    -989.13295733 Ry
     estimated scf accuracy    <       0.16683684 Ry

     iteration #  3     ecut=    80.00 Ry     beta= 0.30
     Davidson diagonalization with overlap
     ethr =  3.21E-04,  avg # of iterations =  2.0

     negative rho (up, down):  3.579E-05 0.000E+00

     total cpu time spent up to now is      766.2 secs

     total energy              =    -989.16666777 Ry
     estimated scf accuracy    <       0.01552577 Ry

     iteration #  4     ecut=    80.00 Ry     beta= 0.30
     Davidson diagonalization with overlap
     ethr =  2.99E-05,  avg # of iterations =  2.2

     negative rho (up, down):  1.222E-05 0.000E+00

     total cpu time spent up to now is      937.5 secs

     total energy              =    -989.16720496 Ry
     estimated scf accuracy    <       0.00817227 Ry

     iteration #  5     ecut=    80.00 Ry     beta= 0.30
     Davidson diagonalization with overlap
     ethr =  1.57E-05,  avg # of iterations =  3.3

     negative rho (up, down):  3.944E-06 0.000E+00

     total cpu time spent up to now is     1090.3 secs

     total energy              =    -989.16756442 Ry
     estimated scf accuracy    <       0.00266134 Ry

     iteration #  6     ecut=    80.00 Ry     beta= 0.30
     Davidson diagonalization with overlap
     ethr =  5.12E-06,  avg # of iterations =  4.2

     negative rho (up, down):  6.095E-07 0.000E+00

     total cpu time spent up to now is     1237.4 secs

     total energy              =    -989.16730185 Ry
     estimated scf accuracy    <       0.00241139 Ry

     iteration #  7     ecut=    80.00 Ry     beta= 0.30
     Davidson diagonalization with overlap
     ethr =  4.64E-06,  avg # of iterations =  1.5

     negative rho (up, down):  5.509E-07 0.000E+00

     total cpu time spent up to now is     1375.9 secs

     total energy              =    -989.16706386 Ry
     estimated scf accuracy    <       0.00236890 Ry

     iteration #  8     ecut=    80.00 Ry     beta= 0.30
     Davidson diagonalization with overlap
     ethr =  4.56E-06,  avg # of iterations =  3.5

     negative rho (up, down):  7.531E-04 0.000E+00

     total cpu time spent up to now is     1545.3 secs

     total energy              =    -989.16648165 Ry
     estimated scf accuracy    <       0.00394450 Ry

     iteration #  9     ecut=    80.00 Ry     beta= 0.30
     Davidson diagonalization with overlap
     ethr =  4.56E-06,  avg # of iterations =  2.3

     negative rho (up, down):  1.946E-03 0.000E+00

     total cpu time spent up to now is     1711.9 secs

     total energy              =    -989.16687357 Ry
     estimated scf accuracy    <       0.00076057 Ry

     iteration # 10     ecut=    80.00 Ry     beta= 0.30
     Davidson diagonalization with overlap
     ethr =  1.46E-06,  avg # of iterations =  3.5

     negative rho (up, down):  2.688E-03 0.000E+00

     total cpu time spent up to now is     1862.5 secs

     total energy              =    -989.16691643 Ry
     estimated scf accuracy    <       0.00049042 Ry

     iteration # 11     ecut=    80.00 Ry     beta= 0.30
     Davidson diagonalization with overlap
     ethr =  9.43E-07,  avg # of iterations =  2.1

     negative rho (up, down):  4.665E-03 0.000E+00

     total cpu time spent up to now is     2029.0 secs

     total energy              =    -989.16693359 Ry
     estimated scf accuracy    <       0.00045644 Ry

     iteration # 12     ecut=    80.00 Ry     beta= 0.30
     Davidson diagonalization with overlap
     ethr =  8.78E-07,  avg # of iterations =  3.0

     negative rho (up, down):  5.302E-03 0.000E+00

     total cpu time spent up to now is     2185.4 secs

     total energy              =    -989.16679414 Ry
     estimated scf accuracy    <       0.00069667 Ry

     iteration # 13     ecut=    80.00 Ry     beta= 0.30
     Davidson diagonalization with overlap
     ethr =  8.78E-07,  avg # of iterations =  2.0

     negative rho (up, down):  5.723E-03 0.000E+00

     total cpu time spent up to now is     2349.7 secs

     total energy              =    -989.16677906 Ry
     estimated scf accuracy    <       0.00036465 Ry

     iteration # 14     ecut=    80.00 Ry     beta= 0.30
     Davidson diagonalization with overlap
     ethr =  7.01E-07,  avg # of iterations =  2.1

     negative rho (up, down):  5.419E-03 0.000E+00

     total cpu time spent up to now is     2507.6 secs

     total energy              =    -989.16683764 Ry
     estimated scf accuracy    <       0.00017933 Ry

     iteration # 15     ecut=    80.00 Ry     beta= 0.30
     Davidson diagonalization with overlap
     ethr =  3.45E-07,  avg # of iterations =  2.0

     negative rho (up, down):  5.131E-03 0.000E+00

     total cpu time spent up to now is     2653.9 secs

     total energy              =    -989.16685819 Ry
     estimated scf accuracy    <       0.00013455 Ry

     iteration # 16     ecut=    80.00 Ry     beta= 0.30
     Davidson diagonalization with overlap
     ethr =  2.59E-07,  avg # of iterations =  1.0

     negative rho (up, down):  3.411E-03 0.000E+00

     total cpu time spent up to now is     2787.1 secs

     total energy              =    -989.16681596 Ry
     estimated scf accuracy    <       0.00012598 Ry

     iteration # 17     ecut=    80.00 Ry     beta= 0.30
     Davidson diagonalization with overlap
     ethr =  2.42E-07,  avg # of iterations =  1.4

     negative rho (up, down):  3.034E-03 0.000E+00

     total cpu time spent up to now is     2925.9 secs

     total energy              =    -989.16680317 Ry
     estimated scf accuracy    <       0.00006982 Ry

     iteration # 18     ecut=    80.00 Ry     beta= 0.30
     Davidson diagonalization with overlap
     ethr =  1.34E-07,  avg # of iterations =  2.0

     negative rho (up, down):  1.633E-03 0.000E+00

     total cpu time spent up to now is     3091.0 secs

     total energy              =    -989.16685278 Ry
     estimated scf accuracy    <       0.00005821 Ry

     iteration # 19     ecut=    80.00 Ry     beta= 0.30
     Davidson diagonalization with overlap
     ethr =  1.12E-07,  avg # of iterations =  2.0

     negative rho (up, down):  1.267E-03 0.000E+00

     total cpu time spent up to now is     3266.7 secs

     total energy              =    -989.16687782 Ry
     estimated scf accuracy    <       0.00001869 Ry

     iteration # 20     ecut=    80.00 Ry     beta= 0.30
     Davidson diagonalization with overlap
     ethr =  3.59E-08,  avg # of iterations =  2.2

     negative rho (up, down):  8.017E-04 0.000E+00

     total cpu time spent up to now is     3427.6 secs

     total energy              =    -989.16688624 Ry
     estimated scf accuracy    <       0.00001148 Ry

     iteration # 21     ecut=    80.00 Ry     beta= 0.30
     Davidson diagonalization with overlap
     ethr =  2.21E-08,  avg # of iterations =  1.2

     negative rho (up, down):  5.491E-04 0.000E+00

     total cpu time spent up to now is     3564.3 secs

     total energy              =    -989.16689032 Ry
     estimated scf accuracy    <       0.00000249 Ry

     iteration # 22     ecut=    80.00 Ry     beta= 0.30
     Davidson diagonalization with overlap
     ethr =  4.79E-09,  avg # of iterations =  4.1

     negative rho (up, down):  2.924E-04 0.000E+00

     total cpu time spent up to now is     3736.3 secs

     total energy              =    -989.16688927 Ry
     estimated scf accuracy    <       0.00000114 Ry

     iteration # 23     ecut=    80.00 Ry     beta= 0.30
     Davidson diagonalization with overlap
     ethr =  2.19E-09,  avg # of iterations =  2.7

     negative rho (up, down):  2.321E-04 0.000E+00

     total cpu time spent up to now is     3896.0 secs

     total energy              =    -989.16688976 Ry
     estimated scf accuracy    <       0.00000035 Ry

     iteration # 24     ecut=    80.00 Ry     beta= 0.30
     Davidson diagonalization with overlap
     ethr =  6.67E-10,  avg # of iterations =  1.8

     negative rho (up, down):  2.165E-04 0.000E+00

     total cpu time spent up to now is     4040.0 secs

     total energy              =    -989.16688953 Ry
     estimated scf accuracy    <       0.00000007 Ry

     iteration # 25     ecut=    80.00 Ry     beta= 0.30
     Davidson diagonalization with overlap
     ethr =  1.31E-10,  avg # of iterations =  4.7

     negative rho (up, down):  2.108E-04 0.000E+00

     total cpu time spent up to now is     4249.2 secs

     total energy              =    -989.16688895 Ry
     estimated scf accuracy    <       0.00000022 Ry

     iteration # 26     ecut=    80.00 Ry     beta= 0.30
     Davidson diagonalization with overlap
     ethr =  1.31E-10,  avg # of iterations =  3.6

     negative rho (up, down):  2.243E-04 0.000E+00

     total cpu time spent up to now is     4431.1 secs

     End of self-consistent calculation

          k = 0.0000 0.0000 0.0000 ( 35507 PWs)   bands (ev):

   -62.9044 -62.9027 -37.0822 -37.0799 -36.8406 -36.8406 -36.8379 -36.8379
   -16.2745 -16.1298 -15.0263 -14.8068  -8.0425  -7.4846  -4.6405  -4.6405
    -4.6212  -4.6211  -4.5558  -3.5321  -3.5320  -3.5038  -3.5037  -3.4188
    -2.4128  -1.6090   0.6652   0.6660   0.7664   0.7667   0.8958

          k = 0.0000 0.0722 0.0000 ( 35493 PWs)   bands (ev):

   -62.9029 -62.9012 -37.0792 -37.0769 -36.8561 -36.8535 -36.8442 -36.8414
   -16.2154 -16.0703 -14.9996 -14.7827  -7.9752  -7.4159  -4.7807  -4.7555
    -4.6944  -4.5786  -4.5585  -3.9387  -3.6293  -3.6000  -3.4811  -3.0838
    -2.4162  -1.6540   0.5496   0.6755   0.7192   0.7322   0.8790

          k = 0.0000 0.1443 0.0000 ( 35435 PWs)   bands (ev):

   -62.8984 -62.8967 -37.0705 -37.0683 -36.9003 -36.8975 -36.8542 -36.8514
   -16.0432 -15.8972 -14.9216 -14.7127  -7.7882  -7.2282  -5.1447  -5.0986
    -5.0103  -4.4536  -4.4005  -4.3781  -3.8803  -3.8495  -3.4583  -2.8944
    -2.4641  -1.8304   0.2246   0.4720   0.4808   0.6236   0.7219

          k = 0.0000 0.2165 0.0000 ( 35345 PWs)   bands (ev):

   -62.8918 -62.8901 -37.0575 -37.0553 -36.9657 -36.9629 -36.8692 -36.8664
   -15.7731 -15.6259 -14.7994 -14.6031  -7.5352  -6.9966  -5.6088  -5.5073
    -5.3936  -4.9814  -4.2097  -4.1737  -4.1249  -4.1009  -3.5874  -2.9387
    -2.6364  -2.1772  -0.1079   0.2941   0.4147   0.4896   0.5334

          k = 0.0000 0.2887 0.0000 ( 35323 PWs)   bands (ev):

   -62.8839 -62.8822 -37.0425 -37.0417 -37.0401 -37.0390 -36.8869 -36.8840
   -15.4314 -15.2834 -14.6454 -14.4655  -7.3397  -6.9150  -6.0471  -5.7921
    -5.7800  -5.4853  -4.5354  -4.5000  -3.8323  -3.8061  -3.7699  -3.1435
    -2.9208  -2.5837  -0.2075   0.2322   0.2695   0.3376   0.7165

          k = 0.0000 0.3608 0.0000 ( 35299 PWs)   bands (ev):

   -62.8760 -62.8744 -37.1175 -37.1145 -37.0267 -37.0246 -36.9044 -36.9016
   -15.0580 -14.9094 -14.4781 -14.3171  -7.3807  -7.1359  -6.3997  -6.0794
    -6.0652  -5.7275  -4.8236  -4.7870  -4.0864  -3.4893  -3.4377  -3.3699
    -3.1346  -2.8342  -0.0800   0.1315   0.2153   0.3720   1.0381

          k = 0.0000 0.4330 0.0000 ( 35224 PWs)   bands (ev):

   -62.8694 -62.8677 -37.1808 -37.1777 -37.0136 -37.0115 -36.9193 -36.9164
   -14.7097 -14.5600 -14.3214 -14.1804  -7.6287  -7.4638  -6.7287  -6.4564
    -6.2248  -5.7973  -5.0443  -5.0068  -4.2839  -3.5353  -3.2359  -3.1652
    -3.1184  -2.7894   0.1281   0.1781   0.1842   0.5355   1.3194

          k = 0.0000 0.5052 0.0000 ( 35152 PWs)   bands (ev):

   -62.8649 -62.8632 -37.2228 -37.2196 -37.0049 -37.0027 -36.9292 -36.9263
   -14.4598 -14.3062 -14.2027 -14.0805  -7.8703  -7.7210  -6.9733  -6.7276
    -6.3299  -5.9113  -5.1820  -5.1440  -4.4017  -3.6328  -3.0815  -2.9945
    -2.9555  -2.5716   0.1810   0.2126   0.4625   0.6977   1.4752

          k = 0.0000-0.5774 0.0000 ( 35026 PWs)   bands (ev):

   -62.8633 -62.8617 -37.2375 -37.2343 -37.0018 -36.9997 -36.9326 -36.9297
   -14.3705 -14.2138 -14.1551 -14.0421  -7.9664  -7.8178  -7.0625  -6.8237
    -6.3745  -5.9662  -5.2287  -5.1905  -4.4397  -3.6650  -3.0311  -2.9378
    -2.8651  -2.4552   0.2123   0.2341   0.6050   0.7726   1.5126

          k = 0.0625 0.1083 0.0000 ( 35467 PWs)   bands (ev):

   -62.8999 -62.8982 -37.0733 -37.0711 -36.8855 -36.8828 -36.8514 -36.8487
   -16.0998 -15.9540 -14.9472 -14.7357  -7.8476  -7.2869  -5.0289  -4.9921
    -4.9104  -4.4607  -4.4391  -4.2947  -3.8487  -3.8115  -3.4095  -2.8986
    -2.4405  -1.7630   0.3268   0.5089   0.5205   0.6650   0.7269

          k = 0.0625 0.1804 0.0000 ( 35370 PWs)   bands (ev):

   -62.8943 -62.8926 -37.0625 -37.0603 -36.9391 -36.9363 -36.8652 -36.8624
   -15.8784 -15.7316 -14.8469 -14.6456  -7.6235  -7.0701  -5.4309  -5.3625
    -5.2267  -4.7440  -4.2551  -4.2240  -4.2160  -4.1656  -3.3996  -2.8232
    -2.5479  -2.0217  -0.0156   0.3187   0.3920   0.4715   0.5859

          k = 0.0625 0.2526 0.0000 ( 35362 PWs)   bands (ev):

   -62.8871 -62.8854 -37.0483 -37.0461 -37.0083 -37.0055 -36.8831 -36.8803
   -15.5719 -15.4241 -14.7082 -14.5214  -7.3855  -6.8928  -5.8636  -5.6959
    -5.5879  -5.2398  -4.6241  -4.5211  -3.9818  -3.9462  -3.5407  -2.9447
    -2.7799  -2.3980  -0.2402   0.1816   0.2978   0.4459   0.4963

          k = 0.0625 0.3248 0.0000 ( 35310 PWs)   bands (ev):

   -62.8792 -62.8775 -37.0825 -37.0795 -37.0329 -37.0307 -36.9025 -36.8997
   -15.2127 -15.0643 -14.5462 -14.3771  -7.2973  -6.9774  -6.2187  -5.9489
    -5.8778  -5.6703  -4.9310  -4.7991  -3.8243  -3.7134  -3.6969  -3.1592
    -3.0069  -2.7201  -0.2570   0.1294   0.2241   0.4183   0.7720

          k = 0.0625 0.3969 0.0000 ( 35243 PWs)   bands (ev):

   -62.8719 -62.8703 -37.1502 -37.1471 -37.0187 -37.0165 -36.9203 -36.9175
   -14.8486 -14.6995 -14.3821 -14.2323  -7.4616  -7.2721  -6.5580  -6.2896
    -6.1558  -5.7345  -5.1228  -4.9953  -4.0644  -3.6090  -3.5671  -3.3136
    -3.0052  -2.7824  -0.1181   0.1606   0.2736   0.4923   1.1017

          k = 0.0625 0.4691 0.0000 ( 35169 PWs)   bands (ev):

   -62.8663 -62.8647 -37.2016 -37.1984 -37.0077 -37.0056 -36.9340 -36.9311
   -14.5450 -14.3934 -14.2413 -14.1113  -7.7155  -7.5631  -6.8775  -6.6499
    -6.2717  -5.8334  -5.2250  -5.1204  -4.2784  -3.5961  -3.5014  -3.2911
    -2.8430  -2.6072   0.0748   0.2287   0.4245   0.6329   1.3902

          k = 0.0625 0.5413 0.0000 ( 35128 PWs)   bands (ev):

   -62.8633 -62.8617 -37.2292 -37.2260 -37.0018 -36.9997 -36.9413 -36.9384
   -14.3739 -14.2175 -14.1534 -14.0391  -7.8851  -7.7371  -7.0620  -6.8472
    -6.3537  -5.9338  -5.2652  -5.1805  -4.3992  -3.6663  -3.4169  -3.2092
    -2.6984  -2.4216   0.1880   0.2574   0.6095   0.7797   1.5792

          k = 0.1250 0.2165 0.0000 ( 35331 PWs)   bands (ev):

   -62.8882 -62.8865 -37.0505 -37.0483 -36.9943 -36.9914 -36.8840 -36.8812
   -15.6203 -15.4725 -14.7297 -14.5405  -7.4038  -6.8888  -5.7828  -5.6504
    -5.4650  -5.0695  -4.7661  -4.6536  -4.0624  -4.0257  -3.3649  -2.8188
    -2.7155  -2.3021  -0.2584   0.1369   0.3106   0.3630   0.4577

          k = 0.1250 0.2887 0.0000 ( 35357 PWs)   bands (ev):

   -62.8809 -62.8792 -37.0577 -37.0548 -37.0363 -37.0341 -36.9073 -36.9045
   -15.2945 -15.1461 -14.5814 -14.4079  -7.2464  -6.8668  -6.0790  -5.7808
    -5.7663  -5.5342  -5.2076  -4.9771  -3.9706  -3.9090  -3.4680  -2.9511
    -2.9055  -2.5892  -0.3920   0.0211   0.2815   0.4658   0.4952

          k = 0.1250 0.3608 0.0000 ( 35341 PWs)   bands (ev):

   -62.8736 -62.8720 -37.1200 -37.1170 -37.0220 -37.0199 -36.9310 -36.9281
   -14.9404 -14.7913 -14.4195 -14.2641  -7.2958  -7.0726  -6.3453  -6.1271
    -6.0904  -5.6771  -5.3742  -5.1068  -4.0534  -3.9474  -3.6803  -3.1007
    -2.9394  -2.7547  -0.3346   0.0794   0.3646   0.5223   0.7599

          k = 0.1250 0.4330 0.0000 ( 35215 PWs)   bands (ev):

   -62.8675 -62.8658 -37.1722 -37.1691 -37.0099 -37.0078 -36.9512 -36.9483
   -14.6133 -14.4625 -14.2666 -14.1305  -7.4908  -7.3302  -6.7576  -6.5911
    -6.1883  -5.7059  -5.3970  -5.1591  -4.1735  -3.9637  -3.9103  -3.3203
    -2.8093  -2.6586  -0.1161   0.2514   0.4897   0.5962   1.0635

          k = 0.1250 0.5052 0.0000 ( 35141 PWs)   bands (ev):

   -62.8633 -62.8617 -37.2068 -37.2037 -37.0018 -36.9997 -36.9647 -36.9618
   -14.3822 -14.2266 -14.1491 -14.0317  -7.6698  -7.5222  -7.0584  -6.9013
    -6.2867  -5.8340  -5.3581  -5.1660  -4.3328  -3.9844  -3.9235  -3.4929
    -2.6280  -2.4512   0.0872   0.2738   0.6454   0.8119   1.3285

          k = 0.1250 0.5774 0.0000 ( 35180 PWs)   bands (ev):

   -62.8619 -62.8602 -37.2189 -37.2158 -36.9990 -36.9969 -36.9695 -36.9665
   -14.3009 -14.1419 -14.1014 -13.9931  -7.7399  -7.5929  -7.1652  -7.0099
    -6.3363  -5.9011  -5.3260  -5.1600  -4.4224  -3.9831  -3.9138  -3.5475
    -2.5369  -2.3394   0.1422   0.2347   0.7552   0.9510   1.4580

          k = 0.1875 0.3248 0.0000 ( 35337 PWs)   bands (ev):

   -62.8742 -62.8726 -37.1065 -37.1034 -37.0232 -37.0210 -36.9378 -36.9349
   -14.9724 -14.8233 -14.4322 -14.2747  -7.2252  -6.9834  -6.1856  -6.0997
    -6.0358  -5.6638  -5.5164  -5.1729  -4.2085  -4.1254  -3.5432  -2.9931
    -2.9219  -2.7374  -0.4171   0.0368   0.3951   0.5374   0.5973

          k = 0.1875 0.3969 0.0000 ( 35241 PWs)   bands (ev):

   -62.8681 -62.8664 -37.1484 -37.1453 -37.0111 -37.0090 -36.9686 -36.9657
   -14.6512 -14.5006 -14.2788 -14.1393  -7.3184  -7.1469  -6.6513  -6.5520
    -6.1148  -5.5736  -5.5243  -5.1873  -4.5300  -4.4214  -3.7798  -3.1757
    -2.8206  -2.7190  -0.2419   0.2412   0.5347   0.5960   0.7801

          k = 0.1875 0.4691 0.0000 ( 35167 PWs)   bands (ev):

   -62.8633 -62.8617 -37.1789 -37.1758 -37.0018 -36.9997 -36.9936 -36.9907
   -14.3907 -14.2358 -14.1444 -14.0241  -7.4201  -7.2687  -7.0514  -6.9519
    -6.1609  -5.6569  -5.4496  -5.1627  -4.7323  -4.5346  -4.0705  -3.4399
    -2.6294  -2.5262  -0.0355   0.2537   0.6759   0.8481   0.9610

          k = 0.1875 0.5413 0.0000 ( 35162 PWs)   bands (ev):

   -62.8608 -62.8591 -37.1949 -37.1918 -37.0075 -37.0046 -36.9968 -36.9947
   -14.2490 -14.0885 -14.0582 -13.9530  -7.4775  -7.3258  -7.2624  -7.1661
    -6.2645  -5.8174  -5.3386  -5.1004  -4.8203  -4.5417  -4.2772  -3.6209
    -2.4484  -2.3212   0.0078   0.1066   0.8579   1.0588   1.1516

          k = 0.2500 0.4330 0.0000 ( 35195 PWs)   bands (ev):

   -62.8633 -62.8617 -37.1644 -37.1613 -37.0085 -37.0056 -37.0018 -36.9997
   -14.3944 -14.2396 -14.1423 -14.0208  -7.3045  -7.1484  -7.0476  -6.9715
    -6.0529  -5.4910  -5.4777  -5.1585  -5.0397  -4.9039  -4.0191  -3.4002
    -2.6383  -2.5640  -0.0883   0.2390   0.6605   0.8431   0.8564

          k = 0.2500 0.5052 0.0000 ( 35193 PWs)   bands (ev):

   -62.8602 -62.8585 -37.1692 -37.1660 -37.0411 -37.0381 -36.9957 -36.9936
   -14.2222 -14.0611 -14.0338 -13.9296  -7.3686  -7.2708  -7.1830  -7.0588
    -6.1081  -5.6712  -5.4675  -5.2650  -5.1707  -4.9949  -4.2976  -3.6451
    -2.4019  -2.3210  -0.1136  -0.0012   0.7272   1.0112   1.1512

          k = 0.2500 0.5774 0.0000 ( 35190 PWs)   bands (ev):

   -62.8591 -62.8574 -37.1690 -37.1659 -37.0544 -37.0514 -36.9935 -36.9914
   -14.1639 -14.0009 -13.9892 -13.8922  -7.4645  -7.3736  -7.1177  -6.9924
    -6.2171  -5.8530  -5.5066  -5.2143  -5.1440  -4.9645  -4.4416  -3.7571
    -2.2767  -2.1846  -0.1862  -0.1456   0.7368   1.1317   1.2025

          k = 0.3125 0.5413 0.0000 ( 35172 PWs)   bands (ev):

   -62.8585 -62.8568 -37.1480 -37.1448 -37.0828 -37.0798 -36.9923 -36.9902
   -14.1348 -13.9717 -13.9630 -13.8689  -7.5260  -7.4466  -6.8881  -6.7569
    -6.1403  -5.9687  -5.9192  -5.3606  -5.1458  -4.9130  -4.5264  -3.8230
    -2.1940  -2.1151  -0.2947  -0.2686   0.6404   1.1255   1.2191

          k =-0.0625 0.0361 0.0000 ( 35493 PWs)   bands (ev):

   -62.9029 -62.9012 -37.0792 -37.0769 -36.8562 -36.8534 -36.8441 -36.8415
   -16.2154 -16.0703 -14.9996 -14.7827  -7.9752  -7.4159  -4.7806  -4.7556
    -4.6945  -4.5786  -4.5585  -3.9387  -3.6291  -3.6002  -3.4812  -3.0837
    -2.4162  -1.6539   0.5489   0.6756   0.7190   0.7331   0.8722

          k =-0.1250 0.0722 0.0000 ( 35435 PWs)   bands (ev):

   -62.8984 -62.8967 -37.0705 -37.0683 -36.9003 -36.8975 -36.8542 -36.8515
   -16.0432 -15.8972 -14.9216 -14.7127  -7.7882  -7.2282  -5.1446  -5.0987
    -5.0102  -4.4537  -4.4005  -4.3781  -3.8802  -3.8497  -3.4585  -2.8942
    -2.4641  -1.8300   0.2237   0.4719   0.4807   0.6244   0.7225

          k =-0.1875 0.1083 0.0000 ( 35345 PWs)   bands (ev):

   -62.8918 -62.8901 -37.0575 -37.0553 -36.9658 -36.9628 -36.8692 -36.8665
   -15.7731 -15.6259 -14.7994 -14.6031  -7.5353  -6.9965  -5.6088  -5.5072
    -5.3937  -4.9814  -4.2094  -4.1739  -4.1249  -4.1010  -3.5878  -2.9384
    -2.6364  -2.1764  -0.1086   0.2941   0.4154   0.4892   0.5331

          k =-0.2500 0.1443 0.0000 ( 35323 PWs)   bands (ev):

   -62.8839 -62.8822 -37.0423 -37.0419 -37.0400 -37.0391 -36.8868 -36.8841
   -15.4315 -15.2834 -14.6455 -14.4655  -7.3397  -6.9150  -6.0474  -5.7894
    -5.7826  -5.4852  -4.5352  -4.5002  -3.8332  -3.8060  -3.7698  -3.1431
    -2.9209  -2.5828  -0.2080   0.2325   0.2698   0.3370   0.7164

          k =-0.3125 0.1804 0.0000 ( 35299 PWs)   bands (ev):

   -62.8760 -62.8744 -37.1176 -37.1145 -37.0267 -37.0246 -36.9044 -36.9016
   -15.0581 -14.9094 -14.4782 -14.3170  -7.3808  -7.1357  -6.4000  -6.0800
    -6.0647  -5.7272  -4.8234  -4.7872  -4.0872  -3.4891  -3.4379  -3.3694
    -3.1346  -2.8334  -0.0804   0.1319   0.2148   0.3720   1.0378

          k =-0.3750 0.2165 0.0000 ( 35224 PWs)   bands (ev):

   -62.8694 -62.8677 -37.1809 -37.1777 -37.0136 -37.0115 -36.9192 -36.9165
   -14.7098 -14.5599 -14.3215 -14.1802  -7.6289  -7.4635  -6.7289  -6.4562
    -6.2253  -5.7969  -5.0441  -5.0071  -4.2848  -3.5347  -3.2355  -3.1658
    -3.1182  -2.7886   0.1284   0.1772   0.1845   0.5354   1.3189

          k =-0.4375 0.2526 0.0000 ( 35152 PWs)   bands (ev):

   -62.8649 -62.8632 -37.2229 -37.2196 -37.0049 -37.0027 -36.9291 -36.9263
   -14.4600 -14.3062 -14.2027 -14.0803  -7.8705  -7.7206  -6.9736  -6.7272
    -6.3305  -5.9109  -5.1818  -5.1442  -4.4027  -3.6321  -3.0810  -2.9955
    -2.9550  -2.5708   0.1812   0.2124   0.4622   0.6977   1.4743

          k = 0.5000-0.2887 0.0000 ( 35026 PWs)   bands (ev):

   -62.8633 -62.8617 -37.2375 -37.2342 -37.0018 -36.9997 -36.9326 -36.9298
   -14.3708 -14.2138 -14.1551 -14.0418  -7.9666  -7.8174  -7.0628  -6.8234
    -6.3751  -5.9658  -5.2285  -5.1907  -4.4407  -3.6642  -3.0307  -2.9387
    -2.8648  -2.4543   0.2125   0.2340   0.6046   0.7729   1.5114

          k = 0.1250 0.0000 0.0000 ( 35467 PWs)   bands (ev):

   -62.8999 -62.8982 -37.0733 -37.0711 -36.8856 -36.8828 -36.8514 -36.8487
   -16.0998 -15.9540 -14.9472 -14.7356  -7.8476  -7.2869  -5.0289  -4.9921
    -4.9104  -4.4607  -4.4391  -4.2947  -3.8485  -3.8118  -3.4096  -2.8985
    -2.4405  -1.7627   0.3261   0.5089   0.5204   0.6656   0.7274

          k =-0.1250 0.1443 0.0000 ( 35370 PWs)   bands (ev):

   -62.8943 -62.8926 -37.0625 -37.0603 -36.9391 -36.9363 -36.8651 -36.8624
   -15.8784 -15.7316 -14.8469 -14.6456  -7.6236  -7.0700  -5.4309  -5.3625
    -5.2267  -4.7440  -4.2550  -4.2239  -4.2161  -4.1657  -3.3998  -2.8231
    -2.5479  -2.0214  -0.0161   0.3187   0.3920   0.4717   0.5856

          k = 0.1875 0.0361 0.0000 ( 35370 PWs)   bands (ev):

   -62.8943 -62.8926 -37.0625 -37.0603 -36.9392 -36.9362 -36.8651 -36.8624
   -15.8785 -15.7316 -14.8469 -14.6456  -7.6236  -7.0700  -5.4309  -5.3625
    -5.2267  -4.7441  -4.2547  -4.2253  -4.2149  -4.1659  -3.3998  -2.8230
    -2.5479  -2.0210  -0.0164   0.3186   0.3919   0.4721   0.5858

          k =-0.1875 0.1804 0.0000 ( 35362 PWs)   bands (ev):

   -62.8871 -62.8854 -37.0483 -37.0461 -37.0084 -37.0054 -36.8831 -36.8803
   -15.5719 -15.4241 -14.7082 -14.5214  -7.3855  -6.8928  -5.8637  -5.6957
    -5.5880  -5.2397  -4.6239  -4.5213  -3.9817  -3.9463  -3.5410  -2.9446
    -2.7799  -2.3973  -0.2405   0.1816   0.2981   0.4455   0.4967

          k = 0.2500 0.0722 0.0000 ( 35362 PWs)   bands (ev):

   -62.8871 -62.8854 -37.0483 -37.0461 -37.0084 -37.0054 -36.8831 -36.8804
   -15.5720 -15.4241 -14.7082 -14.5214  -7.3855  -6.8928  -5.8637  -5.6956
    -5.5880  -5.2397  -4.6240  -4.5214  -3.9819  -3.9462  -3.5411  -2.9446
    -2.7799  -2.3971  -0.2407   0.1816   0.2982   0.4458   0.4964

          k =-0.2500 0.2165 0.0000 ( 35310 PWs)   bands (ev):

   -62.8792 -62.8775 -37.0825 -37.0795 -37.0329 -37.0307 -36.9025 -36.8997
   -15.2128 -15.0643 -14.5463 -14.3770  -7.2974  -6.9773  -6.2190  -5.9489
    -5.8777  -5.6702  -4.9308  -4.7993  -3.8245  -3.7137  -3.6968  -3.1590
    -3.0068  -2.7195  -0.2571   0.1292   0.2243   0.4180   0.7722

          k = 0.3125 0.1083 0.0000 ( 35310 PWs)   bands (ev):

   -62.8792 -62.8775 -37.0825 -37.0794 -37.0329 -37.0307 -36.9024 -36.8997
   -15.2128 -15.0643 -14.5463 -14.3770  -7.2973  -6.9773  -6.2190  -5.9488
    -5.8778  -5.6701  -4.9309  -4.7994  -3.8250  -3.7113  -3.6988  -3.1589
    -3.0069  -2.7193  -0.2573   0.1293   0.2242   0.4181   0.7718

          k =-0.3125 0.2526 0.0000 ( 35243 PWs)   bands (ev):

   -62.8719 -62.8703 -37.1502 -37.1471 -37.0187 -37.0165 -36.9203 -36.9175
   -14.8487 -14.6994 -14.3821 -14.2322  -7.4617  -7.2719  -6.5581  -6.2894
    -6.1562  -5.7343  -5.1225  -4.9955  -4.0649  -3.6088  -3.5672  -3.3134
    -3.0050  -2.7820  -0.1180   0.1605   0.2735   0.4921   1.1018

          k = 0.3750 0.1443 0.0000 ( 35243 PWs)   bands (ev):

   -62.8719 -62.8703 -37.1503 -37.1471 -37.0187 -37.0165 -36.9203 -36.9175
   -14.8487 -14.6994 -14.3821 -14.2322  -7.4617  -7.2718  -6.5582  -6.2894
    -6.1563  -5.7342  -5.1226  -4.9956  -4.0650  -3.6090  -3.5670  -3.3132
    -3.0052  -2.7818  -0.1181   0.1605   0.2734   0.4922   1.1014

          k =-0.3750 0.2887 0.0000 ( 35169 PWs)   bands (ev):

   -62.8663 -62.8647 -37.2016 -37.1984 -37.0077 -37.0056 -36.9339 -36.9311
   -14.5452 -14.3933 -14.2414 -14.1112  -7.7157  -7.5627  -6.8777  -6.6496
    -6.2723  -5.8330  -5.2248  -5.1206  -4.2791  -3.5956  -3.5013  -3.2912
    -2.8428  -2.6067   0.0749   0.2287   0.4243   0.6329   1.3901

          k = 0.4375 0.1804 0.0000 ( 35169 PWs)   bands (ev):

   -62.8663 -62.8647 -37.2016 -37.1984 -37.0077 -37.0056 -36.9339 -36.9311
   -14.5452 -14.3933 -14.2414 -14.1111  -7.7157  -7.5627  -6.8777  -6.6496
    -6.2724  -5.8330  -5.2248  -5.1207  -4.2792  -3.5958  -3.5013  -3.2909
    -2.8429  -2.6066   0.0749   0.2286   0.4243   0.6329   1.3897

          k =-0.4375 0.3248 0.0000 ( 35128 PWs)   bands (ev):

   -62.8633 -62.8617 -37.2293 -37.2260 -37.0018 -36.9997 -36.9413 -36.9385
   -14.3741 -14.2175 -14.1534 -14.0389  -7.8853  -7.7367  -7.0622  -6.8469
    -6.3543  -5.9334  -5.2650  -5.1806  -4.4000  -3.6656  -3.4168  -3.2092
    -2.6984  -2.4209   0.1880   0.2575   0.6092   0.7799   1.5784

          k = 0.5000 0.2165 0.0000 ( 35128 PWs)   bands (ev):

   -62.8633 -62.8617 -37.2293 -37.2260 -37.0018 -36.9997 -36.9413 -36.9385
   -14.3742 -14.2175 -14.1534 -14.0389  -7.8853  -7.7367  -7.0622  -6.8469
    -6.3543  -5.9334  -5.2649  -5.1807  -4.4000  -3.6657  -3.4168  -3.2091
    -2.6984  -2.4209   0.1880   0.2575   0.6092   0.7799   1.5782

          k = 0.2500 0.0000 0.0000 ( 35331 PWs)   bands (ev):

   -62.8882 -62.8865 -37.0505 -37.0483 -36.9944 -36.9914 -36.8839 -36.8812
   -15.6203 -15.4725 -14.7297 -14.5405  -7.4038  -6.8888  -5.7828  -5.6504
    -5.4649  -5.0695  -4.7660  -4.6537  -4.0625  -4.0256  -3.3651  -2.8187
    -2.7156  -2.3014  -0.2588   0.1369   0.3108   0.3630   0.4575

          k =-0.1875 0.2526 0.0000 ( 35357 PWs)   bands (ev):

   -62.8809 -62.8792 -37.0578 -37.0548 -37.0363 -37.0341 -36.9073 -36.9045
   -15.2945 -15.1461 -14.5814 -14.4079  -7.2464  -6.8668  -6.0791  -5.7784
    -5.7687  -5.5343  -5.2074  -4.9772  -3.9706  -3.9090  -3.4681  -2.9512
    -2.9054  -2.5889  -0.3920   0.0211   0.2814   0.4652   0.4958

          k = 0.3125 0.0361 0.0000 ( 35357 PWs)   bands (ev):

   -62.8809 -62.8792 -37.0578 -37.0547 -37.0363 -37.0341 -36.9072 -36.9045
   -15.2946 -15.1460 -14.5815 -14.4079  -7.2464  -6.8668  -6.0792  -5.7778
    -5.7692  -5.5342  -5.2076  -4.9772  -3.9707  -3.9090  -3.4682  -2.9510
    -2.9056  -2.5885  -0.3922   0.0211   0.2814   0.4659   0.4949

          k =-0.2500 0.2887 0.0000 ( 35341 PWs)   bands (ev):

   -62.8736 -62.8720 -37.1201 -37.1170 -37.0220 -37.0199 -36.9310 -36.9282
   -14.9404 -14.7913 -14.4196 -14.2640  -7.2958  -7.0725  -6.3451  -6.1275
    -6.0905  -5.6771  -5.3740  -5.1067  -4.0533  -3.9474  -3.6807  -3.1006
    -2.9391  -2.7545  -0.3345   0.0794   0.3645   0.5221   0.7603

          k = 0.3750 0.0722 0.0000 ( 35341 PWs)   bands (ev):

   -62.8736 -62.8720 -37.1201 -37.1169 -37.0220 -37.0199 -36.9309 -36.9282
   -14.9405 -14.7913 -14.4196 -14.2640  -7.2958  -7.0725  -6.3452  -6.1266
    -6.0915  -5.6770  -5.3742  -5.1068  -4.0535  -3.9473  -3.6806  -3.1004
    -2.9394  -2.7542  -0.3346   0.0794   0.3645   0.5222   0.7598

          k =-0.3125 0.3248 0.0000 ( 35215 PWs)   bands (ev):

   -62.8675 -62.8658 -37.1723 -37.1691 -37.0099 -37.0078 -36.9512 -36.9483
   -14.6134 -14.4625 -14.2666 -14.1304  -7.4909  -7.3299  -6.7575  -6.5911
    -6.1891  -5.7057  -5.3968  -5.1590  -4.1733  -3.9638  -3.9107  -3.3200
    -2.8090  -2.6585  -0.1160   0.2516   0.4895   0.5961   1.0640

          k = 0.4375 0.1083 0.0000 ( 35215 PWs)   bands (ev):

   -62.8675 -62.8658 -37.1723 -37.1691 -37.0099 -37.0078 -36.9511 -36.9484
   -14.6135 -14.4625 -14.2667 -14.1303  -7.4909  -7.3299  -6.7575  -6.5910
    -6.1891  -5.7056  -5.3969  -5.1591  -4.1737  -3.9635  -3.9106  -3.3198
    -2.8093  -2.6583  -0.1160   0.2514   0.4896   0.5962   1.0634

          k =-0.3750 0.3608 0.0000 ( 35141 PWs)   bands (ev):

   -62.8633 -62.8617 -37.2069 -37.2036 -37.0018 -36.9997 -36.9647 -36.9618
   -14.3824 -14.2266 -14.1491 -14.0315  -7.6700  -7.5219  -7.0583  -6.9012
    -6.2875  -5.8337  -5.3581  -5.1658  -4.3329  -3.9845  -3.9236  -3.4926
    -2.6279  -2.4509   0.0871   0.2739   0.6452   0.8121   1.3292

          k = 0.5000 0.1443 0.0000 ( 35141 PWs)   bands (ev):

   -62.8633 -62.8617 -37.2069 -37.2036 -37.0018 -36.9997 -36.9647 -36.9619
   -14.3824 -14.2266 -14.1491 -14.0315  -7.6700  -7.5218  -7.0583  -6.9012
    -6.2875  -5.8337  -5.3581  -5.1659  -4.3331  -3.9845  -3.9235  -3.4923
    -2.6280  -2.4508   0.0872   0.2738   0.6453   0.8121   1.3285

          k =-0.4375 0.3969 0.0000 ( 35180 PWs)   bands (ev):

   -62.8619 -62.8602 -37.2190 -37.2157 -36.9990 -36.9969 -36.9694 -36.9666
   -14.3012 -14.1419 -14.1014 -13.9929  -7.7402  -7.5925  -7.1652  -7.0098
    -6.3372  -5.9008  -5.3260  -5.1599  -4.4227  -3.9831  -3.9139  -3.5471
    -2.5369  -2.3390   0.1421   0.2349   0.7550   0.9515   1.4585

          k = 0.3750 0.0000 0.0000 ( 35337 PWs)   bands (ev):

   -62.8742 -62.8726 -37.1065 -37.1034 -37.0232 -37.0210 -36.9377 -36.9350
   -14.9725 -14.8233 -14.4322 -14.2746  -7.2251  -6.9834  -6.1856  -6.0986
    -6.0371  -5.6636  -5.5165  -5.1729  -4.2084  -4.1255  -3.5432  -2.9929
    -2.9221  -2.7371  -0.4172   0.0368   0.3950   0.5378   0.5967

          k =-0.2500 0.3608 0.0000 ( 35241 PWs)   bands (ev):

   -62.8681 -62.8664 -37.1484 -37.1453 -37.0111 -37.0090 -36.9686 -36.9657
   -14.6512 -14.5006 -14.2789 -14.1393  -7.3184  -7.1468  -6.6511  -6.5521
    -6.1152  -5.5737  -5.5240  -5.1871  -4.5300  -4.4214  -3.7800  -3.1757
    -2.8203  -2.7191  -0.2418   0.2412   0.5345   0.5959   0.7804

          k = 0.4375 0.0361 0.0000 ( 35241 PWs)   bands (ev):

   -62.8681 -62.8664 -37.1485 -37.1453 -37.0111 -37.0090 -36.9686 -36.9658
   -14.6513 -14.5006 -14.2789 -14.1392  -7.3184  -7.1468  -6.6512  -6.5518
    -6.1157  -5.5731  -5.5246  -5.1871  -4.5300  -4.4214  -3.7798  -3.1755
    -2.8205  -2.7190  -0.2418   0.2411   0.5348   0.5959   0.7800

          k =-0.3125 0.3969 0.0000 ( 35167 PWs)   bands (ev):

   -62.8633 -62.8617 -37.1790 -37.1758 -37.0019 -36.9997 -36.9935 -36.9907
   -14.3908 -14.2358 -14.1444 -14.0240  -7.4202  -7.2686  -7.0511  -6.9519
    -6.1618  -5.6566  -5.4496  -5.1624  -4.7320  -4.5347  -4.0708  -3.4398
    -2.6292  -2.5262  -0.0355   0.2538   0.6759   0.8482   0.9615

          k = 0.5000 0.0722 0.0000 ( 35167 PWs)   bands (ev):

   -62.8633 -62.8617 -37.1790 -37.1758 -37.0019 -36.9997 -36.9935 -36.9907
   -14.3909 -14.2358 -14.1444 -14.0239  -7.4202  -7.2685  -7.0511  -6.9519
    -6.1619  -5.6565  -5.4497  -5.1625  -4.7323  -4.5346  -4.0705  -3.4397
    -2.6294  -2.5261  -0.0354   0.2537   0.6759   0.8482   0.9610

          k =-0.3750 0.4330 0.0000 ( 35162 PWs)   bands (ev):

   -62.8608 -62.8591 -37.1950 -37.1918 -37.0075 -37.0046 -36.9968 -36.9947
   -14.2492 -14.0885 -14.0582 -13.9528  -7.4777  -7.3257  -7.2619  -7.1660
    -6.2655  -5.8171  -5.3388  -5.1000  -4.8198  -4.5418  -4.2776  -3.6207
    -2.4484  -2.3211   0.0077   0.1068   0.8578   1.0591   1.1520

          k = 0.5625 0.1083 0.0000 ( 35162 PWs)   bands (ev):

   -62.8608 -62.8591 -37.1950 -37.1917 -37.0075 -37.0046 -36.9968 -36.9947
   -14.2492 -14.0885 -14.0582 -13.9528  -7.4777  -7.3257  -7.2619  -7.1660
    -6.2655  -5.8170  -5.3388  -5.1001  -4.8200  -4.5418  -4.2775  -3.6207
    -2.4484  -2.3210   0.0078   0.1067   0.8577   1.0592   1.1517

          k = 0.5000 0.0000 0.0000 ( 35195 PWs)   bands (ev):

   -62.8633 -62.8617 -37.1645 -37.1612 -37.0085 -37.0057 -37.0018 -36.9997
   -14.3945 -14.2396 -14.1423 -14.0207  -7.3045  -7.1482  -7.0476  -6.9713
    -6.0534  -5.4883  -5.4805  -5.1583  -5.0397  -4.9039  -4.0188  -3.4002
    -2.6383  -2.5640  -0.0882   0.2389   0.6605   0.8430   0.8563

          k =-0.3125 0.4691 0.0000 ( 35193 PWs)   bands (ev):

   -62.8602 -62.8585 -37.1692 -37.1660 -37.0411 -37.0382 -36.9957 -36.9936
   -14.2223 -14.0611 -14.0338 -13.9295  -7.3686  -7.2708  -7.1830  -7.0586
    -6.1088  -5.6709  -5.4672  -5.2652  -5.1707  -4.9947  -4.2978  -3.6450
    -2.4019  -2.3211  -0.1136  -0.0012   0.7273   1.0111   1.1511

          k = 0.5625 0.0361 0.0000 ( 35193 PWs)   bands (ev):

   -62.8602 -62.8585 -37.1692 -37.1660 -37.0411 -37.0382 -36.9957 -36.9935
   -14.2224 -14.0611 -14.0338 -13.9294  -7.3686  -7.2708  -7.1830  -7.0585
    -6.1090  -5.6707  -5.4677  -5.2650  -5.1708  -4.9947  -4.2975  -3.6451
    -2.4019  -2.3210  -0.1136  -0.0012   0.7272   1.0112   1.1508

          k =-0.3750 0.5052 0.0000 ( 35190 PWs)   bands (ev):

   -62.8591 -62.8574 -37.1691 -37.1658 -37.0543 -37.0514 -36.9935 -36.9914
   -14.1640 -14.0009 -13.9891 -13.8921  -7.4645  -7.3736  -7.1178  -6.9919
    -6.2181  -5.8526  -5.5064  -5.2146  -5.1441  -4.9639  -4.4418  -3.7571
    -2.2767  -2.1845  -0.1863  -0.1455   0.7369   1.1315   1.2022

          k = 0.6250 0.0000 0.0000 ( 35172 PWs)   bands (ev):

   -62.8585 -62.8568 -37.1480 -37.1448 -37.0828 -37.0799 -36.9923 -36.9902
   -14.1349 -13.9717 -13.9630 -13.8689  -7.5259  -7.4466  -6.8881  -6.7567
    -6.1410  -5.9689  -5.9187  -5.3606  -5.1459  -4.9129  -4.5263  -3.8230
    -2.1940  -2.1151  -0.2947  -0.2686   0.6404   1.1255   1.2190

     the Fermi energy is    -1.0634 ev

!    total energy              =    -989.16688896 Ry
     total all-electron energy =    -19385.827311 Ry
     estimated scf accuracy    <          4.1E-09 Ry
     smearing contrib. (-TS)   =       0.00003346 Ry
     internal energy E=F+TS    =    -989.16692243 Ry

     The total energy is F=E-TS. E is the sum of the following terms:
     one-electron contribution =  -10389.80174366 Ry
     hartree contribution      =    5197.97656789 Ry
     xc contribution           =     -59.62622273 Ry
     ewald contribution        =    4897.21392134 Ry
     one-center paw contrib.   =    -634.92944527 Ry

     convergence has been achieved in  26 iterations

     Writing all to output data dir ./tmp/gsfe_019/mos2_gsfe_019.save/ :
     XML data file, charge density, pseudopotentials, collected wavefunctions

     init_run     :    101.16s CPU    102.87s WALL (       1 calls)
     electrons    :   4242.74s CPU   4328.15s WALL (       1 calls)

     Called by init_run:
     wfcinit      :     54.28s CPU     54.53s WALL (       1 calls)
     potinit      :     43.95s CPU     44.39s WALL (       1 calls)
     hinit0       :      0.34s CPU      0.37s WALL (       1 calls)

     Called by electrons:
     c_bands      :   3495.01s CPU   3515.30s WALL (      27 calls)
     sum_band     :    564.41s CPU    594.98s WALL (      27 calls)
     v_of_rho     :    128.22s CPU    137.45s WALL (      27 calls)
     newd         :     60.20s CPU     86.32s WALL (      27 calls)
     PAW_pot      :      5.43s CPU      5.43s WALL (      27 calls)
     mix_rho      :     34.64s CPU     35.21s WALL (      27 calls)
     vdW_kernel   :     40.11s CPU     40.12s WALL (       1 calls)

     Called by c_bands:
     init_us_2    :     30.35s CPU     30.36s WALL (    4015 calls)
     init_us_2:cp :     30.34s CPU     30.36s WALL (    4015 calls)
     cegterg      :   3253.08s CPU   3272.91s WALL (    1971 calls)

     Called by *egterg:
     cdiaghg      :      3.28s CPU      3.29s WALL (    6836 calls)
     h_psi        :   2027.45s CPU   2029.45s WALL (    6982 calls)
     s_psi        :    438.63s CPU    439.05s WALL (    6982 calls)
     g_psi        :     14.01s CPU     14.02s WALL (    4938 calls)

     Called by h_psi:
     h_psi:calbec :    575.67s CPU    575.83s WALL (    6982 calls)
     vloc_psi     :   1006.47s CPU   1007.17s WALL (    6982 calls)
     add_vuspsi   :    438.89s CPU    439.03s WALL (    6982 calls)

     General routines
     calbec       :    813.01s CPU    813.23s WALL (    8953 calls)
     fft          :     33.32s CPU     33.33s WALL (    1700 calls)
     ffts         :     17.08s CPU     17.09s WALL (    3129 calls)
     fftw         :    888.77s CPU    889.28s WALL (  356557 calls)
     interpolate  :      0.80s CPU      0.80s WALL (      27 calls)

     Parallel routines

     PWSCF        :      1h12m CPU      1h13m WALL


   This run was terminated on:  14:48: 4  15Jun2026            

=------------------------------------------------------------------------------=
   JOB DONE.
=------------------------------------------------------------------------------=
Note: The following floating-point exceptions are signalling: IEEE_UNDERFLOW_FLAG IEEE_DENORMAL
