Authorization required, but no authorization protocol specified

Authorization required, but no authorization protocol specified

Authorization required, but no authorization protocol specified

Authorization required, but no authorization protocol specified

Authorization required, but no authorization protocol specified

Authorization required, but no authorization protocol specified

Authorization required, but no authorization protocol specified

Authorization required, but no authorization protocol specified


     Program PWSCF v.7.3 starts on 14Jun2026 at 15:36:19 

     This program is part of the open-source Quantum ESPRESSO suite
     for quantum simulation of materials; please cite
         "P. Giannozzi et al., J. Phys.:Condens. Matter 21 395502 (2009);
         "P. Giannozzi et al., J. Phys.:Condens. Matter 29 465901 (2017);
         "P. Giannozzi et al., J. Chem. Phys. 152 154105 (2020);
          URL http://www.quantum-espresso.org", 
     in publications or presentations arising from this work. More details at
     http://www.quantum-espresso.org/quote

     Parallel version (MPI), running on     1 processors

     MPI processes distributed on     1 nodes
     5930 MiB available memory on the printing compute node when the environment starts

     Waiting for input...
     Reading input from standard input

     Current dimensions of program PWSCF are:
     Max number of different atomic species (ntypx) = 10
     Max number of k-points (npk) =  40000
     Max angular momentum in pseudopotentials (lmaxx) =  4
     file Mo.pbe-spn-kjpaw_psl.1.0.0.UPF: wavefunction(s)  4S 4D renormalized
     file S.pbe-n-kjpaw_psl.1.0.0.UPF: wavefunction(s)  3S 3P renormalized

     IMPORTANT: XC functional enforced from input :
     Exchange-correlation= VDW-DF2-B86R
                           (   1   4  26   0   2   0   0)
     Any further DFT definition will be discarded
     Please, verify this is what you really want


     Subspace diagonalization in iterative solution of the eigenvalue problem:
     a serial algorithm will be used


     G-vector sticks info
     --------------------
     sticks:   dense  smooth     PW     G-vecs:    dense   smooth      PW
     Sum        1573     769    223               797393   281171   43435

     Using Slab Decomposition



     bravais-lattice index     =            4
     lattice parameter (alat)  =       5.9715  a.u.
     unit-cell volume          =    2917.9067 (a.u.)^3
     number of atoms/cell      =            6
     number of atomic types    =            2
     number of electrons       =        52.00
     number of Kohn-Sham states=           31
     kinetic-energy cutoff     =      80.0000  Ry
     charge density cutoff     =     640.0000  Ry
     scf convergence threshold =      1.0E-08
     mixing beta               =       0.3000
     number of iterations used =            8  local-TF  mixing
     Exchange-correlation= VDW-DF2-B86R
                           (   1   4  26   0   2   0   0)

     celldm(1)=   5.971535  celldm(2)=   0.000000  celldm(3)=  15.822785
     celldm(4)=   0.000000  celldm(5)=   0.000000  celldm(6)=   0.000000

     crystal axes: (cart. coord. in units of alat)
               a(1) = (   1.000000   0.000000   0.000000 )  
               a(2) = (  -0.500000   0.866025   0.000000 )  
               a(3) = (   0.000000   0.000000  15.822785 )  

     reciprocal axes: (cart. coord. in units 2 pi/alat)
               b(1) = (  1.000000  0.577350 -0.000000 )  
               b(2) = (  0.000000  1.154701  0.000000 )  
               b(3) = (  0.000000 -0.000000  0.063200 )  


     PseudoPot. # 1 for Mo read from file:
     ./pseudo/Mo.pbe-spn-kjpaw_psl.1.0.0.UPF
     MD5 check sum: 4396e0c640fcce5c25f020efccf1ab12
     Pseudo is Projector augmented-wave + core cor, Zval = 14.0
     Generated using &quot;atomic&quot; code by A. Dal Corso  v.6.3
     Shape of augmentation charge: PSQ
     Using radial grid of 1229 points,  6 beta functions with: 
                l(1) =   0
                l(2) =   0
                l(3) =   1
                l(4) =   1
                l(5) =   2
                l(6) =   2
     Q(r) pseudized with 0 coefficients 


     PseudoPot. # 2 for S  read from file:
     ./pseudo/S.pbe-n-kjpaw_psl.1.0.0.UPF
     MD5 check sum: fb45dfebcf3e72a4e1bd4a866ec2e262
     Pseudo is Projector augmented-wave + core cor, Zval =  6.0
     Generated using &quot;atomic&quot; code by A. Dal Corso  v.6.3
     Shape of augmentation charge: PSQ
     Using radial grid of 1151 points,  6 beta functions with: 
                l(1) =   0
                l(2) =   0
                l(3) =   1
                l(4) =   1
                l(5) =   2
                l(6) =   2
     Q(r) pseudized with 0 coefficients 


     atomic species   valence    mass     pseudopotential
     Mo               14.00    95.96000     Mo( 1.00)
     S                 6.00    32.06000     S ( 1.00)

      2 Sym. Ops. (no inversion) found



   Cartesian axes

     site n.     atom                  positions (alat units)
         1        S      tau(   1) = (  -0.0000005   0.5773506   6.4231013  )
         2        Mo     tau(   2) = (   0.0000000   0.0000000   6.9204905  )
         3        S      tau(   3) = (  -0.0000005   0.5773506   7.4181013  )
         4        S      tau(   4) = (   0.5000000   0.1732051   8.4034019  )
         5        Mo     tau(   5) = (   0.0000005   0.4618799   8.9017247  )
         6        S      tau(   6) = (   0.5000000   0.1732051   9.3996835  )

     number of k points=    73  Methfessel-Paxton smearing, width (Ry)=  0.0200
                       cart. coord. in units 2pi/alat
        k(    1) = (   0.0000000   0.0000000   0.0000000), wk =   0.0078125
        k(    2) = (   0.0000000   0.0721688   0.0000000), wk =   0.0156250
        k(    3) = (   0.0000000   0.1443376   0.0000000), wk =   0.0156250
        k(    4) = (   0.0000000   0.2165064   0.0000000), wk =   0.0156250
        k(    5) = (   0.0000000   0.2886751   0.0000000), wk =   0.0156250
        k(    6) = (   0.0000000   0.3608439   0.0000000), wk =   0.0156250
        k(    7) = (   0.0000000   0.4330127   0.0000000), wk =   0.0156250
        k(    8) = (   0.0000000   0.5051815   0.0000000), wk =   0.0156250
        k(    9) = (   0.0000000  -0.5773503   0.0000000), wk =   0.0078125
        k(   10) = (   0.0625000   0.1082532   0.0000000), wk =   0.0312500
        k(   11) = (   0.0625000   0.1804220   0.0000000), wk =   0.0312500
        k(   12) = (   0.0625000   0.2525907   0.0000000), wk =   0.0312500
        k(   13) = (   0.0625000   0.3247595   0.0000000), wk =   0.0312500
        k(   14) = (   0.0625000   0.3969283   0.0000000), wk =   0.0312500
        k(   15) = (   0.0625000   0.4690971   0.0000000), wk =   0.0312500
        k(   16) = (   0.0625000   0.5412659   0.0000000), wk =   0.0312500
        k(   17) = (   0.1250000   0.2165064   0.0000000), wk =   0.0312500
        k(   18) = (   0.1250000   0.2886751   0.0000000), wk =   0.0312500
        k(   19) = (   0.1250000   0.3608439   0.0000000), wk =   0.0312500
        k(   20) = (   0.1250000   0.4330127   0.0000000), wk =   0.0312500
        k(   21) = (   0.1250000   0.5051815   0.0000000), wk =   0.0312500
        k(   22) = (   0.1250000   0.5773503   0.0000000), wk =   0.0156250
        k(   23) = (   0.1875000   0.3247595   0.0000000), wk =   0.0312500
        k(   24) = (   0.1875000   0.3969283   0.0000000), wk =   0.0312500
        k(   25) = (   0.1875000   0.4690971   0.0000000), wk =   0.0312500
        k(   26) = (   0.1875000   0.5412659   0.0000000), wk =   0.0312500
        k(   27) = (   0.2500000   0.4330127   0.0000000), wk =   0.0312500
        k(   28) = (   0.2500000   0.5051815   0.0000000), wk =   0.0312500
        k(   29) = (   0.2500000   0.5773503   0.0000000), wk =   0.0156250
        k(   30) = (   0.3125000   0.5412659   0.0000000), wk =   0.0312500
        k(   31) = (  -0.0625000   0.0360844   0.0000000), wk =   0.0312500
        k(   32) = (  -0.1250000   0.0721688   0.0000000), wk =   0.0312500
        k(   33) = (  -0.1875000   0.1082532   0.0000000), wk =   0.0312500
        k(   34) = (  -0.2500000   0.1443376   0.0000000), wk =   0.0312500
        k(   35) = (  -0.3125000   0.1804220   0.0000000), wk =   0.0312500
        k(   36) = (  -0.3750000   0.2165064   0.0000000), wk =   0.0312500
        k(   37) = (  -0.4375000   0.2525907   0.0000000), wk =   0.0312500
        k(   38) = (   0.5000000  -0.2886751   0.0000000), wk =   0.0156250
        k(   39) = (   0.1250000   0.0000000   0.0000000), wk =   0.0156250
        k(   40) = (  -0.1250000   0.1443376   0.0000000), wk =   0.0312500
        k(   41) = (   0.1875000   0.0360844   0.0000000), wk =   0.0312500
        k(   42) = (  -0.1875000   0.1804220   0.0000000), wk =   0.0312500
        k(   43) = (   0.2500000   0.0721688   0.0000000), wk =   0.0312500
        k(   44) = (  -0.2500000   0.2165064   0.0000000), wk =   0.0312500
        k(   45) = (   0.3125000   0.1082532   0.0000000), wk =   0.0312500
        k(   46) = (  -0.3125000   0.2525907   0.0000000), wk =   0.0312500
        k(   47) = (   0.3750000   0.1443376   0.0000000), wk =   0.0312500
        k(   48) = (  -0.3750000   0.2886751   0.0000000), wk =   0.0312500
        k(   49) = (   0.4375000   0.1804220   0.0000000), wk =   0.0312500
        k(   50) = (  -0.4375000   0.3247595   0.0000000), wk =   0.0312500
        k(   51) = (   0.5000000   0.2165064   0.0000000), wk =   0.0312500
        k(   52) = (   0.2500000   0.0000000   0.0000000), wk =   0.0156250
        k(   53) = (  -0.1875000   0.2525907   0.0000000), wk =   0.0312500
        k(   54) = (   0.3125000   0.0360844   0.0000000), wk =   0.0312500
        k(   55) = (  -0.2500000   0.2886751   0.0000000), wk =   0.0312500
        k(   56) = (   0.3750000   0.0721688   0.0000000), wk =   0.0312500
        k(   57) = (  -0.3125000   0.3247595   0.0000000), wk =   0.0312500
        k(   58) = (   0.4375000   0.1082532   0.0000000), wk =   0.0312500
        k(   59) = (  -0.3750000   0.3608439   0.0000000), wk =   0.0312500
        k(   60) = (   0.5000000   0.1443376   0.0000000), wk =   0.0312500
        k(   61) = (  -0.4375000   0.3969283   0.0000000), wk =   0.0312500
        k(   62) = (   0.3750000   0.0000000   0.0000000), wk =   0.0156250
        k(   63) = (  -0.2500000   0.3608439   0.0000000), wk =   0.0312500
        k(   64) = (   0.4375000   0.0360844   0.0000000), wk =   0.0312500
        k(   65) = (  -0.3125000   0.3969283   0.0000000), wk =   0.0312500
        k(   66) = (   0.5000000   0.0721688   0.0000000), wk =   0.0312500
        k(   67) = (  -0.3750000   0.4330127   0.0000000), wk =   0.0312500
        k(   68) = (   0.5625000   0.1082532   0.0000000), wk =   0.0312500
        k(   69) = (   0.5000000   0.0000000   0.0000000), wk =   0.0156250
        k(   70) = (  -0.3125000   0.4690971   0.0000000), wk =   0.0312500
        k(   71) = (   0.5625000   0.0360844   0.0000000), wk =   0.0312500
        k(   72) = (  -0.3750000   0.5051815   0.0000000), wk =   0.0312500
        k(   73) = (   0.6250000   0.0000000   0.0000000), wk =   0.0156250

     Dense  grid:   797393 G-vectors     FFT dimensions: (  50,  50, 768)

     Smooth grid:   281171 G-vectors     FFT dimensions: (  36,  36, 540)

     Estimated max dynamical RAM per process >       4.00 GB

     Initial potential from superposition of free atoms

     starting charge      51.9981, renormalised to      52.0000

     negative rho (up, down):  1.917E-04 0.000E+00


     %%%%%%%%%%%%%%%%%%%%%%%%%%%%%%%%%%%%%%%%%%%%%%%%%%%%%%%%%%%%%%%%%%%%%%%%
     %                                                                      %
     % You are using vdW-DF, which was implemented by the Thonhauser group. %
     % Please cite the following two papers that made this development      %
     % possible and the two reviews that describe the various versions:     %
     %                                                                      %
     %   T. Thonhauser et al., PRL 115, 136402 (2015).                      %
     %   T. Thonhauser et al., PRB 76, 125112 (2007).                       %
     %   K. Berland et al., Rep. Prog. Phys. 78, 066501 (2015).             %
     %   D.C. Langreth et al., J. Phys.: Condens. Matter 21, 084203 (2009). %
     %                                                                      %
     % If you are calculating stress with vdW-DF, please also cite:         %
     %                                                                      %
     %   R. Sabatini et al., J. Phys.: Condens. Matter 24, 424209 (2012).   %
     %                                                                      %
     %%%%%%%%%%%%%%%%%%%%%%%%%%%%%%%%%%%%%%%%%%%%%%%%%%%%%%%%%%%%%%%%%%%%%%%%

     %%%%%%%%%%%%%%%%%%%%%%%%%%%%%%%%%%%%%%%%%%%%%%%%%%%%%%%%%%%%%%%%%%%%%%%%
     %                                                                      %
     %  vdW-DF NEWS:                                                        %
     %                                                                      %
     %  * vdW-DF3 is now available. DOI: 10.1021/acs.jctc.0c00471           %
     %    use with input_dft = 'vdW-DF3-opt1' or 'vdW-DF3-opt2'             %
     %                                                                      %
     %  * Unscreened and range-separated hybrid vdW-DF-cx functionals       %
     %    DOI: 10.1063/1.4986522 and 10.1088/1361-648X/ac2ad2               %
     %    use with input_dft = 'vdW-DF-cx0'    and 'vdW-DF-ahcx'            %
     %  * Unscreened and range-separated hybrid vdW-DF2-b86r functionals    %
     %    DOI: 10.1063/1.4986522 and DOI: 10.1103/PhysRevX.12.041003        %
     %    use with input_dft = 'vdW-DF2-br0' and 'vdW-DF2-ahbr'             %
     %                                                                      %
     %%%%%%%%%%%%%%%%%%%%%%%%%%%%%%%%%%%%%%%%%%%%%%%%%%%%%%%%%%%%%%%%%%%%%%%%


     Starting wfcs are   36 randomized atomic wfcs
     Checking if some PAW data can be deallocated... 

     total cpu time spent up to now is      101.0 secs

     Self-consistent Calculation

     iteration #  1     ecut=    80.00 Ry     beta= 0.30
     Davidson diagonalization with overlap
     ethr =  1.00E-02,  avg # of iterations =  2.2

     Threshold (ethr) on eigenvalues was too large:
     Diagonalizing with lowered threshold

     Davidson diagonalization with overlap
     ethr =  2.74E-04,  avg # of iterations =  3.8

     negative rho (up, down):  7.657E-05 0.000E+00

     total cpu time spent up to now is      455.1 secs

     total energy              =    -989.21780413 Ry
     estimated scf accuracy    <       0.22769460 Ry

     iteration #  2     ecut=    80.00 Ry     beta= 0.30
     Davidson diagonalization with overlap
     ethr =  4.38E-04,  avg # of iterations =  1.0

     negative rho (up, down):  1.118E-04 0.000E+00

     total cpu time spent up to now is      588.2 secs

     total energy              =    -989.14512929 Ry
     estimated scf accuracy    <       0.16348299 Ry

     iteration #  3     ecut=    80.00 Ry     beta= 0.30
     Davidson diagonalization with overlap
     ethr =  3.14E-04,  avg # of iterations =  2.0

     negative rho (up, down):  3.476E-05 0.000E+00

     total cpu time spent up to now is      755.4 secs

     total energy              =    -989.17730142 Ry
     estimated scf accuracy    <       0.01542299 Ry

     iteration #  4     ecut=    80.00 Ry     beta= 0.30
     Davidson diagonalization with overlap
     ethr =  2.97E-05,  avg # of iterations =  2.5

     negative rho (up, down):  8.608E-06 0.000E+00

     total cpu time spent up to now is      927.7 secs

     total energy              =    -989.17766994 Ry
     estimated scf accuracy    <       0.00856968 Ry

     iteration #  5     ecut=    80.00 Ry     beta= 0.30
     Davidson diagonalization with overlap
     ethr =  1.65E-05,  avg # of iterations =  2.9

     negative rho (up, down):  2.830E-06 0.000E+00

     total cpu time spent up to now is     1081.5 secs

     total energy              =    -989.17798750 Ry
     estimated scf accuracy    <       0.00296654 Ry

     iteration #  6     ecut=    80.00 Ry     beta= 0.30
     Davidson diagonalization with overlap
     ethr =  5.70E-06,  avg # of iterations =  3.8

     negative rho (up, down):  5.876E-07 0.000E+00

     total cpu time spent up to now is     1227.7 secs

     total energy              =    -989.17772118 Ry
     estimated scf accuracy    <       0.00263037 Ry

     iteration #  7     ecut=    80.00 Ry     beta= 0.30
     Davidson diagonalization with overlap
     ethr =  5.06E-06,  avg # of iterations =  1.4

     negative rho (up, down):  5.712E-07 0.000E+00

     total cpu time spent up to now is     1366.0 secs

     total energy              =    -989.17739387 Ry
     estimated scf accuracy    <       0.00243014 Ry

     iteration #  8     ecut=    80.00 Ry     beta= 0.30
     Davidson diagonalization with overlap
     ethr =  4.67E-06,  avg # of iterations =  3.7

     negative rho (up, down):  7.056E-04 0.000E+00

     total cpu time spent up to now is     1542.2 secs

     total energy              =    -989.17683158 Ry
     estimated scf accuracy    <       0.00417396 Ry

     iteration #  9     ecut=    80.00 Ry     beta= 0.30
     Davidson diagonalization with overlap
     ethr =  4.67E-06,  avg # of iterations =  2.5

     negative rho (up, down):  2.133E-03 0.000E+00

     total cpu time spent up to now is     1709.0 secs

     total energy              =    -989.17732638 Ry
     estimated scf accuracy    <       0.00063610 Ry

     iteration # 10     ecut=    80.00 Ry     beta= 0.30
     Davidson diagonalization with overlap
     ethr =  1.22E-06,  avg # of iterations =  4.2

     negative rho (up, down):  4.030E-03 0.000E+00

     total cpu time spent up to now is     1862.7 secs

     total energy              =    -989.17734535 Ry
     estimated scf accuracy    <       0.00047188 Ry

     iteration # 11     ecut=    80.00 Ry     beta= 0.30
     Davidson diagonalization with overlap
     ethr =  9.07E-07,  avg # of iterations =  2.3

     negative rho (up, down):  4.776E-03 0.000E+00

     total cpu time spent up to now is     2032.4 secs

     total energy              =    -989.17733249 Ry
     estimated scf accuracy    <       0.00054768 Ry

     iteration # 12     ecut=    80.00 Ry     beta= 0.30
     Davidson diagonalization with overlap
     ethr =  9.07E-07,  avg # of iterations =  3.0

     negative rho (up, down):  5.940E-03 0.000E+00

     total cpu time spent up to now is     2202.9 secs

     total energy              =    -989.17719308 Ry
     estimated scf accuracy    <       0.00088312 Ry

     iteration # 13     ecut=    80.00 Ry     beta= 0.30
     Davidson diagonalization with overlap
     ethr =  9.07E-07,  avg # of iterations =  2.6

     negative rho (up, down):  6.479E-03 0.000E+00

     total cpu time spent up to now is     2359.6 secs

     total energy              =    -989.17727011 Ry
     estimated scf accuracy    <       0.00021240 Ry

     iteration # 14     ecut=    80.00 Ry     beta= 0.30
     Davidson diagonalization with overlap
     ethr =  4.08E-07,  avg # of iterations =  2.6

     negative rho (up, down):  4.773E-03 0.000E+00

     total cpu time spent up to now is     2507.7 secs

     total energy              =    -989.17724460 Ry
     estimated scf accuracy    <       0.00018471 Ry

     iteration # 15     ecut=    80.00 Ry     beta= 0.30
     Davidson diagonalization with overlap
     ethr =  3.55E-07,  avg # of iterations =  2.0

     negative rho (up, down):  4.421E-03 0.000E+00

     total cpu time spent up to now is     2658.0 secs

     total energy              =    -989.17720749 Ry
     estimated scf accuracy    <       0.00013638 Ry

     iteration # 16     ecut=    80.00 Ry     beta= 0.30
     Davidson diagonalization with overlap
     ethr =  2.62E-07,  avg # of iterations =  1.0

     negative rho (up, down):  2.832E-03 0.000E+00

     total cpu time spent up to now is     2791.0 secs

     total energy              =    -989.17721037 Ry
     estimated scf accuracy    <       0.00013222 Ry

     iteration # 17     ecut=    80.00 Ry     beta= 0.30
     Davidson diagonalization with overlap
     ethr =  2.54E-07,  avg # of iterations =  2.0

     negative rho (up, down):  2.609E-03 0.000E+00

     total cpu time spent up to now is     2956.1 secs

     total energy              =    -989.17723850 Ry
     estimated scf accuracy    <       0.00006548 Ry

     iteration # 18     ecut=    80.00 Ry     beta= 0.30
     Davidson diagonalization with overlap
     ethr =  1.26E-07,  avg # of iterations =  1.6

     negative rho (up, down):  1.709E-03 0.000E+00

     total cpu time spent up to now is     3097.5 secs

     total energy              =    -989.17729736 Ry
     estimated scf accuracy    <       0.00002554 Ry

     iteration # 19     ecut=    80.00 Ry     beta= 0.30
     Davidson diagonalization with overlap
     ethr =  4.91E-08,  avg # of iterations =  2.1

     negative rho (up, down):  1.317E-03 0.000E+00

     total cpu time spent up to now is     3254.4 secs

     total energy              =    -989.17730846 Ry
     estimated scf accuracy    <       0.00001108 Ry

     iteration # 20     ecut=    80.00 Ry     beta= 0.30
     Davidson diagonalization with overlap
     ethr =  2.13E-08,  avg # of iterations =  2.0

     negative rho (up, down):  6.338E-04 0.000E+00

     total cpu time spent up to now is     3413.3 secs

     total energy              =    -989.17731717 Ry
     estimated scf accuracy    <       0.00000436 Ry

     iteration # 21     ecut=    80.00 Ry     beta= 0.30
     Davidson diagonalization with overlap
     ethr =  8.39E-09,  avg # of iterations =  2.2

     negative rho (up, down):  2.235E-04 0.000E+00

     total cpu time spent up to now is     3579.1 secs

     total energy              =    -989.17731786 Ry
     estimated scf accuracy    <       0.00000304 Ry

     iteration # 22     ecut=    80.00 Ry     beta= 0.30
     Davidson diagonalization with overlap
     ethr =  5.84E-09,  avg # of iterations =  2.0

     negative rho (up, down):  1.782E-04 0.000E+00

     total cpu time spent up to now is     3741.8 secs

     total energy              =    -989.17731744 Ry
     estimated scf accuracy    <       0.00000110 Ry

     iteration # 23     ecut=    80.00 Ry     beta= 0.30
     Davidson diagonalization with overlap
     ethr =  2.11E-09,  avg # of iterations =  1.5

     negative rho (up, down):  1.808E-04 0.000E+00

     total cpu time spent up to now is     3881.0 secs

     total energy              =    -989.17731784 Ry
     estimated scf accuracy    <       0.00000114 Ry

     iteration # 24     ecut=    80.00 Ry     beta= 0.30
     Davidson diagonalization with overlap
     ethr =  2.11E-09,  avg # of iterations =  1.3

     negative rho (up, down):  2.416E-04 0.000E+00

     total cpu time spent up to now is     4017.8 secs

     total energy              =    -989.17731780 Ry
     estimated scf accuracy    <       0.00000071 Ry

     iteration # 25     ecut=    80.00 Ry     beta= 0.30
     Davidson diagonalization with overlap
     ethr =  1.36E-09,  avg # of iterations =  2.0

     negative rho (up, down):  3.569E-04 0.000E+00

     total cpu time spent up to now is     4167.3 secs

     total energy              =    -989.17731651 Ry
     estimated scf accuracy    <       0.00000043 Ry

     iteration # 26     ecut=    80.00 Ry     beta= 0.30
     Davidson diagonalization with overlap
     ethr =  8.19E-10,  avg # of iterations =  2.0

     negative rho (up, down):  3.429E-04 0.000E+00

     total cpu time spent up to now is     4313.3 secs

     total energy              =    -989.17731627 Ry
     estimated scf accuracy    <       0.00000016 Ry

     iteration # 27     ecut=    80.00 Ry     beta= 0.30
     Davidson diagonalization with overlap
     ethr =  3.08E-10,  avg # of iterations =  2.0

     negative rho (up, down):  2.803E-04 0.000E+00

     total cpu time spent up to now is     4464.3 secs

     total energy              =    -989.17731727 Ry
     estimated scf accuracy    <       0.00000010 Ry

     iteration # 28     ecut=    80.00 Ry     beta= 0.30
     Davidson diagonalization with overlap
     ethr =  1.90E-10,  avg # of iterations =  2.3

     negative rho (up, down):  2.629E-04 0.000E+00

     total cpu time spent up to now is     4634.5 secs

     total energy              =    -989.17731751 Ry
     estimated scf accuracy    <       0.00000008 Ry

     iteration # 29     ecut=    80.00 Ry     beta= 0.30
     Davidson diagonalization with overlap
     ethr =  1.52E-10,  avg # of iterations =  2.0

     negative rho (up, down):  2.531E-04 0.000E+00

     total cpu time spent up to now is     4795.3 secs

     total energy              =    -989.17731753 Ry
     estimated scf accuracy    <       0.00000002 Ry

     iteration # 30     ecut=    80.00 Ry     beta= 0.30
     Davidson diagonalization with overlap
     ethr =  3.28E-11,  avg # of iterations =  2.3

     negative rho (up, down):  2.299E-04 0.000E+00

     total cpu time spent up to now is     4938.8 secs

     total energy              =    -989.17731748 Ry
     estimated scf accuracy    <       0.00000001 Ry

     iteration # 31     ecut=    80.00 Ry     beta= 0.30
     Davidson diagonalization with overlap
     ethr =  2.41E-11,  avg # of iterations =  2.1

     negative rho (up, down):  2.239E-04 0.000E+00

     total cpu time spent up to now is     5093.2 secs

     End of self-consistent calculation

          k = 0.0000 0.0000 0.0000 ( 35507 PWs)   bands (ev):

   -62.9253 -62.8848 -37.0994 -37.0594 -36.8619 -36.8616 -36.8225 -36.8223
   -16.2576 -16.1307 -15.0060 -14.8102  -7.9854  -7.5002  -4.6469  -4.6462
    -4.6180  -4.6177  -4.4641  -3.5344  -3.5313  -3.5006  -3.4989  -3.4544
    -2.3763  -1.7112   0.6895   0.7112   0.7517   0.7629   0.9074

          k = 0.0000 0.0722 0.0000 ( 35493 PWs)   bands (ev):

   -62.9238 -62.8833 -37.0964 -37.0564 -36.8774 -36.8651 -36.8378 -36.8260
   -16.1980 -16.0715 -14.9791 -14.7866  -7.9167  -7.4321  -4.7824  -4.7527
    -4.6256  -4.5840  -4.5555  -3.9569  -3.6287  -3.5967  -3.4246  -3.1268
    -2.3807  -1.7767   0.6194   0.6724   0.7594   0.8057   0.8066

          k = 0.0000 0.1443 0.0000 ( 35435 PWs)   bands (ev):

   -62.9193 -62.8788 -37.0878 -37.0477 -36.9215 -36.8819 -36.8751 -36.8360
   -16.0242 -15.8992 -14.9006 -14.7181  -7.7262  -7.2457  -5.1325  -5.1021
    -4.9719  -4.4682  -4.4049  -4.3753  -3.8805  -3.8455  -3.3354  -2.9592
    -2.4284  -2.0041   0.3607   0.4608   0.5233   0.6197   0.6563

          k = 0.0000 0.2165 0.0000 ( 35345 PWs)   bands (ev):

   -62.9127 -62.8722 -37.0748 -37.0347 -36.9868 -36.9474 -36.8901 -36.8510
   -15.7512 -15.6296 -14.7774 -14.6114  -7.4713  -7.0129  -5.5634  -5.5357
    -5.3721  -4.9991  -4.2072  -4.1696  -4.1300  -4.0989  -3.3962  -3.0341
    -2.5938  -2.3936  -0.0013   0.2776   0.4319   0.5280   0.5398

          k = 0.0000 0.2887 0.0000 ( 35323 PWs)   bands (ev):

   -62.9048 -62.8643 -37.0631 -37.0594 -37.0241 -37.0190 -36.9077 -36.8687
   -15.4044 -15.2897 -14.6219 -14.4786  -7.2881  -6.9235  -5.9396  -5.8676
    -5.7519  -5.5204  -4.5357  -4.4949  -3.8076  -3.7682  -3.5894  -3.2779
    -2.8753  -2.8044  -0.1242   0.2410   0.2531   0.3370   0.7741

          k = 0.0000 0.3608 0.0000 ( 35299 PWs)   bands (ev):

   -62.8970 -62.8565 -37.1385 -37.0993 -37.0441 -37.0039 -36.9253 -36.8862
   -15.0221 -14.9199 -14.4529 -14.3376  -7.3532  -7.1496  -6.2937  -6.1192
    -5.9508  -5.8486  -4.8242  -4.7817  -3.8073  -3.5582  -3.4880  -3.4361
    -3.0929  -3.0308  -0.0110   0.1337   0.2175   0.3567   1.1194

          k = 0.0000 0.4330 0.0000 ( 35224 PWs)   bands (ev):

   -62.8903 -62.8498 -37.2017 -37.1626 -37.0310 -36.9908 -36.9401 -36.9011
   -14.6584 -14.5763 -14.2954 -14.2124  -7.5991  -7.4959  -6.6347  -6.5167
    -6.0235  -5.9538  -5.0451  -5.0013  -3.9657  -3.7839  -3.2323  -3.1633
    -3.0735  -2.9739   0.1244   0.1886   0.2376   0.5220   1.4485

          k = 0.0000 0.5052 0.0000 ( 35152 PWs)   bands (ev):

   -62.8858 -62.8453 -37.2436 -37.2045 -37.0222 -36.9820 -36.9500 -36.9110
   -14.3832 -14.3292 -14.1801 -14.1288  -7.8253  -7.7706  -6.8706  -6.8054
    -6.1139  -6.0731  -5.1828  -5.1384  -4.0374  -3.9338  -3.0762  -2.9921
    -2.8820  -2.7874   0.1717   0.2195   0.5155   0.6790   1.6742

          k = 0.0000-0.5774 0.0000 ( 35026 PWs)   bands (ev):

   -62.8843 -62.8437 -37.2583 -37.2192 -37.0191 -36.9790 -36.9534 -36.9144
   -14.2741 -14.2411 -14.1377 -14.1012  -7.9137  -7.8748  -6.9517  -6.9117
    -6.1605  -6.1255  -5.2296  -5.1849  -4.0431  -3.9988  -3.0253  -2.9351
    -2.7595  -2.7074   0.2002   0.2427   0.6756   0.7243   1.7601

          k = 0.0625 0.1083 0.0000 ( 35467 PWs)   bands (ev):

   -62.9208 -62.8803 -37.0906 -37.0505 -36.9067 -36.8724 -36.8673 -36.8332
   -16.0814 -15.9557 -14.9265 -14.7404  -7.7868  -7.3039  -5.0229  -4.9923
    -4.8635  -4.4651  -4.4365  -4.3081  -3.8440  -3.8113  -3.3174  -2.9488
    -2.4066  -1.9154   0.4653   0.4944   0.5414   0.6212   0.7203

          k = 0.0625 0.1804 0.0000 ( 35370 PWs)   bands (ev):

   -62.9152 -62.8747 -37.0798 -37.0397 -36.9602 -36.9208 -36.8861 -36.8469
   -15.8579 -15.7345 -14.8255 -14.6526  -7.5596  -7.0873  -5.4067  -5.3755
    -5.1987  -4.7558  -4.2496  -4.2249  -4.2045  -4.1743  -3.2473  -2.8918
    -2.5127  -2.2273   0.0945   0.3056   0.4275   0.5019   0.5601

          k = 0.0625 0.2526 0.0000 ( 35362 PWs)   bands (ev):

   -62.9080 -62.8675 -37.0656 -37.0294 -37.0256 -36.9900 -36.9040 -36.8649
   -15.5474 -15.4291 -14.6856 -14.5321  -7.3257  -6.9042  -5.7874  -5.7520
    -5.5669  -5.2591  -4.5919  -4.5389  -3.9819  -3.9457  -3.3332  -3.0372
    -2.7413  -2.6351  -0.1540   0.1548   0.3442   0.4154   0.5479

          k = 0.0625 0.3248 0.0000 ( 35310 PWs)   bands (ev):

   -62.9001 -62.8596 -37.1034 -37.0642 -37.0502 -37.0101 -36.9234 -36.8843
   -15.1814 -15.0727 -14.5220 -14.3937  -7.2613  -6.9839  -6.1034  -5.9593
    -5.8696  -5.7370  -4.8968  -4.8203  -3.7500  -3.7023  -3.5344  -3.3115
    -2.9715  -2.9242  -0.1928   0.0929   0.2815   0.3919   0.8272

          k = 0.0625 0.3969 0.0000 ( 35243 PWs)   bands (ev):

   -62.8929 -62.8523 -37.1711 -37.1319 -37.0360 -36.9958 -36.9412 -36.9021
   -14.8055 -14.7128 -14.3565 -14.2582  -7.4380  -7.2924  -6.4729  -6.3436
    -5.9634  -5.8761  -5.0949  -5.0165  -3.7785  -3.6363  -3.5882  -3.5211
    -2.9661  -2.9203  -0.0757   0.1290   0.3253   0.4740   1.1760

          k = 0.0625 0.4691 0.0000 ( 35169 PWs)   bands (ev):

   -62.8873 -62.8468 -37.2224 -37.1833 -37.0251 -36.9849 -36.9548 -36.9158
   -14.4813 -14.4130 -14.2170 -14.1513  -7.6798  -7.6028  -6.7913  -6.7164
    -6.0416  -5.9929  -5.2030  -5.1404  -3.9428  -3.8351  -3.4863  -3.3892
    -2.7915  -2.7393   0.0947   0.2060   0.4708   0.6172   1.4993

          k = 0.0625 0.5413 0.0000 ( 35128 PWs)   bands (ev):

   -62.8843 -62.8437 -37.2500 -37.2109 -37.0192 -36.9790 -36.9621 -36.9231
   -14.2826 -14.2429 -14.1356 -14.0954  -7.8352  -7.7915  -6.9673  -6.9248
    -6.1257  -6.0909  -5.2459  -5.2014  -4.0232  -3.9621  -3.3955  -3.2866
    -2.6284  -2.5817   0.1966   0.2433   0.6601   0.7401   1.7526

          k = 0.1250 0.2165 0.0000 ( 35331 PWs)   bands (ev):

   -62.9091 -62.8686 -37.0678 -37.0277 -37.0153 -36.9760 -36.9049 -36.8657
   -15.5969 -15.4769 -14.7078 -14.5498  -7.3419  -6.9013  -5.7302  -5.6882
    -5.4451  -5.0742  -4.7289  -4.6841  -4.0610  -4.0270  -3.1783  -2.8741
    -2.6875  -2.5422  -0.1767   0.1111   0.3558   0.3814   0.4473

          k = 0.1250 0.2887 0.0000 ( 35357 PWs)   bands (ev):

   -62.9018 -62.8613 -37.0787 -37.0536 -37.0395 -37.0134 -36.9282 -36.8891
   -15.2657 -15.1531 -14.5583 -14.4220  -7.2028  -6.8693  -5.9700  -5.8705
    -5.7283  -5.5474  -5.1607  -5.0186  -3.9594  -3.9134  -3.2452  -3.0307
    -2.8851  -2.8330  -0.3270  -0.0116   0.3405   0.4112   0.5502

          k = 0.1250 0.3608 0.0000 ( 35341 PWs)   bands (ev):

   -62.8946 -62.8540 -37.1409 -37.1018 -37.0393 -36.9992 -36.9518 -36.9128
   -14.9023 -14.8025 -14.3951 -14.2856  -7.2751  -7.0800  -6.2839  -6.1814
    -5.8892  -5.7880  -5.3429  -5.1528  -4.0203  -3.9576  -3.4524  -3.3211
    -2.9190  -2.8697  -0.2902   0.0500   0.4128   0.4889   0.8122

          k = 0.1250 0.4330 0.0000 ( 35215 PWs)   bands (ev):

   -62.8884 -62.8479 -37.1931 -37.1539 -37.0273 -36.9871 -36.9720 -36.9330
   -14.5589 -14.4791 -14.2426 -14.1637  -7.4671  -7.3541  -6.7015  -6.6464
    -5.9184  -5.8587  -5.3696  -5.2052  -4.0791  -3.9751  -3.7059  -3.6260
    -2.7759  -2.7328  -0.0894   0.2213   0.5249   0.5797   1.1241

          k = 0.1250 0.5052 0.0000 ( 35141 PWs)   bands (ev):

   -62.8843 -62.8437 -37.2276 -37.1885 -37.0192 -36.9855 -36.9790 -36.9465
   -14.3012 -14.2484 -14.1308 -14.0815  -7.6293  -7.5661  -6.9971  -6.9597
    -6.0213  -5.9903  -5.3226  -5.2183  -4.0716  -3.9591  -3.8779  -3.8373
    -2.5783  -2.5404   0.1062   0.2490   0.6835   0.7700   1.3941

          k = 0.1250 0.5774 0.0000 ( 35180 PWs)   bands (ev):

   -62.8828 -62.8423 -37.2397 -37.2006 -37.0163 -36.9902 -36.9761 -36.9513
   -14.1996 -14.1665 -14.0903 -14.0538  -7.6882  -7.6484  -7.1023  -7.0691
    -6.0827  -6.0509  -5.2723  -5.2340  -4.0934  -3.9698  -3.9585  -3.8463
    -2.4793  -2.4413   0.1697   0.2054   0.8174   0.8609   1.5173

          k = 0.1875 0.3248 0.0000 ( 35337 PWs)   bands (ev):

   -62.8952 -62.8546 -37.1273 -37.0882 -37.0405 -37.0004 -36.9587 -36.9195
   -14.9369 -14.8331 -14.4091 -14.2937  -7.2039  -6.9847  -6.1622  -6.0914
    -5.8826  -5.7438  -5.4874  -5.2292  -4.1922  -4.1325  -3.3374  -3.1647
    -2.9132  -2.8493  -0.3692   0.0093   0.4365   0.4827   0.6665

          k = 0.1875 0.3969 0.0000 ( 35241 PWs)   bands (ev):

   -62.8890 -62.8485 -37.1692 -37.1301 -37.0285 -36.9894 -36.9883 -36.9504
   -14.6024 -14.5149 -14.2561 -14.1677  -7.3033  -7.1555  -6.6245  -6.5950
    -5.8259  -5.7066  -5.4946  -5.2579  -4.5090  -4.4331  -3.5643  -3.4405
    -2.8082  -2.7448  -0.2128   0.2138   0.5475   0.5896   0.8545

          k = 0.1875 0.4691 0.0000 ( 35167 PWs)   bands (ev):

   -62.8843 -62.8437 -37.1998 -37.1606 -37.0192 -37.0143 -36.9790 -36.9754
   -14.3192 -14.2544 -14.1266 -14.0670  -7.3933  -7.2924  -7.0216  -6.9926
    -5.8469  -5.8269  -5.4150  -5.2203  -4.6930  -4.5547  -3.8496  -3.7308
    -2.6023  -2.5575  -0.0174   0.2303   0.7188   0.8105   1.0492

          k = 0.1875 0.5413 0.0000 ( 35162 PWs)   bands (ev):

   -62.8817 -62.8412 -37.2158 -37.1767 -37.0283 -37.0142 -36.9893 -36.9740
   -14.1482 -14.1087 -14.0516 -14.0129  -7.4264  -7.3720  -7.2380  -7.2046
    -5.9916  -5.9603  -5.2772  -5.1855  -4.7370  -4.5675  -4.0468  -3.9376
    -2.4092  -2.3707   0.0230   0.0910   0.9375   1.0342   1.1633

          k = 0.2500 0.4330 0.0000 ( 35195 PWs)   bands (ev):

   -62.8843 -62.8437 -37.1852 -37.1462 -37.0293 -37.0192 -36.9903 -36.9790
   -14.3289 -14.2557 -14.1260 -14.0586  -7.2859  -7.1577  -7.0307  -6.9998
    -5.7754  -5.6366  -5.4218  -5.1987  -5.0151  -4.9488  -3.8313  -3.6597
    -2.6215  -2.5684  -0.0699   0.2159   0.7257   0.8229   0.9386

          k = 0.2500 0.5052 0.0000 ( 35193 PWs)   bands (ev):

   -62.8811 -62.8406 -37.1900 -37.1509 -37.0618 -37.0229 -37.0130 -36.9728
   -14.1284 -14.0775 -14.0286 -13.9849  -7.3306  -7.2998  -7.1722  -7.0847
    -5.8462  -5.7985  -5.3702  -5.2623  -5.1702  -5.0867  -4.0983  -3.9226
    -2.3771  -2.3355  -0.1073  -0.0094   0.8697   0.9749   1.1297

          k = 0.2500 0.5774 0.0000 ( 35190 PWs)   bands (ev):

   -62.8800 -62.8395 -37.1898 -37.1507 -37.0751 -37.0362 -37.0109 -36.9706
   -14.0514 -14.0154 -13.9936 -13.9587  -7.4309  -7.4018  -7.0841  -7.0447
    -5.9894  -5.9525  -5.4058  -5.2150  -5.0975  -5.0865  -4.2207  -4.0551
    -2.2473  -2.2071  -0.1837  -0.1479   0.8855   1.0090   1.3111

          k = 0.3125 0.5413 0.0000 ( 35172 PWs)   bands (ev):

   -62.8794 -62.8389 -37.1687 -37.1297 -37.1036 -37.0646 -37.0097 -36.9695
   -14.0278 -13.9858 -13.9635 -13.9345  -7.5020  -7.4686  -6.8636  -6.7862
    -6.0693  -6.0228  -5.6483  -5.5082  -5.0730  -4.9734  -4.3212  -4.1168
    -2.1710  -2.1252  -0.3008  -0.2623   0.8126   0.9213   1.3804

          k =-0.0625 0.0361 0.0000 ( 35493 PWs)   bands (ev):

   -62.9238 -62.8833 -37.0964 -37.0564 -36.8772 -36.8653 -36.8380 -36.8258
   -16.1981 -16.0715 -14.9792 -14.7865  -7.9169  -7.4319  -4.7819  -4.7529
    -4.6255  -4.5838  -4.5551  -3.9558  -3.6302  -3.5957  -3.4349  -3.1192
    -2.3812  -1.7698   0.6214   0.6663   0.7434   0.7787   0.8211

          k =-0.1250 0.0722 0.0000 ( 35435 PWs)   bands (ev):

   -62.9193 -62.8788 -37.0878 -37.0477 -36.9212 -36.8821 -36.8754 -36.8359
   -16.0247 -15.8989 -14.9011 -14.7175  -7.7270  -7.2450  -5.1330  -5.1014
    -4.9704  -4.4673  -4.4052  -4.3751  -3.8812  -3.8453  -3.3604  -2.9425
    -2.4312  -1.9775   0.3227   0.4576   0.5106   0.6439   0.6606

          k =-0.1875 0.1083 0.0000 ( 35345 PWs)   bands (ev):

   -62.9127 -62.8722 -37.0748 -37.0347 -36.9866 -36.9475 -36.8904 -36.8509
   -15.7523 -15.6288 -14.7788 -14.6098  -7.4724  -7.0120  -5.5725  -5.5264
    -5.3717  -4.9958  -4.2072  -4.1699  -4.1304  -4.0991  -3.4440  -3.0020
    -2.6029  -2.3448  -0.0336   0.2786   0.4323   0.5184   0.5370

          k =-0.2500 0.1443 0.0000 ( 35323 PWs)   bands (ev):

   -62.9048 -62.8643 -37.0629 -37.0594 -37.0240 -37.0193 -36.9080 -36.8685
   -15.4069 -15.2881 -14.6246 -14.4753  -7.2877  -6.9234  -5.9669  -5.8420
    -5.7551  -5.5112  -4.5349  -4.4960  -3.8080  -3.7697  -3.6610  -3.2216
    -2.8929  -2.7462  -0.1473   0.2440   0.2522   0.3331   0.7625

          k =-0.3125 0.1804 0.0000 ( 35299 PWs)   bands (ev):

   -62.8970 -62.8565 -37.1382 -37.0994 -37.0441 -37.0039 -36.9255 -36.8861
   -15.0274 -14.9167 -14.4575 -14.3314  -7.3522  -7.1449  -6.3151  -6.0957
    -6.0037  -5.7978  -4.8230  -4.7831  -3.9044  -3.4893  -3.4727  -3.4336
    -3.1109  -2.9806  -0.0277   0.1385   0.2123   0.3540   1.0963

          k =-0.3750 0.2165 0.0000 ( 35224 PWs)   bands (ev):

   -62.8903 -62.8498 -37.2014 -37.1627 -37.0310 -36.9908 -36.9403 -36.9009
   -14.6690 -14.5704 -14.3027 -14.2011  -7.6055  -7.4811  -6.6628  -6.4826
    -6.1127  -5.8732  -5.0436  -5.0030  -4.0887  -3.6672  -3.2288  -3.1684
    -3.0841  -2.9317   0.1273   0.1848   0.2243   0.5200   1.3970

          k =-0.4375 0.2526 0.0000 ( 35152 PWs)   bands (ev):

   -62.8858 -62.8453 -37.2433 -37.2046 -37.0222 -36.9821 -36.9502 -36.9108
   -14.4041 -14.3186 -14.1896 -14.1095  -7.8431  -7.7439  -6.9117  -6.7581
    -6.2141  -5.9822  -5.1812  -5.1402  -4.1936  -3.7830  -3.0719  -2.9995
    -2.8976  -2.7354   0.1731   0.2181   0.4981   0.6864   1.5737

          k = 0.5000-0.2887 0.0000 ( 35026 PWs)   bands (ev):

   -62.8843 -62.8437 -37.2580 -37.2193 -37.0191 -36.9790 -36.9537 -36.9143
   -14.3052 -14.2261 -14.1467 -14.0765  -7.9374  -7.8422  -7.0015  -6.8558
    -6.2612  -6.0342  -5.2279  -5.1868  -4.2264  -3.8210  -3.0204  -2.9431
    -2.7919  -2.6365   0.2010   0.2420   0.6388   0.7568   1.6234

          k = 0.1250 0.0000 0.0000 ( 35467 PWs)   bands (ev):

   -62.9208 -62.8803 -37.0906 -37.0505 -36.9064 -36.8727 -36.8674 -36.8330
   -16.0817 -15.9555 -14.9269 -14.7399  -7.7874  -7.3034  -5.0217  -4.9935
    -4.8614  -4.4657  -4.4361  -4.3091  -3.8457  -3.8108  -3.3304  -2.9394
    -2.4084  -1.8973   0.4312   0.4928   0.5376   0.6475   0.7096

          k =-0.1250 0.1443 0.0000 ( 35370 PWs)   bands (ev):

   -62.9152 -62.8747 -37.0798 -37.0397 -36.9601 -36.9209 -36.8862 -36.8469
   -15.8582 -15.7343 -14.8259 -14.6520  -7.5601  -7.0869  -5.4087  -5.3734
    -5.1984  -4.7543  -4.2494  -4.2224  -4.2058  -4.1774  -3.2649  -2.8804
    -2.5153  -2.2067   0.0766   0.3069   0.4265   0.4931   0.5698

          k = 0.1875 0.0361 0.0000 ( 35370 PWs)   bands (ev):

   -62.9152 -62.8747 -37.0798 -37.0397 -36.9599 -36.9210 -36.8864 -36.8468
   -15.8588 -15.7339 -14.8266 -14.6513  -7.5609  -7.0863  -5.4072  -5.3749
    -5.1962  -4.7560  -4.2504  -4.2262  -4.2033  -4.1764  -3.2773  -2.8726
    -2.5181  -2.1853   0.0622   0.3029   0.4136   0.5058   0.5688

          k =-0.1875 0.1804 0.0000 ( 35362 PWs)   bands (ev):

   -62.9080 -62.8675 -37.0656 -37.0292 -37.0255 -36.9901 -36.9042 -36.8648
   -15.5486 -15.4284 -14.6869 -14.5305  -7.3259  -6.9042  -5.8041  -5.7340
    -5.5693  -5.2549  -4.5888  -4.5447  -3.9809  -3.9464  -3.3760  -3.0088
    -2.7508  -2.5924  -0.1695   0.1525   0.3549   0.3955   0.5529

          k = 0.2500 0.0722 0.0000 ( 35362 PWs)   bands (ev):

   -62.9080 -62.8675 -37.0656 -37.0291 -37.0255 -36.9902 -36.9043 -36.8648
   -15.5494 -15.4278 -14.6878 -14.5294  -7.3264  -6.9040  -5.8053  -5.7323
    -5.5682  -5.2551  -4.5936  -4.5417  -3.9819  -3.9468  -3.3857  -3.0019
    -2.7518  -2.5773  -0.1772   0.1510   0.3575   0.4009   0.5394

          k =-0.2500 0.2165 0.0000 ( 35310 PWs)   bands (ev):

   -62.9001 -62.8596 -37.1032 -37.0643 -37.0502 -37.0101 -36.9236 -36.8842
   -15.1844 -15.0708 -14.5248 -14.3900  -7.2597  -6.9831  -6.1226  -5.9513
    -5.8737  -5.7220  -4.8937  -4.8244  -3.7447  -3.7058  -3.6047  -3.2531
    -2.9842  -2.8823  -0.1966   0.0842   0.2869   0.3797   0.8346

          k = 0.3125 0.1083 0.0000 ( 35310 PWs)   bands (ev):

   -62.9001 -62.8596 -37.1031 -37.0643 -37.0502 -37.0101 -36.9236 -36.8841
   -15.1855 -15.0702 -14.5259 -14.3887  -7.2595  -6.9830  -6.1256  -5.9482
    -5.8762  -5.7180  -4.8978  -4.8234  -3.7484  -3.7147  -3.6011  -3.2439
    -2.9812  -2.8776  -0.2041   0.0865   0.2900   0.3806   0.8157

          k =-0.3125 0.2526 0.0000 ( 35243 PWs)   bands (ev):

   -62.8929 -62.8523 -37.1709 -37.1320 -37.0360 -36.9958 -36.9414 -36.9020
   -14.8120 -14.7090 -14.3616 -14.2508  -7.4395  -7.2844  -6.4917  -6.3158
    -6.0431  -5.8111  -5.0907  -5.0188  -3.8668  -3.6051  -3.5601  -3.4952
    -2.9736  -2.8909  -0.0703   0.1223   0.3199   0.4676   1.1807

          k = 0.3750 0.1443 0.0000 ( 35243 PWs)   bands (ev):

   -62.8929 -62.8523 -37.1708 -37.1320 -37.0360 -36.9959 -36.9415 -36.9020
   -14.8134 -14.7082 -14.3626 -14.2493  -7.4393  -7.2836  -6.4936  -6.3148
    -6.0437  -5.8085  -5.0932  -5.0198  -3.8794  -3.6025  -3.5782  -3.4623
    -2.9696  -2.8929  -0.0755   0.1201   0.3230   0.4696   1.1575

          k =-0.3750 0.2887 0.0000 ( 35169 PWs)   bands (ev):

   -62.8873 -62.8468 -37.2221 -37.1834 -37.0251 -36.9849 -36.9550 -36.9156
   -14.4953 -14.4056 -14.2249 -14.1374  -7.6911  -7.5833  -6.8209  -6.6791
    -6.1439  -5.9059  -5.1988  -5.1418  -4.0681  -3.7073  -3.4615  -3.4183
    -2.8024  -2.7050   0.1002   0.2054   0.4593   0.6171   1.4876

          k = 0.4375 0.1804 0.0000 ( 35169 PWs)   bands (ev):

   -62.8873 -62.8468 -37.2221 -37.1834 -37.0251 -36.9849 -36.9550 -36.9156
   -14.4968 -14.4049 -14.2255 -14.1361  -7.6911  -7.5826  -6.8222  -6.6781
    -6.1438  -5.9050  -5.1992  -5.1434  -4.0754  -3.7083  -3.4825  -3.3840
    -2.7973  -2.7105   0.1030   0.1972   0.4586   0.6206   1.4641

          k =-0.4375 0.3248 0.0000 ( 35128 PWs)   bands (ev):

   -62.8843 -62.8437 -37.2497 -37.2110 -37.0192 -36.9790 -36.9624 -36.9230
   -14.3094 -14.2301 -14.1442 -14.0733  -7.8568  -7.7610  -7.0073  -6.8778
    -6.2309  -6.0004  -5.2428  -5.2014  -4.1792  -3.8077  -3.3772  -3.3047
    -2.6503  -2.5332   0.1987   0.2435   0.6371   0.7622   1.6833

          k = 0.5000 0.2165 0.0000 ( 35128 PWs)   bands (ev):

   -62.8843 -62.8437 -37.2497 -37.2110 -37.0192 -36.9790 -36.9624 -36.9230
   -14.3102 -14.2299 -14.1443 -14.0726  -7.8568  -7.7608  -7.0078  -6.8775
    -6.2308  -6.0002  -5.2425  -5.2024  -4.1817  -3.8075  -3.3867  -3.2911
    -2.6470  -2.5367   0.2021   0.2390   0.6367   0.7625   1.6716

          k = 0.2500 0.0000 0.0000 ( 35331 PWs)   bands (ev):

   -62.9091 -62.8686 -37.0678 -37.0277 -37.0151 -36.9762 -36.9052 -36.8656
   -15.5984 -15.4759 -14.7094 -14.5479  -7.3428  -6.9010  -5.7336  -5.6834
    -5.4430  -5.0765  -4.7331  -4.6819  -4.0610  -4.0278  -3.2071  -2.8605
    -2.6907  -2.5005  -0.1936   0.1088   0.3482   0.3918   0.4398

          k =-0.1875 0.2526 0.0000 ( 35357 PWs)   bands (ev):

   -62.9018 -62.8613 -37.0786 -37.0536 -37.0395 -37.0134 -36.9283 -36.8890
   -15.2667 -15.1525 -14.5592 -14.4208  -7.2021  -6.8697  -5.9801  -5.8572
    -5.7329  -5.5481  -5.1594  -5.0179  -3.9583  -3.9139  -3.2748  -3.0120
    -2.8878  -2.8128  -0.3267  -0.0141   0.3408   0.4004   0.5600

          k = 0.3125 0.0361 0.0000 ( 35357 PWs)   bands (ev):

   -62.9018 -62.8613 -37.0784 -37.0536 -37.0396 -37.0135 -36.9285 -36.8889
   -15.2688 -15.1512 -14.5612 -14.4183  -7.2014  -6.8703  -5.9879  -5.8427
    -5.7387  -5.5467  -5.1672  -5.0141  -3.9556  -3.9193  -3.2931  -3.0009
    -2.8773  -2.7973  -0.3366  -0.0122   0.3415   0.4057   0.5441

          k =-0.2500 0.2887 0.0000 ( 35341 PWs)   bands (ev):

   -62.8946 -62.8540 -37.1408 -37.1018 -37.0393 -36.9992 -36.9520 -36.9127
   -14.9054 -14.8006 -14.3977 -14.2820  -7.2740  -7.0778  -6.2887  -6.1617
    -5.9514  -5.7534  -5.3376  -5.1459  -4.0134  -3.9611  -3.5168  -3.2654
    -2.9189  -2.8568  -0.2842   0.0487   0.4094   0.4777   0.8370

          k = 0.3750 0.0722 0.0000 ( 35341 PWs)   bands (ev):

   -62.8946 -62.8540 -37.1406 -37.1019 -37.0393 -36.9992 -36.9521 -36.9126
   -14.9082 -14.7990 -14.3999 -14.2789  -7.2729  -7.0771  -6.2912  -6.1568
    -5.9596  -5.7472  -5.3426  -5.1461  -4.0152  -3.9660  -3.5191  -3.2475
    -2.9066  -2.8651  -0.2903   0.0482   0.4107   0.4835   0.8082

          k =-0.3125 0.3248 0.0000 ( 35215 PWs)   bands (ev):

   -62.8884 -62.8479 -37.1929 -37.1540 -37.0273 -36.9871 -36.9722 -36.9329
   -14.5668 -14.4748 -14.2476 -14.1555  -7.4712  -7.3441  -6.7164  -6.6204
    -6.0233  -5.7826  -5.3646  -5.1947  -4.0492  -3.9902  -3.8073  -3.5430
    -2.7789  -2.7169  -0.0838   0.2274   0.5175   0.5745   1.1702

          k = 0.4375 0.1083 0.0000 ( 35215 PWs)   bands (ev):

   -62.8884 -62.8479 -37.1928 -37.1541 -37.0273 -36.9871 -36.9723 -36.9328
   -14.5701 -14.4731 -14.2494 -14.1522  -7.4709  -7.3424  -6.7184  -6.6181
    -6.0255  -5.7805  -5.3673  -5.1970  -4.0823  -3.9777  -3.7917  -3.5270
    -2.7754  -2.7216  -0.0830   0.2182   0.5178   0.5806   1.1202

          k =-0.3750 0.3608 0.0000 ( 35141 PWs)   bands (ev):

   -62.8843 -62.8437 -37.2274 -37.1886 -37.0192 -36.9857 -36.9790 -36.9464
   -14.3192 -14.2399 -14.1376 -14.0656  -7.6441  -7.5435  -7.0188  -6.9291
    -6.1377  -5.8999  -5.3259  -5.2024  -4.0680  -3.9983  -3.9277  -3.7532
    -2.5946  -2.5090   0.1058   0.2554   0.6699   0.7858   1.4606

          k = 0.5000 0.1443 0.0000 ( 35141 PWs)   bands (ev):

   -62.8843 -62.8437 -37.2273 -37.1887 -37.0192 -36.9858 -36.9790 -36.9463
   -14.3221 -14.2388 -14.1384 -14.0632  -7.6441  -7.5423  -7.0198  -6.9282
    -6.1378  -5.8996  -5.3257  -5.2052  -4.1068  -3.9817  -3.9183  -3.7340
    -2.5941  -2.5109   0.1106   0.2485   0.6683   0.7874   1.3946

          k =-0.4375 0.3969 0.0000 ( 35180 PWs)   bands (ev):

   -62.8828 -62.8423 -37.2394 -37.2008 -37.0163 -36.9905 -36.9762 -36.9511
   -14.2290 -14.1542 -14.0954 -14.0320  -7.7112  -7.6166  -7.1264  -7.0368
    -6.1959  -5.9622  -5.2909  -5.2043  -4.1614  -3.9886  -3.9058  -3.8116
    -2.5028  -2.4019   0.1620   0.2147   0.7829   0.9073   1.5441

          k = 0.3750 0.0000 0.0000 ( 35337 PWs)   bands (ev):

   -62.8952 -62.8546 -37.1270 -37.0883 -37.0405 -37.0004 -36.9589 -36.9194
   -14.9411 -14.8306 -14.4125 -14.2889  -7.2014  -6.9846  -6.1590  -6.0727
    -5.9288  -5.7320  -5.4866  -5.2221  -4.1826  -4.1441  -3.3624  -3.1305
    -2.8886  -2.8650  -0.3723   0.0090   0.4368   0.4865   0.6520

          k =-0.2500 0.3608 0.0000 ( 35241 PWs)   bands (ev):

   -62.8890 -62.8485 -37.1692 -37.1302 -37.0285 -36.9895 -36.9883 -36.9503
   -14.6050 -14.5135 -14.2578 -14.1650  -7.3038  -7.1533  -6.6281  -6.5841
    -5.8848  -5.6708  -5.4890  -5.2442  -4.5061  -4.4370  -3.5981  -3.4117
    -2.8068  -2.7419  -0.2099   0.2174   0.5450   0.5853   0.8782

          k = 0.4375 0.0361 0.0000 ( 35241 PWs)   bands (ev):

   -62.8890 -62.8485 -37.1690 -37.1303 -37.0285 -36.9897 -36.9883 -36.9502
   -14.6104 -14.5106 -14.2611 -14.1595  -7.3024  -7.1514  -6.6278  -6.5792
    -5.9070  -5.6647  -5.4896  -5.2418  -4.5052  -4.4389  -3.5938  -3.3985
    -2.7953  -2.7556  -0.2080   0.2117   0.5512   0.5852   0.8456

          k =-0.3125 0.3969 0.0000 ( 35167 PWs)   bands (ev):

   -62.8843 -62.8437 -37.1996 -37.1607 -37.0192 -37.0145 -36.9792 -36.9751
   -14.3279 -14.2502 -14.1303 -14.0589  -7.3999  -7.2827  -7.0271  -6.9773
    -5.9692  -5.7346  -5.4109  -5.2025  -4.6695  -4.5713  -3.9059  -3.6859
    -2.6062  -2.5474  -0.0162   0.2345   0.7130   0.8165   1.1008

          k = 0.5000 0.0722 0.0000 ( 35167 PWs)   bands (ev):

   -62.8843 -62.8437 -37.1995 -37.1608 -37.0192 -37.0146 -36.9794 -36.9749
   -14.3338 -14.2478 -14.1323 -14.0537  -7.3992  -7.2801  -7.0267  -6.9771
    -5.9728  -5.7365  -5.4134  -5.2032  -4.6946  -4.5524  -3.8854  -3.6876
    -2.6047  -2.5518  -0.0119   0.2308   0.7066   0.8216   1.0448

          k =-0.3750 0.4330 0.0000 ( 35162 PWs)   bands (ev):

   -62.8817 -62.8412 -37.2155 -37.1768 -37.0285 -37.0142 -36.9893 -36.9739
   -14.1698 -14.1013 -14.0534 -13.9973  -7.4479  -7.3462  -7.2424  -7.1884
    -6.1079  -5.8738  -5.2987  -5.1508  -4.7110  -4.5746  -4.1185  -3.8820
    -2.4246  -2.3481   0.0195   0.0960   0.9103   1.0677   1.2061

          k = 0.5625 0.1083 0.0000 ( 35162 PWs)   bands (ev):

   -62.8817 -62.8412 -37.2155 -37.1768 -37.0285 -37.0142 -36.9893 -36.9739
   -14.1729 -14.1006 -14.0534 -13.9949  -7.4475  -7.3447  -7.2424  -7.1890
    -6.1083  -5.8742  -5.2993  -5.1519  -4.7266  -4.5653  -4.1055  -3.8848
    -2.4248  -2.3489   0.0214   0.0946   0.9065   1.0751   1.1729

          k = 0.5000 0.0000 0.0000 ( 35195 PWs)   bands (ev):

   -62.8843 -62.8437 -37.1849 -37.1463 -37.0296 -37.0192 -36.9903 -36.9789
   -14.3386 -14.2515 -14.1297 -14.0497  -7.2858  -7.1547  -7.0250  -6.9984
    -5.8214  -5.6209  -5.4214  -5.1921  -4.9902  -4.9659  -3.8137  -3.6633
    -2.6169  -2.5755  -0.0648   0.2157   0.7133   0.8322   0.9148

          k =-0.3125 0.4691 0.0000 ( 35193 PWs)   bands (ev):

   -62.8811 -62.8406 -37.1899 -37.1509 -37.0620 -37.0229 -37.0130 -36.9728
   -14.1360 -14.0752 -14.0290 -13.9793  -7.3371  -7.2970  -7.1693  -7.0757
    -5.9316  -5.7337  -5.3307  -5.3013  -5.1656  -5.0723  -4.1175  -3.9101
    -2.3815  -2.3294  -0.1072  -0.0086   0.8867   0.9555   1.1270

          k = 0.5625 0.0361 0.0000 ( 35193 PWs)   bands (ev):

   -62.8811 -62.8406 -37.1897 -37.1510 -37.0621 -37.0228 -37.0130 -36.9728
   -14.1448 -14.0733 -14.0291 -13.9726  -7.3375  -7.2933  -7.1720  -7.0710
    -5.9338  -5.7422  -5.3692  -5.2729  -5.1677  -5.0624  -4.0842  -3.9309
    -2.3815  -2.3312  -0.1050  -0.0090   0.8592   0.9843   1.1111

          k =-0.3750 0.5052 0.0000 ( 35190 PWs)   bands (ev):

   -62.8800 -62.8395 -37.1896 -37.1508 -37.0753 -37.0361 -37.0109 -36.9706
   -14.0711 -14.0141 -13.9867 -13.9475  -7.4367  -7.3966  -7.0942  -7.0179
    -6.0853  -5.8882  -5.3868  -5.2573  -5.1189  -5.0157  -4.2375  -4.0465
    -2.2566  -2.1960  -0.1852  -0.1457   0.9021   0.9894   1.2632

          k = 0.6250 0.0000 0.0000 ( 35172 PWs)   bands (ev):

   -62.8794 -62.8389 -37.1685 -37.1298 -37.1038 -37.0645 -37.0097 -36.9695
   -14.0370 -13.9861 -13.9595 -13.9291  -7.5025  -7.4673  -6.8672  -6.7742
    -6.0637  -6.0521  -5.6312  -5.5189  -5.0801  -4.9601  -4.3019  -4.1324
    -2.1727  -2.1239  -0.3001  -0.2624   0.8128   0.9217   1.3582

     the Fermi energy is    -1.0913 ev

!    total energy              =    -989.17731752 Ry
     total all-electron energy =    -19385.837740 Ry
     estimated scf accuracy    <          9.4E-09 Ry
     smearing contrib. (-TS)   =       0.00000935 Ry
     internal energy E=F+TS    =    -989.17732687 Ry

     The total energy is F=E-TS. E is the sum of the following terms:
     one-electron contribution =  -10389.68721765 Ry
     hartree contribution      =    5197.90913338 Ry
     xc contribution           =     -59.61221748 Ry
     ewald contribution        =    4897.13959521 Ry
     one-center paw contrib.   =    -634.92662033 Ry

     convergence has been achieved in  31 iterations

     Writing all to output data dir ./tmp/gsfe_004/mos2_gsfe_004.save/ :
     XML data file, charge density, pseudopotentials, collected wavefunctions

     init_run     :     99.19s CPU    100.94s WALL (       1 calls)
     electrons    :   4892.74s CPU   4992.24s WALL (       1 calls)

     Called by init_run:
     wfcinit      :     53.18s CPU     53.45s WALL (       1 calls)
     potinit      :     43.17s CPU     43.61s WALL (       1 calls)
     hinit0       :      0.36s CPU      0.39s WALL (       1 calls)

     Called by electrons:
     c_bands      :   4009.58s CPU   4033.20s WALL (      32 calls)
     sum_band     :    664.98s CPU    700.43s WALL (      32 calls)
     v_of_rho     :    143.49s CPU    154.35s WALL (      32 calls)
     newd         :     70.90s CPU    101.20s WALL (      32 calls)
     PAW_pot      :      6.45s CPU      6.45s WALL (      32 calls)
     mix_rho      :     41.40s CPU     42.06s WALL (      32 calls)
     vdW_kernel   :     39.68s CPU     39.70s WALL (       1 calls)

     Called by c_bands:
     init_us_2    :     35.70s CPU     35.73s WALL (    4745 calls)
     init_us_2:cp :     35.69s CPU     35.73s WALL (    4745 calls)
     cegterg      :   3723.23s CPU   3746.32s WALL (    2336 calls)

     Called by *egterg:
     cdiaghg      :      3.55s CPU      3.56s WALL (    7604 calls)
     h_psi        :   2316.60s CPU   2318.76s WALL (    7750 calls)
     s_psi        :    501.85s CPU    502.40s WALL (    7750 calls)
     g_psi        :     15.75s CPU     15.76s WALL (    5341 calls)

     Called by h_psi:
     h_psi:calbec :    658.28s CPU    658.48s WALL (    7750 calls)
     vloc_psi     :   1148.80s CPU   1149.60s WALL (    7750 calls)
     add_vuspsi   :    502.20s CPU    502.34s WALL (    7750 calls)

     General routines
     calbec       :    938.16s CPU    938.46s WALL (   10086 calls)
     fft          :     39.11s CPU     39.12s WALL (    2015 calls)
     ffts         :     20.40s CPU     20.41s WALL (    3754 calls)
     fftw         :   1023.87s CPU   1024.42s WALL (  411900 calls)
     interpolate  :      0.94s CPU      0.94s WALL (      32 calls)

     Parallel routines

     PWSCF        :      1h23m CPU      1h24m WALL


   This run was terminated on:  17: 1:13  14Jun2026            

=------------------------------------------------------------------------------=
   JOB DONE.
=------------------------------------------------------------------------------=
Note: The following floating-point exceptions are signalling: IEEE_UNDERFLOW_FLAG IEEE_DENORMAL
