Authorization required, but no authorization protocol specified

Authorization required, but no authorization protocol specified

Authorization required, but no authorization protocol specified

Authorization required, but no authorization protocol specified

Authorization required, but no authorization protocol specified

Authorization required, but no authorization protocol specified

Authorization required, but no authorization protocol specified

Authorization required, but no authorization protocol specified


     Program PWSCF v.7.3 starts on 11Jun2026 at 21: 4:40 

     This program is part of the open-source Quantum ESPRESSO suite
     for quantum simulation of materials; please cite
         "P. Giannozzi et al., J. Phys.:Condens. Matter 21 395502 (2009);
         "P. Giannozzi et al., J. Phys.:Condens. Matter 29 465901 (2017);
         "P. Giannozzi et al., J. Chem. Phys. 152 154105 (2020);
          URL http://www.quantum-espresso.org", 
     in publications or presentations arising from this work. More details at
     http://www.quantum-espresso.org/quote

     Parallel version (MPI), running on     1 processors

     MPI processes distributed on     1 nodes
     45249 MiB available memory on the printing compute node when the environment starts

     Waiting for input...
     Reading input from standard input

     Current dimensions of program PWSCF are:
     Max number of different atomic species (ntypx) = 10
     Max number of k-points (npk) =  40000
     Max angular momentum in pseudopotentials (lmaxx) =  4
     file Mo.pbe-spn-kjpaw_psl.1.0.0.UPF: wavefunction(s)  4S 4D renormalized
     file S.pbe-n-kjpaw_psl.1.0.0.UPF: wavefunction(s)  3S 3P renormalized

     IMPORTANT: XC functional enforced from input :
     Exchange-correlation= VDW-DF2-B86R
                           (   1   4  26   0   2   0   0)
     Any further DFT definition will be discarded
     Please, verify this is what you really want


     Subspace diagonalization in iterative solution of the eigenvalue problem:
     a serial algorithm will be used


     G-vector sticks info
     --------------------
     sticks:   dense  smooth     PW     G-vecs:    dense   smooth      PW
     Sum        1573     769    223               797393   281171   43435

     Using Slab Decomposition



     bravais-lattice index     =            4
     lattice parameter (alat)  =       5.9715  a.u.
     unit-cell volume          =    2917.9067 (a.u.)^3
     number of atoms/cell      =           12
     number of atomic types    =            2
     number of electrons       =       104.00
     number of Kohn-Sham states=           62
     kinetic-energy cutoff     =      80.0000  Ry
     charge density cutoff     =     640.0000  Ry
     scf convergence threshold =      1.0E-08
     mixing beta               =       0.2000
     number of iterations used =            8  local-TF  mixing
     Exchange-correlation= VDW-DF2-B86R
                           (   1   4  26   0   2   0   0)

     celldm(1)=   5.971535  celldm(2)=   0.000000  celldm(3)=  15.822785
     celldm(4)=   0.000000  celldm(5)=   0.000000  celldm(6)=   0.000000

     crystal axes: (cart. coord. in units of alat)
               a(1) = (   1.000000   0.000000   0.000000 )  
               a(2) = (  -0.500000   0.866025   0.000000 )  
               a(3) = (   0.000000   0.000000  15.822785 )  

     reciprocal axes: (cart. coord. in units 2 pi/alat)
               b(1) = (  1.000000  0.577350 -0.000000 )  
               b(2) = (  0.000000  1.154701  0.000000 )  
               b(3) = (  0.000000 -0.000000  0.063200 )  


     PseudoPot. # 1 for Mo read from file:
     ./pseudo/Mo.pbe-spn-kjpaw_psl.1.0.0.UPF
     MD5 check sum: 4396e0c640fcce5c25f020efccf1ab12
     Pseudo is Projector augmented-wave + core cor, Zval = 14.0
     Generated using &quot;atomic&quot; code by A. Dal Corso  v.6.3
     Shape of augmentation charge: PSQ
     Using radial grid of 1229 points,  6 beta functions with: 
                l(1) =   0
                l(2) =   0
                l(3) =   1
                l(4) =   1
                l(5) =   2
                l(6) =   2
     Q(r) pseudized with 0 coefficients 


     PseudoPot. # 2 for S  read from file:
     ./pseudo/S.pbe-n-kjpaw_psl.1.0.0.UPF
     MD5 check sum: fb45dfebcf3e72a4e1bd4a866ec2e262
     Pseudo is Projector augmented-wave + core cor, Zval =  6.0
     Generated using &quot;atomic&quot; code by A. Dal Corso  v.6.3
     Shape of augmentation charge: PSQ
     Using radial grid of 1151 points,  6 beta functions with: 
                l(1) =   0
                l(2) =   0
                l(3) =   1
                l(4) =   1
                l(5) =   2
                l(6) =   2
     Q(r) pseudized with 0 coefficients 


     atomic species   valence    mass     pseudopotential
     Mo               14.00    95.96000     Mo( 1.00)
     S                 6.00    32.06000     S ( 1.00)

      6 Sym. Ops. (no inversion) found



   Cartesian axes

     site n.     atom                  positions (alat units)
         1        S      tau(   1) = (  -0.0000005   0.5773503  -0.9967195  )
         2        Mo     tau(   2) = (   0.0000000   0.0000000  -0.4993332  )
         3        S      tau(   3) = (  -0.0000005   0.5773503  -0.0017175  )
         4        S      tau(   4) = (   0.5000003   0.2886747   0.9835827  )
         5        Mo     tau(   5) = (  -0.0000005   0.5773503   1.4818950  )
         6        S      tau(   6) = (   0.5000003   0.2886747   1.9798512  )
         7        S      tau(   7) = (   0.0000000   0.0000000   2.9586848  )
         8        Mo     tau(   8) = (   0.5000003   0.2886747   3.4569999  )
         9        S      tau(   9) = (   0.0000000   0.0000000   3.9548385  )
        10        S      tau(  10) = (  -0.0000005   0.5773503   5.8068376  )
        11        Mo     tau(  11) = (   0.0000000   0.0000000   6.3044741  )
        12        S      tau(  12) = (  -0.0000005   0.5773503   6.8016083  )

     number of k points=    30  Methfessel-Paxton smearing, width (Ry)=  0.0200
                       cart. coord. in units 2pi/alat
        k(    1) = (   0.0000000   0.0000000   0.0000000), wk =   0.0078125
        k(    2) = (   0.0000000   0.0721688   0.0000000), wk =   0.0468750
        k(    3) = (   0.0000000   0.1443376   0.0000000), wk =   0.0468750
        k(    4) = (   0.0000000   0.2165064   0.0000000), wk =   0.0468750
        k(    5) = (   0.0000000   0.2886751   0.0000000), wk =   0.0468750
        k(    6) = (   0.0000000   0.3608439   0.0000000), wk =   0.0468750
        k(    7) = (   0.0000000   0.4330127   0.0000000), wk =   0.0468750
        k(    8) = (   0.0000000   0.5051815   0.0000000), wk =   0.0468750
        k(    9) = (   0.0000000  -0.5773503   0.0000000), wk =   0.0234375
        k(   10) = (   0.0625000   0.1082532   0.0000000), wk =   0.0468750
        k(   11) = (   0.0625000   0.1804220   0.0000000), wk =   0.0937500
        k(   12) = (   0.0625000   0.2525907   0.0000000), wk =   0.0937500
        k(   13) = (   0.0625000   0.3247595   0.0000000), wk =   0.0937500
        k(   14) = (   0.0625000   0.3969283   0.0000000), wk =   0.0937500
        k(   15) = (   0.0625000   0.4690971   0.0000000), wk =   0.0937500
        k(   16) = (   0.0625000   0.5412659   0.0000000), wk =   0.0937500
        k(   17) = (   0.1250000   0.2165064   0.0000000), wk =   0.0468750
        k(   18) = (   0.1250000   0.2886751   0.0000000), wk =   0.0937500
        k(   19) = (   0.1250000   0.3608439   0.0000000), wk =   0.0937500
        k(   20) = (   0.1250000   0.4330127   0.0000000), wk =   0.0937500
        k(   21) = (   0.1250000   0.5051815   0.0000000), wk =   0.0937500
        k(   22) = (   0.1250000   0.5773503   0.0000000), wk =   0.0468750
        k(   23) = (   0.1875000   0.3247595   0.0000000), wk =   0.0468750
        k(   24) = (   0.1875000   0.3969283   0.0000000), wk =   0.0937500
        k(   25) = (   0.1875000   0.4690971   0.0000000), wk =   0.0937500
        k(   26) = (   0.1875000   0.5412659   0.0000000), wk =   0.0937500
        k(   27) = (   0.2500000   0.4330127   0.0000000), wk =   0.0468750
        k(   28) = (   0.2500000   0.5051815   0.0000000), wk =   0.0937500
        k(   29) = (   0.2500000   0.5773503   0.0000000), wk =   0.0468750
        k(   30) = (   0.3125000   0.5412659   0.0000000), wk =   0.0468750

     Dense  grid:   797393 G-vectors     FFT dimensions: (  50,  50, 768)

     Smooth grid:   281171 G-vectors     FFT dimensions: (  36,  36, 540)

     Estimated max dynamical RAM per process >       3.90 GB

     Initial potential from superposition of free atoms

     starting charge     103.9962, renormalised to     104.0000

     negative rho (up, down):  1.420E-04 0.000E+00


     %%%%%%%%%%%%%%%%%%%%%%%%%%%%%%%%%%%%%%%%%%%%%%%%%%%%%%%%%%%%%%%%%%%%%%%%
     %                                                                      %
     % You are using vdW-DF, which was implemented by the Thonhauser group. %
     % Please cite the following two papers that made this development      %
     % possible and the two reviews that describe the various versions:     %
     %                                                                      %
     %   T. Thonhauser et al., PRL 115, 136402 (2015).                      %
     %   T. Thonhauser et al., PRB 76, 125112 (2007).                       %
     %   K. Berland et al., Rep. Prog. Phys. 78, 066501 (2015).             %
     %   D.C. Langreth et al., J. Phys.: Condens. Matter 21, 084203 (2009). %
     %                                                                      %
     % If you are calculating stress with vdW-DF, please also cite:         %
     %                                                                      %
     %   R. Sabatini et al., J. Phys.: Condens. Matter 24, 424209 (2012).   %
     %                                                                      %
     %%%%%%%%%%%%%%%%%%%%%%%%%%%%%%%%%%%%%%%%%%%%%%%%%%%%%%%%%%%%%%%%%%%%%%%%

     %%%%%%%%%%%%%%%%%%%%%%%%%%%%%%%%%%%%%%%%%%%%%%%%%%%%%%%%%%%%%%%%%%%%%%%%
     %                                                                      %
     %  vdW-DF NEWS:                                                        %
     %                                                                      %
     %  * vdW-DF3 is now available. DOI: 10.1021/acs.jctc.0c00471           %
     %    use with input_dft = 'vdW-DF3-opt1' or 'vdW-DF3-opt2'             %
     %                                                                      %
     %  * Unscreened and range-separated hybrid vdW-DF-cx functionals       %
     %    DOI: 10.1063/1.4986522 and 10.1088/1361-648X/ac2ad2               %
     %    use with input_dft = 'vdW-DF-cx0'    and 'vdW-DF-ahcx'            %
     %  * Unscreened and range-separated hybrid vdW-DF2-b86r functionals    %
     %    DOI: 10.1063/1.4986522 and DOI: 10.1103/PhysRevX.12.041003        %
     %    use with input_dft = 'vdW-DF2-br0' and 'vdW-DF2-ahbr'             %
     %                                                                      %
     %%%%%%%%%%%%%%%%%%%%%%%%%%%%%%%%%%%%%%%%%%%%%%%%%%%%%%%%%%%%%%%%%%%%%%%%


     Starting wfcs are   72 randomized atomic wfcs
     Checking if some PAW data can be deallocated... 

     total cpu time spent up to now is      124.9 secs

     Self-consistent Calculation

     iteration #  1     ecut=    80.00 Ry     beta= 0.20
     Davidson diagonalization with overlap
     ethr =  1.00E-02,  avg # of iterations =  2.3

     Threshold (ethr) on eigenvalues was too large:
     Diagonalizing with lowered threshold

     Davidson diagonalization with overlap
     ethr =  2.86E-04,  avg # of iterations =  3.7

     negative rho (up, down):  2.159E-05 0.000E+00

     total cpu time spent up to now is      603.7 secs

     total energy              =   -1978.45489282 Ry
     estimated scf accuracy    <       0.44850336 Ry

     iteration #  2     ecut=    80.00 Ry     beta= 0.20
     Davidson diagonalization with overlap
     ethr =  4.31E-04,  avg # of iterations =  1.0

     negative rho (up, down):  9.999E-07 0.000E+00

     total cpu time spent up to now is      784.4 secs

     total energy              =   -1978.27639021 Ry
     estimated scf accuracy    <       0.36991845 Ry

     iteration #  3     ecut=    80.00 Ry     beta= 0.20
     Davidson diagonalization with overlap
     ethr =  3.56E-04,  avg # of iterations =  2.0

     negative rho (up, down):  2.808E-07 0.000E+00

     total cpu time spent up to now is     1021.4 secs

     total energy              =   -1978.35616878 Ry
     estimated scf accuracy    <       0.04778087 Ry

     iteration #  4     ecut=    80.00 Ry     beta= 0.20
     Davidson diagonalization with overlap
     ethr =  4.59E-05,  avg # of iterations =  2.5

     negative rho (up, down):  1.652E-07 0.000E+00

     total cpu time spent up to now is     1255.6 secs

     total energy              =   -1978.35901559 Ry
     estimated scf accuracy    <       0.01951608 Ry

     iteration #  5     ecut=    80.00 Ry     beta= 0.20
     Davidson diagonalization with overlap
     ethr =  1.88E-05,  avg # of iterations =  3.0

     negative rho (up, down):  1.291E-07 0.000E+00

     total cpu time spent up to now is     1465.9 secs

     total energy              =   -1978.36060608 Ry
     estimated scf accuracy    <       0.00467760 Ry

     iteration #  6     ecut=    80.00 Ry     beta= 0.20
     Davidson diagonalization with overlap
     c_bands:  1 eigenvalues not converged
     c_bands:  1 eigenvalues not converged
     ethr =  4.50E-06,  avg # of iterations =  6.1

     negative rho (up, down):  5.439E-07 0.000E+00

     total cpu time spent up to now is     1683.5 secs

     total energy              =   -1978.35916107 Ry
     estimated scf accuracy    <       0.00411129 Ry

     iteration #  7     ecut=    80.00 Ry     beta= 0.20
     Davidson diagonalization with overlap
     c_bands:  1 eigenvalues not converged
     ethr =  3.95E-06,  avg # of iterations =  6.5

     negative rho (up, down):  2.284E-07 0.000E+00

     total cpu time spent up to now is     1959.0 secs

     total energy              =   -1978.35851278 Ry
     estimated scf accuracy    <       0.01212027 Ry

     iteration #  8     ecut=    80.00 Ry     beta= 0.20
     Davidson diagonalization with overlap
     c_bands:  1 eigenvalues not converged
     ethr =  3.95E-06,  avg # of iterations =  3.8

     negative rho (up, down):  4.606E-07 0.000E+00

     total cpu time spent up to now is     2184.0 secs

     total energy              =   -1978.35898524 Ry
     estimated scf accuracy    <       0.00254302 Ry

     iteration #  9     ecut=    80.00 Ry     beta= 0.20
     Davidson diagonalization with overlap
     ethr =  2.45E-06,  avg # of iterations =  7.7

     negative rho (up, down):  7.580E-07 0.000E+00

     total cpu time spent up to now is     2431.4 secs

     total energy              =   -1978.35932759 Ry
     estimated scf accuracy    <       0.00296046 Ry

     iteration # 10     ecut=    80.00 Ry     beta= 0.20
     Davidson diagonalization with overlap
     ethr =  2.45E-06,  avg # of iterations =  1.3

     negative rho (up, down):  3.901E-03 0.000E+00

     total cpu time spent up to now is     2616.9 secs

     total energy              =   -1978.35856472 Ry
     estimated scf accuracy    <       0.00217675 Ry

     iteration # 11     ecut=    80.00 Ry     beta= 0.20
     Davidson diagonalization with overlap
     c_bands:  1 eigenvalues not converged
     ethr =  2.09E-06,  avg # of iterations =  5.2

     negative rho (up, down):  5.034E-03 0.000E+00

     total cpu time spent up to now is     2853.5 secs

     total energy              =   -1978.35938274 Ry
     estimated scf accuracy    <       0.00165679 Ry

     iteration # 12     ecut=    80.00 Ry     beta= 0.20
     Davidson diagonalization with overlap
     ethr =  1.59E-06,  avg # of iterations =  1.9

     negative rho (up, down):  3.088E-03 0.000E+00

     total cpu time spent up to now is     3052.2 secs

     total energy              =   -1978.35921117 Ry
     estimated scf accuracy    <       0.00304056 Ry

     iteration # 13     ecut=    80.00 Ry     beta= 0.20
     Davidson diagonalization with overlap
     ethr =  1.59E-06,  avg # of iterations =  1.5

     negative rho (up, down):  5.291E-03 0.000E+00

     total cpu time spent up to now is     3240.6 secs

     total energy              =   -1978.35896708 Ry
     estimated scf accuracy    <       0.00148798 Ry

     iteration # 14     ecut=    80.00 Ry     beta= 0.20
     Davidson diagonalization with overlap
     c_bands:  2 eigenvalues not converged
     c_bands:  1 eigenvalues not converged
     c_bands:  1 eigenvalues not converged
     ethr =  1.43E-06,  avg # of iterations =  5.0

     negative rho (up, down):  5.111E-03 0.000E+00

     total cpu time spent up to now is     3448.5 secs

     total energy              =   -1978.35903892 Ry
     estimated scf accuracy    <       0.00028793 Ry

     iteration # 15     ecut=    80.00 Ry     beta= 0.20
     Davidson diagonalization with overlap
     c_bands:  2 eigenvalues not converged
     ethr =  2.77E-07,  avg # of iterations =  5.3

     negative rho (up, down):  3.680E-03 0.000E+00

     total cpu time spent up to now is     3672.3 secs

     total energy              =   -1978.35908960 Ry
     estimated scf accuracy    <       0.00015926 Ry

     iteration # 16     ecut=    80.00 Ry     beta= 0.20
     Davidson diagonalization with overlap
     ethr =  1.53E-07,  avg # of iterations =  1.7

     negative rho (up, down):  2.389E-03 0.000E+00

     total cpu time spent up to now is     3860.2 secs

     total energy              =   -1978.35909062 Ry
     estimated scf accuracy    <       0.00010788 Ry

     iteration # 17     ecut=    80.00 Ry     beta= 0.20
     Davidson diagonalization with overlap
     ethr =  1.04E-07,  avg # of iterations =  3.0

     negative rho (up, down):  1.738E-03 0.000E+00

     total cpu time spent up to now is     4064.7 secs

     total energy              =   -1978.35910195 Ry
     estimated scf accuracy    <       0.00008641 Ry

     iteration # 18     ecut=    80.00 Ry     beta= 0.20
     Davidson diagonalization with overlap
     ethr =  8.31E-08,  avg # of iterations =  1.1

     negative rho (up, down):  4.245E-04 0.000E+00

     total cpu time spent up to now is     4248.5 secs

     total energy              =   -1978.35912205 Ry
     estimated scf accuracy    <       0.00006637 Ry

     iteration # 19     ecut=    80.00 Ry     beta= 0.20
     Davidson diagonalization with overlap
     ethr =  6.38E-08,  avg # of iterations =  2.0

     negative rho (up, down):  1.406E-04 0.000E+00

     total cpu time spent up to now is     4450.2 secs

     total energy              =   -1978.35912767 Ry
     estimated scf accuracy    <       0.00006606 Ry

     iteration # 20     ecut=    80.00 Ry     beta= 0.20
     Davidson diagonalization with overlap
     ethr =  6.35E-08,  avg # of iterations =  1.1

     negative rho (up, down):  6.808E-05 0.000E+00

     total cpu time spent up to now is     4631.4 secs

     total energy              =   -1978.35913311 Ry
     estimated scf accuracy    <       0.00005163 Ry

     iteration # 21     ecut=    80.00 Ry     beta= 0.20
     Davidson diagonalization with overlap
     ethr =  4.96E-08,  avg # of iterations =  1.1

     negative rho (up, down):  2.579E-04 0.000E+00

     total cpu time spent up to now is     4813.8 secs

     total energy              =   -1978.35913204 Ry
     estimated scf accuracy    <       0.00004947 Ry

     iteration # 22     ecut=    80.00 Ry     beta= 0.20
     Davidson diagonalization with overlap
     ethr =  4.76E-08,  avg # of iterations =  2.0

     negative rho (up, down):  3.305E-04 0.000E+00

     total cpu time spent up to now is     5017.0 secs

     total energy              =   -1978.35912640 Ry
     estimated scf accuracy    <       0.00006663 Ry

     iteration # 23     ecut=    80.00 Ry     beta= 0.20
     Davidson diagonalization with overlap
     ethr =  4.76E-08,  avg # of iterations =  1.3

     negative rho (up, down):  8.586E-04 0.000E+00

     total cpu time spent up to now is     5202.6 secs

     total energy              =   -1978.35912243 Ry
     estimated scf accuracy    <       0.00004374 Ry

     iteration # 24     ecut=    80.00 Ry     beta= 0.20
     Davidson diagonalization with overlap
     ethr =  4.21E-08,  avg # of iterations =  2.2

     negative rho (up, down):  5.327E-04 0.000E+00

     total cpu time spent up to now is     5403.7 secs

     total energy              =   -1978.35912519 Ry
     estimated scf accuracy    <       0.00004192 Ry

     iteration # 25     ecut=    80.00 Ry     beta= 0.20
     Davidson diagonalization with overlap
     ethr =  4.03E-08,  avg # of iterations =  2.8

     negative rho (up, down):  3.856E-04 0.000E+00

     total cpu time spent up to now is     5621.1 secs

     total energy              =   -1978.35912591 Ry
     estimated scf accuracy    <       0.00005706 Ry

     iteration # 26     ecut=    80.00 Ry     beta= 0.20
     Davidson diagonalization with overlap
     ethr =  4.03E-08,  avg # of iterations =  1.1

     negative rho (up, down):  4.529E-04 0.000E+00

     total cpu time spent up to now is     5817.3 secs

     total energy              =   -1978.35911717 Ry
     estimated scf accuracy    <       0.00004579 Ry

     iteration # 27     ecut=    80.00 Ry     beta= 0.20
     Davidson diagonalization with overlap
     ethr =  4.03E-08,  avg # of iterations =  3.0

     negative rho (up, down):  4.403E-04 0.000E+00

     total cpu time spent up to now is     6053.7 secs

     total energy              =   -1978.35911547 Ry
     estimated scf accuracy    <       0.00005324 Ry

     iteration # 28     ecut=    80.00 Ry     beta= 0.20
     Davidson diagonalization with overlap
     ethr =  4.03E-08,  avg # of iterations =  2.0

     negative rho (up, down):  1.145E-03 0.000E+00

     total cpu time spent up to now is     6255.0 secs

     total energy              =   -1978.35911102 Ry
     estimated scf accuracy    <       0.00001974 Ry

     iteration # 29     ecut=    80.00 Ry     beta= 0.20
     Davidson diagonalization with overlap
     ethr =  1.90E-08,  avg # of iterations =  3.0

     negative rho (up, down):  1.168E-03 0.000E+00

     total cpu time spent up to now is     6458.1 secs

     total energy              =   -1978.35911245 Ry
     estimated scf accuracy    <       0.00001237 Ry

     iteration # 30     ecut=    80.00 Ry     beta= 0.20
     Davidson diagonalization with overlap
     ethr =  1.19E-08,  avg # of iterations =  1.0

     negative rho (up, down):  8.014E-04 0.000E+00

     total cpu time spent up to now is     6639.8 secs

     total energy              =   -1978.35911280 Ry
     estimated scf accuracy    <       0.00001216 Ry

     iteration # 31     ecut=    80.00 Ry     beta= 0.20
     Davidson diagonalization with overlap
     ethr =  1.17E-08,  avg # of iterations =  1.0

     negative rho (up, down):  5.369E-04 0.000E+00

     total cpu time spent up to now is     6819.9 secs

     total energy              =   -1978.35911073 Ry
     estimated scf accuracy    <       0.00001120 Ry

     iteration # 32     ecut=    80.00 Ry     beta= 0.20
     Davidson diagonalization with overlap
     ethr =  1.08E-08,  avg # of iterations =  1.2

     negative rho (up, down):  5.731E-04 0.000E+00

     total cpu time spent up to now is     7004.2 secs

     total energy              =   -1978.35911290 Ry
     estimated scf accuracy    <       0.00001059 Ry

     iteration # 33     ecut=    80.00 Ry     beta= 0.20
     Davidson diagonalization with overlap
     ethr =  1.02E-08,  avg # of iterations =  1.2

     negative rho (up, down):  3.603E-04 0.000E+00

     total cpu time spent up to now is     7188.3 secs

     total energy              =   -1978.35911292 Ry
     estimated scf accuracy    <       0.00001066 Ry

     iteration # 34     ecut=    80.00 Ry     beta= 0.20
     Davidson diagonalization with overlap
     ethr =  1.02E-08,  avg # of iterations =  1.0

     negative rho (up, down):  1.551E-04 0.000E+00

     total cpu time spent up to now is     7369.1 secs

     total energy              =   -1978.35911559 Ry
     estimated scf accuracy    <       0.00000993 Ry

     iteration # 35     ecut=    80.00 Ry     beta= 0.20
     Davidson diagonalization with overlap
     ethr =  9.55E-09,  avg # of iterations =  1.5

     negative rho (up, down):  1.856E-04 0.000E+00

     total cpu time spent up to now is     7556.1 secs

     total energy              =   -1978.35911505 Ry
     estimated scf accuracy    <       0.00001042 Ry

     iteration # 36     ecut=    80.00 Ry     beta= 0.20
     Davidson diagonalization with overlap
     c_bands:  1 eigenvalues not converged
     ethr =  9.55E-09,  avg # of iterations =  2.6

     negative rho (up, down):  1.377E-04 0.000E+00

     total cpu time spent up to now is     7756.3 secs

     total energy              =   -1978.35911636 Ry
     estimated scf accuracy    <       0.00000936 Ry

     iteration # 37     ecut=    80.00 Ry     beta= 0.20
     Davidson diagonalization with overlap
     ethr =  9.00E-09,  avg # of iterations =  1.1

     negative rho (up, down):  2.149E-04 0.000E+00

     total cpu time spent up to now is     7937.9 secs

     total energy              =   -1978.35911506 Ry
     estimated scf accuracy    <       0.00000880 Ry

     iteration # 38     ecut=    80.00 Ry     beta= 0.20
     Davidson diagonalization with overlap
     ethr =  8.46E-09,  avg # of iterations =  1.1

     negative rho (up, down):  3.916E-04 0.000E+00

     total cpu time spent up to now is     8119.0 secs

     total energy              =   -1978.35911026 Ry
     estimated scf accuracy    <       0.00000838 Ry

     iteration # 39     ecut=    80.00 Ry     beta= 0.20
     Davidson diagonalization with overlap
     c_bands:  1 eigenvalues not converged
     ethr =  8.05E-09,  avg # of iterations =  3.6

     negative rho (up, down):  2.642E-04 0.000E+00

     total cpu time spent up to now is     8330.2 secs

     total energy              =   -1978.35911144 Ry
     estimated scf accuracy    <       0.00001180 Ry

     iteration # 40     ecut=    80.00 Ry     beta= 0.20
     Davidson diagonalization with overlap
     ethr =  8.05E-09,  avg # of iterations =  2.9

     negative rho (up, down):  2.672E-04 0.000E+00

     total cpu time spent up to now is     8536.4 secs

     total energy              =   -1978.35911224 Ry
     estimated scf accuracy    <       0.00000638 Ry

     iteration # 41     ecut=    80.00 Ry     beta= 0.20
     Davidson diagonalization with overlap
     ethr =  6.13E-09,  avg # of iterations =  2.9

     negative rho (up, down):  3.410E-04 0.000E+00

     total cpu time spent up to now is     8741.5 secs

     total energy              =   -1978.35911080 Ry
     estimated scf accuracy    <       0.00000690 Ry

     iteration # 42     ecut=    80.00 Ry     beta= 0.20
     Davidson diagonalization with overlap
     ethr =  6.13E-09,  avg # of iterations =  1.8

     negative rho (up, down):  3.220E-04 0.000E+00

     total cpu time spent up to now is     8935.7 secs

     total energy              =   -1978.35911141 Ry
     estimated scf accuracy    <       0.00000284 Ry

     iteration # 43     ecut=    80.00 Ry     beta= 0.20
     Davidson diagonalization with overlap
     ethr =  2.73E-09,  avg # of iterations =  3.4

     negative rho (up, down):  1.806E-04 0.000E+00

     total cpu time spent up to now is     9139.9 secs

     total energy              =   -1978.35911130 Ry
     estimated scf accuracy    <       0.00000290 Ry

     iteration # 44     ecut=    80.00 Ry     beta= 0.20
     Davidson diagonalization with overlap
     ethr =  2.73E-09,  avg # of iterations =  2.1

     negative rho (up, down):  1.586E-04 0.000E+00

     total cpu time spent up to now is     9345.3 secs

     total energy              =   -1978.35911167 Ry
     estimated scf accuracy    <       0.00000167 Ry

     iteration # 45     ecut=    80.00 Ry     beta= 0.20
     Davidson diagonalization with overlap
     ethr =  1.61E-09,  avg # of iterations =  1.1

     negative rho (up, down):  1.511E-04 0.000E+00

     total cpu time spent up to now is     9529.6 secs

     total energy              =   -1978.35911199 Ry
     estimated scf accuracy    <       0.00000144 Ry

     iteration # 46     ecut=    80.00 Ry     beta= 0.20
     Davidson diagonalization with overlap
     ethr =  1.38E-09,  avg # of iterations =  2.8

     negative rho (up, down):  1.836E-04 0.000E+00

     total cpu time spent up to now is     9730.0 secs

     total energy              =   -1978.35911142 Ry
     estimated scf accuracy    <       0.00000149 Ry

     iteration # 47     ecut=    80.00 Ry     beta= 0.20
     Davidson diagonalization with overlap
     ethr =  1.38E-09,  avg # of iterations =  1.5

     negative rho (up, down):  2.264E-04 0.000E+00

     total cpu time spent up to now is     9918.8 secs

     total energy              =   -1978.35911116 Ry
     estimated scf accuracy    <       0.00000103 Ry

     iteration # 48     ecut=    80.00 Ry     beta= 0.20
     Davidson diagonalization with overlap
     ethr =  9.87E-10,  avg # of iterations =  1.3

     negative rho (up, down):  2.199E-04 0.000E+00

     total cpu time spent up to now is    10104.8 secs

     total energy              =   -1978.35911091 Ry
     estimated scf accuracy    <       0.00000099 Ry

     iteration # 49     ecut=    80.00 Ry     beta= 0.20
     Davidson diagonalization with overlap
     ethr =  9.55E-10,  avg # of iterations =  2.0

     negative rho (up, down):  2.196E-04 0.000E+00

     total cpu time spent up to now is    10304.6 secs

     total energy              =   -1978.35911133 Ry
     estimated scf accuracy    <       0.00000092 Ry

     iteration # 50     ecut=    80.00 Ry     beta= 0.20
     Davidson diagonalization with overlap
     ethr =  8.81E-10,  avg # of iterations =  2.2

     negative rho (up, down):  2.001E-04 0.000E+00

     total cpu time spent up to now is    10498.2 secs

     total energy              =   -1978.35911250 Ry
     estimated scf accuracy    <       0.00000039 Ry

     iteration # 51     ecut=    80.00 Ry     beta= 0.20
     Davidson diagonalization with overlap
     ethr =  3.75E-10,  avg # of iterations =  2.1

     negative rho (up, down):  1.844E-04 0.000E+00

     total cpu time spent up to now is    10698.4 secs

     total energy              =   -1978.35911204 Ry
     estimated scf accuracy    <       0.00000027 Ry

     iteration # 52     ecut=    80.00 Ry     beta= 0.20
     Davidson diagonalization with overlap
     ethr =  2.64E-10,  avg # of iterations =  3.3

     negative rho (up, down):  1.850E-04 0.000E+00

     total cpu time spent up to now is    10921.4 secs

     total energy              =   -1978.35911204 Ry
     estimated scf accuracy    <       0.00000013 Ry

     iteration # 53     ecut=    80.00 Ry     beta= 0.20
     Davidson diagonalization with overlap
     ethr =  1.21E-10,  avg # of iterations =  1.4

     negative rho (up, down):  1.817E-04 0.000E+00

     total cpu time spent up to now is    11109.4 secs

     total energy              =   -1978.35911197 Ry
     estimated scf accuracy    <       0.00000007 Ry

     iteration # 54     ecut=    80.00 Ry     beta= 0.20
     Davidson diagonalization with overlap
     ethr =  6.82E-11,  avg # of iterations =  2.7

     negative rho (up, down):  1.813E-04 0.000E+00

     total cpu time spent up to now is    11314.7 secs

     total energy              =   -1978.35911183 Ry
     estimated scf accuracy    <       0.00000007 Ry

     iteration # 55     ecut=    80.00 Ry     beta= 0.20
     Davidson diagonalization with overlap
     ethr =  6.82E-11,  avg # of iterations =  2.1

     negative rho (up, down):  1.754E-04 0.000E+00

     total cpu time spent up to now is    11514.7 secs

     total energy              =   -1978.35911175 Ry
     estimated scf accuracy    <       0.00000004 Ry

     iteration # 56     ecut=    80.00 Ry     beta= 0.20
     Davidson diagonalization with overlap
     ethr =  4.16E-11,  avg # of iterations =  1.2

     negative rho (up, down):  1.651E-04 0.000E+00

     total cpu time spent up to now is    11698.4 secs

     total energy              =   -1978.35911158 Ry
     estimated scf accuracy    <       0.00000004 Ry

     iteration # 57     ecut=    80.00 Ry     beta= 0.20
     Davidson diagonalization with overlap
     ethr =  3.58E-11,  avg # of iterations =  1.3

     negative rho (up, down):  1.591E-04 0.000E+00

     total cpu time spent up to now is    11885.9 secs

     total energy              =   -1978.35911155 Ry
     estimated scf accuracy    <       0.00000003 Ry

     iteration # 58     ecut=    80.00 Ry     beta= 0.20
     Davidson diagonalization with overlap
     ethr =  2.64E-11,  avg # of iterations =  1.3

     negative rho (up, down):  1.568E-04 0.000E+00

     total cpu time spent up to now is    12071.7 secs

     total energy              =   -1978.35911154 Ry
     estimated scf accuracy    <       0.00000002 Ry

     iteration # 59     ecut=    80.00 Ry     beta= 0.20
     Davidson diagonalization with overlap
     ethr =  2.25E-11,  avg # of iterations =  2.1

     negative rho (up, down):  1.574E-04 0.000E+00

     total cpu time spent up to now is    12271.4 secs

     total energy              =   -1978.35911145 Ry
     estimated scf accuracy    <       0.00000002 Ry

     iteration # 60     ecut=    80.00 Ry     beta= 0.20
     Davidson diagonalization with overlap
     ethr =  1.56E-11,  avg # of iterations =  1.9

     negative rho (up, down):  1.670E-04 0.000E+00

     total cpu time spent up to now is    12470.0 secs

     total energy              =   -1978.35911142 Ry
     estimated scf accuracy    <       0.00000001 Ry

     iteration # 61     ecut=    80.00 Ry     beta= 0.20
     Davidson diagonalization with overlap
     ethr =  1.23E-11,  avg # of iterations =  2.9

     negative rho (up, down):  1.623E-04 0.000E+00

     total cpu time spent up to now is    12677.7 secs

     total energy              =   -1978.35911143 Ry
     estimated scf accuracy    <       0.00000001 Ry

     iteration # 62     ecut=    80.00 Ry     beta= 0.20
     Davidson diagonalization with overlap
     ethr =  1.15E-11,  avg # of iterations =  2.1

     negative rho (up, down):  1.656E-04 0.000E+00

     total cpu time spent up to now is    12880.1 secs

     End of self-consistent calculation

          k = 0.0000 0.0000 0.0000 ( 35507 PWs)   bands (ev):

   -58.9008 -58.8851 -58.8525 -58.8030 -33.0747 -33.0589 -33.0270 -32.9774
   -32.8374 -32.8374 -32.8230 -32.8230 -32.7890 -32.7890 -32.7406 -32.7406
   -12.2442 -12.1598 -12.1462 -12.0486 -11.0094 -10.8728 -10.8515 -10.7175
    -4.0422  -3.7084  -3.6853  -3.3561  -0.6232  -0.6232  -0.6170  -0.6170
    -0.6045  -0.5773  -0.5773  -0.5361  -0.5361   0.0393   0.0808   0.4912
     0.4913   0.5021   0.5021   0.5369   0.5370   0.5823   0.5823   0.8192
     1.5961   1.8271   2.1309   2.4581   4.7230   4.7230   4.7617   4.7617
     4.7746   4.7746   4.8325   4.8325   4.9372   4.9375

          k = 0.0000 0.0722 0.0000 ( 35493 PWs)   bands (ev):

   -58.8992 -58.8836 -58.8509 -58.8014 -33.0717 -33.0558 -33.0240 -32.9743
   -32.8529 -32.8409 -32.8386 -32.8265 -32.8045 -32.7925 -32.7562 -32.7442
   -12.1846 -12.1004 -12.0869 -11.9895 -10.9818 -10.8479 -10.8263 -10.6943
    -3.9733  -3.6409  -3.6162  -3.2881  -0.7604  -0.7514  -0.7403  -0.7129
    -0.6702  -0.5610  -0.5545  -0.5151  -0.4736  -0.2217  -0.1950   0.1758
     0.3941   0.4055   0.4401   0.4860   0.5964   0.6963   0.7089   1.0600
     1.5981   1.8079   2.0964   2.3783   4.6473   4.6706   4.6945   4.7490
     4.7800   4.8074   4.8428   4.8609   4.8636   4.8906

          k = 0.0000 0.1443 0.0000 ( 35435 PWs)   bands (ev):

   -58.8948 -58.8791 -58.8465 -58.7970 -33.0630 -33.0471 -33.0153 -32.9656
   -32.8970 -32.8827 -32.8509 -32.8486 -32.8366 -32.8026 -32.8003 -32.7542
   -12.0106 -11.9273 -11.9141 -11.8172 -10.9013 -10.7754 -10.7527 -10.6270
    -3.7816  -3.4550  -3.4254  -3.1030  -1.1117  -1.0975  -1.0680  -1.0542
    -1.0107  -0.6749  -0.6314  -0.3818  -0.3744  -0.3394  -0.3359  -0.2935
     0.1428   0.1554   0.1897   0.2366   0.6566   0.8365   0.8656   1.2102
     1.5665   1.7190   1.9423   2.1211   4.3582   4.4079   4.4612   4.5148
     4.5441   4.5917   4.6646   4.6651   4.7192   4.7429

          k = 0.0000 0.2165 0.0000 ( 35345 PWs)   bands (ev):

   -58.8881 -58.8725 -58.8398 -58.7903 -33.0501 -33.0341 -33.0024 -32.9623
   -32.9526 -32.9481 -32.9140 -32.8659 -32.8658 -32.8516 -32.8176 -32.7692
   -11.7372 -11.6559 -11.6430 -11.5478 -10.7749 -10.6620 -10.6377 -10.5221
    -3.5218  -3.2141  -3.1781  -2.8765  -1.5484  -1.5198  -1.5015  -1.4702
    -1.3962  -1.1609  -1.0962  -0.8843  -0.1837  -0.1681  -0.1382  -0.1072
    -0.0993  -0.0882  -0.0581  -0.0170   0.5696   0.7893   0.8111   1.1290
     1.4179   1.4985   1.6205   1.7122   3.9839   4.1077   4.1822   4.4118
     4.4446   4.5139   4.5280   4.5651   4.5977   4.6127

          k = 0.0000 0.2887 0.0000 ( 35323 PWs)   bands (ev):

   -58.8803 -58.8646 -58.8320 -58.7825 -33.0386 -33.0347 -33.0245 -33.0188
   -32.9903 -32.9870 -32.9421 -32.9373 -32.8835 -32.8692 -32.8352 -32.7868
   -11.3897 -11.3128 -11.3002 -11.2084 -10.6154 -10.5198 -10.4937 -10.3912
    -3.3220  -3.0717  -3.0405  -2.8113  -1.9474  -1.8733  -1.8327  -1.8140
    -1.7122  -1.6517  -1.5392  -1.4233  -0.5118  -0.4959  -0.4633  -0.4139
     0.2162   0.2300   0.2651   0.3130   0.3544   0.5887   0.6023   0.8867
     1.1392   1.1794   1.2373   1.3026   3.8494   4.0391   4.1053   4.2565
     4.3210   4.3378   4.4112   4.4201   4.7837   4.8586

          k = 0.0000 0.3608 0.0000 ( 35299 PWs)   bands (ev):

   -58.8724 -58.8568 -58.8241 -58.7746 -33.1140 -33.0999 -33.0657 -33.0193
   -33.0176 -33.0034 -32.9716 -32.9218 -32.9011 -32.8868 -32.8527 -32.8044
   -11.0066 -10.9374 -10.9248 -10.8391 -10.4419 -10.3668 -10.3391 -10.2517
    -3.3590  -3.2050  -3.1958  -3.0624  -2.3118  -2.1888  -2.1190  -2.0225
    -1.9530  -1.9153  -1.8243  -1.7284  -0.8002  -0.7834  -0.7509  -0.7008
     0.1192   0.3517   0.3624   0.5353   0.5582   0.5899   0.6126   0.6446
     0.9189   0.9590   1.0085   1.0723   3.9649   4.1531   4.1646   4.2047
     4.2121   4.2247   4.2991   4.5048   5.1140   5.2196

          k = 0.0000 0.4330 0.0000 ( 35224 PWs)   bands (ev):

   -58.8657 -58.8501 -58.8174 -58.7679 -33.1772 -33.1632 -33.1289 -33.0809
   -33.0062 -32.9903 -32.9585 -32.9159 -32.9087 -32.9016 -32.8676 -32.8193
   -10.6427 -10.5851 -10.5722 -10.4959 -10.2803 -10.2268 -10.1988 -10.1262
    -3.5920  -3.5006  -3.4995  -3.4111  -2.6498  -2.5391  -2.5144  -2.4140
    -2.0650  -1.9663  -1.9397  -1.8098  -1.0210  -1.0035  -0.9712  -0.9206
    -0.0560   0.1673   0.1738   0.3975   0.7893   0.8253   0.8539   0.9175
     0.9386   0.9999   1.0442   1.1254   4.1474   4.1819   4.2060   4.2250
     4.2692   4.3892   4.4200   4.6452   5.4221   5.5406

          k = 0.0000 0.5052 0.0000 ( 35152 PWs)   bands (ev):

   -58.8613 -58.8456 -58.8130 -58.7635 -33.2191 -33.2052 -33.1709 -33.1229
   -32.9975 -32.9815 -32.9498 -32.9258 -32.9115 -32.9000 -32.8774 -32.8291
   -10.3704 -10.3263 -10.3126 -10.2477 -10.1621 -10.1271 -10.1006 -10.0389
    -3.8204  -3.7542  -3.7512  -3.6780  -2.8871  -2.8025  -2.7818  -2.6946
    -2.1682  -2.0644  -2.0465  -1.9224  -1.1587  -1.1408  -1.1087  -1.0578
    -0.1512   0.0600   0.0650   0.2668   0.9430   0.9912   1.0175   1.0894
     1.1271   1.1988   1.2283   1.3134   4.1960   4.2177   4.2461   4.3004
     4.5153   4.6202   4.6414   4.7804   5.6131   5.7858

          k = 0.0000-0.5774 0.0000 ( 35026 PWs)   bands (ev):

   -58.8597 -58.8440 -58.8114 -58.7619 -33.2338 -33.2199 -33.1855 -33.1375
   -32.9944 -32.9784 -32.9467 -32.9292 -32.9150 -32.8969 -32.8809 -32.8326
   -10.2668 -10.2298 -10.2153 -10.1571 -10.1177 -10.0908 -10.0659 -10.0078
    -3.9123  -3.8518  -3.8473  -3.7773  -2.9721  -2.8985  -2.8767  -2.7936
    -2.2163  -2.1132  -2.0957  -1.9747  -1.2054  -1.1874  -1.1553  -1.1043
    -0.1798   0.0254   0.0306   0.2228   0.9929   1.0460   1.0714   1.1467
     1.2435   1.3054   1.3254   1.4006   4.2246   4.2422   4.2727   4.3239
     4.6693   4.7287   4.7496   4.8272   5.6721   5.8312

          k = 0.0625 0.1083 0.0000 ( 35467 PWs)   bands (ev):

   -58.8962 -58.8806 -58.8479 -58.7984 -33.0658 -33.0500 -33.0182 -32.9685
   -32.8822 -32.8679 -32.8481 -32.8339 -32.8338 -32.7998 -32.7856 -32.7514
   -12.0678 -11.9841 -11.9708 -11.8738 -10.9277 -10.7992 -10.7768 -10.6491
    -3.8426  -3.5136  -3.4856  -3.1608  -1.0011  -0.9895  -0.9594  -0.9507
    -0.9064  -0.5357  -0.4978  -0.4421  -0.4352  -0.3962  -0.3546  -0.1746
     0.1791   0.1910   0.2249   0.2710   0.6933   0.8490   0.8756   1.2140
     1.5847   1.7541   2.0036   2.2095   4.4798   4.5045   4.5347   4.5474
     4.5528   4.6224   4.6386   4.7121   4.7356   4.8039

          k = 0.0625 0.1804 0.0000 ( 35370 PWs)   bands (ev):

   -58.8907 -58.8750 -58.8424 -58.7929 -33.0550 -33.0391 -33.0073 -32.9576
   -32.9357 -32.9215 -32.8874 -32.8618 -32.8475 -32.8391 -32.8135 -32.7652
   -11.8439 -11.7617 -11.7487 -11.6528 -10.8241 -10.7060 -10.6823 -10.5627
    -3.6127  -3.2949  -3.2607  -2.9473  -1.3851  -1.3676  -1.3417  -1.3055
    -1.2471  -0.9443  -0.8884  -0.6330  -0.2264  -0.2176  -0.1941  -0.1745
    -0.1726  -0.1490  -0.1280  -0.0943   0.7445   0.9275   0.9576   1.2544
     1.4977   1.5980   1.7647   1.8730   4.0928   4.1856   4.2490   4.3985
     4.4591   4.4757   4.5243   4.5801   4.6227   4.6859

          k = 0.0625 0.2526 0.0000 ( 35362 PWs)   bands (ev):

   -58.8834 -58.8678 -58.8351 -58.7856 -33.0409 -33.0249 -33.0049 -32.9932
   -32.9908 -32.9566 -32.9434 -32.9084 -32.8798 -32.8655 -32.8314 -32.7831
   -11.5328 -11.4538 -11.4412 -11.3477 -10.6806 -10.5776 -10.5522 -10.4442
    -3.3692  -3.0860  -3.0492  -2.7783  -1.7776  -1.7286  -1.7245  -1.6859
    -1.5764  -1.3993  -1.3184  -1.1563  -0.5644  -0.5487  -0.5129  -0.4620
     0.0417   0.0544   0.0886   0.1356   0.6423   0.8315   0.8468   1.1031
     1.2818   1.3219   1.4000   1.4622   3.8287   3.9926   4.0537   4.2535
     4.3760   4.4027   4.4372   4.4836   4.5874   4.6143

          k = 0.0625 0.3248 0.0000 ( 35310 PWs)   bands (ev):

   -58.8756 -58.8599 -58.8273 -58.7778 -33.0789 -33.0649 -33.0307 -33.0255
   -33.0095 -32.9825 -32.9778 -32.9280 -32.8992 -32.8849 -32.8508 -32.8025
   -11.1660 -11.0930 -11.0805 -10.9918 -10.5127 -10.4286 -10.4015 -10.3076
    -3.2800  -3.0807  -3.0614  -2.8883  -2.1156  -2.0220  -1.9015  -1.8856
    -1.8829  -1.8190  -1.6962  -1.6545  -0.8697  -0.8410  -0.8047  -0.7435
     0.2757   0.2976   0.3214   0.3741   0.4314   0.6031   0.6162   0.8374
     1.0493   1.0750   1.1164   1.1733   3.7904   3.9748   4.0153   4.1690
     4.3074   4.3332   4.3853   4.5017   4.8444   4.9232

          k = 0.0625 0.3969 0.0000 ( 35243 PWs)   bands (ev):

   -58.8683 -58.8526 -58.8200 -58.7705 -33.1466 -33.1326 -33.0983 -33.0503
   -33.0113 -32.9953 -32.9636 -32.9170 -32.9138 -32.9027 -32.8686 -32.8203
   -10.7892 -10.7260 -10.7134 -10.6325 -10.3427 -10.2799 -10.2517 -10.1729
    -3.4347  -3.3176  -3.3148  -3.2089  -2.4845  -2.3720  -2.3428  -2.2450
    -1.9932  -1.9042  -1.8728  -1.7412  -1.0689  -1.0349  -1.0016  -0.9394
     0.1668   0.3452   0.3544   0.4210   0.4453   0.4802   0.5047   0.5947
     1.0590   1.0802   1.1163   1.1698   3.9222   4.0684   4.0908   4.2000
     4.3517   4.3910   4.4305   4.5904   5.1835   5.2856

          k = 0.0625 0.4691 0.0000 ( 35169 PWs)   bands (ev):

   -58.8627 -58.8471 -58.8144 -58.7649 -33.1979 -33.1840 -33.1496 -33.1016
   -33.0003 -32.9843 -32.9526 -32.9306 -32.9163 -32.9028 -32.8822 -32.8340
   -10.4660 -10.4159 -10.4027 -10.3327 -10.1997 -10.1574 -10.1298 -10.0641
    -3.6723  -3.5961  -3.5943  -3.5151  -2.8008  -2.7150  -2.6994  -2.6132
    -2.0958  -1.9878  -1.9740  -1.8445  -1.1763  -1.1477  -1.1207  -1.0627
    -0.0249   0.1569   0.1629   0.3410   0.5442   0.5852   0.6075   0.6817
     1.2325   1.2609   1.2930   1.3527   4.1132   4.1863   4.2054   4.2776
     4.4882   4.5520   4.5812   4.7213   5.4965   5.6555

          k = 0.0625 0.5413 0.0000 ( 35128 PWs)   bands (ev):

   -58.8597 -58.8440 -58.8114 -58.7619 -33.2255 -33.2116 -33.1773 -33.1293
   -32.9944 -32.9784 -32.9467 -32.9379 -32.9237 -32.8969 -32.8896 -32.8413
   -10.2726 -10.2342 -10.2199 -10.1608 -10.1153 -10.0875 -10.0621 -10.0036
    -3.8323  -3.7709  -3.7662  -3.6955  -2.9793  -2.9106  -2.8943  -2.8138
    -2.1851  -2.0776  -2.0634  -1.9405  -1.2195  -1.1985  -1.1754  -1.1212
    -0.1299   0.0531   0.0610   0.2343   0.6342   0.6879   0.7054   0.7799
     1.3864   1.4262   1.4528   1.5186   4.2244   4.2455   4.2686   4.3208
     4.6640   4.7269   4.7495   4.8382   5.7188   5.8394

          k = 0.1250 0.2165 0.0000 ( 35331 PWs)   bands (ev):

   -58.8845 -58.8689 -58.8362 -58.7867 -33.0430 -33.0271 -32.9953 -32.9909
   -32.9767 -32.9456 -32.9426 -32.8944 -32.8807 -32.8663 -32.8323 -32.7840
   -11.5820 -11.5023 -11.4896 -11.3957 -10.7028 -10.5974 -10.5722 -10.4623
    -3.3884  -3.0942  -3.0560  -2.7705  -1.7057  -1.6767  -1.6651  -1.6186
    -1.4807  -1.2374  -1.1631  -0.9692  -0.7028  -0.6921  -0.6504  -0.6030
    -0.0377  -0.0254   0.0078   0.0546   0.8275   0.9908   1.0136   1.2336
     1.3487   1.3795   1.4761   1.5313   3.8163   3.9689   4.0238   4.2137
     4.3669   4.3991   4.4321   4.4516   4.4639   4.5195

          k = 0.1250 0.2887 0.0000 ( 35357 PWs)   bands (ev):

   -58.8773 -58.8616 -58.8290 -58.7795 -33.0542 -33.0401 -33.0288 -33.0129
   -33.0059 -32.9811 -32.9578 -32.9314 -32.9039 -32.8897 -32.8556 -32.8073
   -11.2499 -11.1751 -11.1626 -11.0725 -10.5493 -10.4606 -10.4338 -10.3364
    -3.2316  -2.9989  -2.9718  -2.7644  -1.9583  -1.9017  -1.8467  -1.8083
    -1.7057  -1.6407  -1.5380  -1.4729  -1.1334  -1.0862  -1.0359  -0.9249
     0.0653   0.0869   0.1125   0.1660   0.7544   0.8921   0.9021   1.0730
     1.1561   1.1612   1.1964   1.2474   3.6561   3.8482   3.8916   4.0890
     4.3674   4.3964   4.4140   4.4755   4.5998   4.6212

          k = 0.1250 0.3608 0.0000 ( 35341 PWs)   bands (ev):

   -58.8700 -58.8544 -58.8217 -58.7722 -33.1165 -33.1024 -33.0682 -33.0201
   -33.0146 -32.9986 -32.9669 -32.9276 -32.9171 -32.9134 -32.8793 -32.8310
   -10.8853 -10.8187 -10.8062 -10.7226 -10.3818 -10.3127 -10.2846 -10.2014
    -3.2789  -3.1306  -3.1242  -2.9949  -2.2845  -2.1936  -2.1630  -2.0927
    -1.9000  -1.8243  -1.8043  -1.6773  -1.3285  -1.2373  -1.1762  -1.0569
     0.0072   0.0394   0.0591   0.1181   0.5336   0.6455   0.6579   0.7956
     1.1116   1.1298   1.1582   1.2106   3.6917   3.9059   3.9386   4.1566
     4.4380   4.4621   4.4917   4.5763   4.8399   4.9178

          k = 0.1250 0.4330 0.0000 ( 35215 PWs)   bands (ev):

   -58.8638 -58.8482 -58.8155 -58.7660 -33.1686 -33.1546 -33.1203 -33.0723
   -33.0025 -32.9865 -32.9548 -32.9478 -32.9335 -32.9050 -32.8995 -32.8512
   -10.5414 -10.4866 -10.4738 -10.3999 -10.2252 -10.1768 -10.1485 -10.0791
    -3.4595  -3.3638  -3.3629  -3.2711  -2.6969  -2.6318  -2.6254  -2.5521
    -1.9712  -1.8572  -1.8512  -1.7229  -1.3585  -1.2641  -1.2188  -1.1133
    -0.0475   0.0097   0.0236   0.0994   0.2583   0.3629   0.3768   0.5031
     1.2504   1.2695   1.2999   1.3524   3.8985   4.0986   4.1222   4.3258
     4.5467   4.5637   4.6042   4.6662   5.1499   5.3115

          k = 0.1250 0.5052 0.0000 ( 35141 PWs)   bands (ev):

   -58.8597 -58.8440 -58.8114 -58.7619 -33.2031 -33.1892 -33.1549 -33.1069
   -32.9944 -32.9784 -32.9613 -32.9471 -32.9467 -32.9130 -32.8969 -32.8647
   -10.2863 -10.2447 -10.2309 -10.1694 -10.1096 -10.0795 -10.0529  -9.9934
    -3.6226  -3.5546  -3.5501  -3.4756  -2.9922  -2.9395  -2.9343  -2.8607
    -2.0899  -1.9710  -1.9653  -1.8420  -1.3105  -1.2372  -1.2114  -1.1315
    -0.0515   0.0352   0.0602   0.0859   0.1311   0.1381   0.1774   0.2917
     1.4373   1.4663   1.4964   1.5557   4.1174   4.2118   4.2351   4.3298
     4.6972   4.7493   4.7730   4.8673   5.4243   5.5393

          k = 0.1250 0.5774 0.0000 ( 35180 PWs)   bands (ev):

   -58.8582 -58.8426 -58.8099 -58.7604 -33.2152 -33.2013 -33.1670 -33.1190
   -32.9916 -32.9756 -32.9660 -32.9518 -32.9439 -32.9177 -32.8941 -32.8694
   -10.1897 -10.1552 -10.1404 -10.0882 -10.0641 -10.0439 -10.0189  -9.9628
    -3.6859  -3.6277  -3.6200  -3.5508  -3.0975  -3.0482  -3.0427  -2.9686
    -2.1500  -2.0337  -2.0242  -1.9031  -1.2637  -1.2172  -1.2046  -1.1372
    -0.1076   0.0252   0.0496   0.0604   0.0890   0.1098   0.1614   0.2360
     1.5296   1.5670   1.5961   1.6611   4.1918   4.2138   4.2350   4.2893
     4.8086   4.8764   4.8948   4.9679   5.5368   5.6536

          k = 0.1875 0.3248 0.0000 ( 35337 PWs)   bands (ev):

   -58.8706 -58.8550 -58.8223 -58.7728 -33.1029 -33.0888 -33.0546 -33.0158
   -33.0065 -32.9998 -32.9681 -32.9344 -32.9201 -32.9183 -32.8861 -32.8378
   -10.9187 -10.8509 -10.8385 -10.7539 -10.3950 -10.3237 -10.2957 -10.2109
    -3.2127  -3.0486  -3.0401  -2.8980  -2.1558  -2.0865  -2.0595  -2.0218
    -1.8546  -1.7827  -1.7729  -1.6819  -1.4700  -1.3671  -1.2747  -1.1266
    -0.1667  -0.1341  -0.1163  -0.0557   0.6982   0.7865   0.7952   0.9055
     1.1175   1.1401   1.1671   1.2227   3.6037   3.8412   3.8738   4.1302
     4.4623   4.4869   4.5016   4.5578   4.6959   4.7475

          k = 0.1875 0.3969 0.0000 ( 35241 PWs)   bands (ev):

   -58.8644 -58.8488 -58.8161 -58.7666 -33.1448 -33.1308 -33.0965 -33.0485
   -33.0037 -32.9877 -32.9652 -32.9560 -32.9510 -32.9169 -32.9062 -32.8686
   -10.5828 -10.5254 -10.5128 -10.4368 -10.2379 -10.1859 -10.1574 -10.0857
    -3.2985  -3.1824  -3.1813  -3.0751  -2.6038  -2.5711  -2.5694  -2.5090
    -1.8356  -1.7576  -1.6957  -1.6373  -1.4678  -1.3804  -1.2863  -1.1523
    -0.4850  -0.4417  -0.4243  -0.3574   0.4698   0.5362   0.5387   0.6260
     1.2204   1.2442   1.2757   1.3334   3.7575   4.0216   4.0438   4.3584
     4.5739   4.5911   4.6147   4.6676   4.8758   5.0563

          k = 0.1875 0.4691 0.0000 ( 35167 PWs)   bands (ev):

   -58.8597 -58.8440 -58.8114 -58.7619 -33.1753 -33.1613 -33.1270 -33.0790
   -32.9945 -32.9901 -32.9785 -32.9759 -32.9468 -32.9418 -32.8969 -32.8936
   -10.2996 -10.2551 -10.2417 -10.1778 -10.1040 -10.0714 -10.0439  -9.9833
    -3.3846  -3.2978  -3.2954  -3.2104  -3.0005  -2.9711  -2.9661  -2.9038
    -1.9202  -1.7961  -1.7871  -1.6984  -1.4095  -1.2884  -1.2448  -1.1197
    -0.6696  -0.5900  -0.5758  -0.4753   0.1693   0.2450   0.2547   0.3396
     1.4213   1.4413   1.4739   1.5274   3.9752   4.1459   4.1607   4.3283
     4.7386   4.7894   4.8034   4.9022   5.0856   5.2039

          k = 0.1875 0.5413 0.0000 ( 35162 PWs)   bands (ev):

   -58.8571 -58.8415 -58.8088 -58.7593 -33.1913 -33.1773 -33.1430 -33.0950
   -33.0041 -32.9899 -32.9895 -32.9734 -32.9558 -32.9417 -32.9075 -32.8919
   -10.1327 -10.0994 -10.0846 -10.0401 -10.0178 -10.0056  -9.9797  -9.9257
    -3.4220  -3.3622  -3.3477  -3.2779  -3.2167  -3.1884  -3.1790  -3.1150
    -2.0633  -1.9386  -1.9313  -1.8205  -1.2817  -1.1877  -1.1777  -1.0844
    -0.7138  -0.6086  -0.5944  -0.4862  -0.0390   0.0342   0.0525   0.1387
     1.6055   1.6330   1.6642   1.7234   4.0443   4.0839   4.1077   4.1720
     4.9260   5.0224   5.0481   5.1451   5.1975   5.3016

          k = 0.2500 0.4330 0.0000 ( 35195 PWs)   bands (ev):

   -58.8597 -58.8440 -58.8114 -58.7619 -33.1608 -33.1468 -33.1125 -33.0645
   -33.0051 -32.9945 -32.9909 -32.9785 -32.9567 -32.9468 -32.9085 -32.8969
   -10.3050 -10.2593 -10.2461 -10.1813 -10.1017 -10.0681 -10.0402  -9.9790
    -3.2761  -3.1751  -3.1743  -3.0862  -3.0015  -2.9855  -2.9712  -2.9214
    -1.7387  -1.6922  -1.6177  -1.6080  -1.4004  -1.3122  -1.2356  -1.1033
    -0.9848  -0.9541  -0.9300  -0.8772   0.2393   0.2905   0.2955   0.3749
     1.4046   1.4236   1.4580   1.5108   3.9150   4.1126   4.1241   4.3195
     4.7494   4.8046   4.8081   4.9088   4.9570   5.0996

          k = 0.2500 0.5052 0.0000 ( 35193 PWs)   bands (ev):

   -58.8565 -58.8409 -58.8082 -58.7587 -33.1655 -33.1516 -33.1172 -33.0692
   -33.0376 -33.0235 -32.9893 -32.9883 -32.9723 -32.9411 -32.9406 -32.8908
   -10.1046 -10.0712 -10.0565 -10.0157  -9.9913  -9.9830  -9.9559  -9.9033
    -3.3089  -3.2779  -3.2777  -3.2212  -3.1569  -3.0873  -3.0794  -2.9996
    -1.8926  -1.7720  -1.7646  -1.7068  -1.3441  -1.2781  -1.2143  -1.2058
    -1.1562  -1.1493  -1.0570  -0.9875  -0.0380   0.0234   0.0298   0.1139
     1.6453   1.6637   1.6969   1.7489   3.9121   3.9702   3.9924   4.0715
     4.8937   4.9645   4.9868   5.0412   5.1773   5.2523

          k = 0.2500 0.5774 0.0000 ( 35190 PWs)   bands (ev):

   -58.8554 -58.8398 -58.8071 -58.7576 -33.1654 -33.1514 -33.1171 -33.0691
   -33.0509 -33.0367 -33.0026 -32.9861 -32.9701 -32.9544 -32.9384 -32.8886
   -10.0296 -10.0029  -9.9878  -9.9713  -9.9517  -9.9416  -9.9203  -9.8756
    -3.4084  -3.3819  -3.3785  -3.3207  -3.0724  -3.0218  -3.0173  -2.9495
    -2.0473  -1.9351  -1.9214  -1.8338  -1.3815  -1.2759  -1.2451  -1.1799
    -1.1037  -1.0622  -1.0102  -0.9540  -0.1579  -0.1123  -0.0985  -0.0227
     1.7719   1.7939   1.8256   1.8808   3.8398   3.8557   3.8850   3.9345
     4.9200   4.9821   5.0243   5.0468   5.3351   5.3769

          k = 0.3125 0.5413 0.0000 ( 35172 PWs)   bands (ev):

   -58.8548 -58.8392 -58.8065 -58.7570 -33.1443 -33.1303 -33.0960 -33.0793
   -33.0651 -33.0480 -33.0310 -32.9850 -32.9828 -32.9689 -32.9372 -32.8874
    -9.9931  -9.9693  -9.9562  -9.9462  -9.9317  -9.9178  -9.8945  -9.8566
    -3.4762  -3.4534  -3.4460  -3.3891  -2.8485  -2.7835  -2.7800  -2.7056
    -2.0391  -2.0274  -1.9959  -1.9612  -1.5588  -1.5299  -1.5290  -1.5009
    -1.0538  -0.9887  -0.9661  -0.8968  -0.2460  -0.1908  -0.1730  -0.0929
     1.8539   1.8723   1.9042   1.9562   3.7238   3.7384   3.7702   3.8189
     4.8570   4.8880   4.9470   4.9568   5.4307   5.5011

     the Fermi energy is     2.9670 ev

!    total energy              =   -1978.35911122 Ry
     total all-electron energy =    -38771.679956 Ry
     estimated scf accuracy    <          4.6E-09 Ry
     smearing contrib. (-TS)   =       0.00003349 Ry
     internal energy E=F+TS    =   -1978.35914471 Ry

     The total energy is F=E-TS. E is the sum of the following terms:
     one-electron contribution =  -14496.07361718 Ry
     hartree contribution      =    7269.62930315 Ry
     xc contribution           =    -119.22514668 Ry
     ewald contribution        =    6637.16294634 Ry
     one-center paw contrib.   =   -1269.85263034 Ry

     convergence has been achieved in  62 iterations

     Writing all to output data dir ./tmp/cleave2/cleave_dz014_dz2p8/mos2_cleave.save/ :
     XML data file, charge density, pseudopotentials, collected wavefunctions

     init_run     :    122.73s CPU    124.83s WALL (       1 calls)
     electrons    :  12545.87s CPU  12755.26s WALL (       1 calls)

     Called by init_run:
     wfcinit      :     75.73s CPU     76.39s WALL (       1 calls)
     potinit      :     43.44s CPU     43.86s WALL (       1 calls)
     hinit0       :      0.35s CPU      0.37s WALL (       1 calls)

     Called by electrons:
     c_bands      :  10424.40s CPU  10486.45s WALL (      63 calls)
     sum_band     :   1617.02s CPU   1685.26s WALL (      63 calls)
     v_of_rho     :    244.57s CPU    265.14s WALL (      63 calls)
     newd         :    192.78s CPU    251.35s WALL (      63 calls)
     PAW_pot      :     25.56s CPU     25.57s WALL (      63 calls)
     mix_rho      :     85.50s CPU     86.81s WALL (      63 calls)
     vdW_kernel   :     39.79s CPU     39.79s WALL (       1 calls)

     Called by c_bands:
     init_us_2    :     47.64s CPU     47.69s WALL (    3810 calls)
     init_us_2:cp :     47.63s CPU     47.69s WALL (    3810 calls)
     cegterg      :   9963.05s CPU  10024.60s WALL (    1890 calls)

     Called by *egterg:
     cdiaghg      :     15.41s CPU     15.42s WALL (    6360 calls)
     h_psi        :   5285.88s CPU   5309.41s WALL (    6420 calls)
     s_psi        :   1547.04s CPU   1547.48s WALL (    6420 calls)
     g_psi        :     22.43s CPU     22.45s WALL (    4500 calls)

     Called by h_psi:
     h_psi:calbec :   2011.72s CPU   2012.20s WALL (    6420 calls)
     vloc_psi     :   1714.83s CPU   1715.98s WALL (    6420 calls)
     add_vuspsi   :   1548.37s CPU   1548.75s WALL (    6420 calls)

     General routines
     calbec       :   2941.64s CPU   2942.40s WALL (    8310 calls)
     fft          :     78.41s CPU     78.44s WALL (    3968 calls)
     ffts         :     42.05s CPU     42.07s WALL (    7629 calls)
     fftw         :   1556.23s CPU   1557.05s WALL (  624638 calls)
     interpolate  :      1.85s CPU      1.85s WALL (      63 calls)

     Parallel routines

     PWSCF        :      3h31m CPU      3h34m WALL


   This run was terminated on:   0:39:21  12Jun2026            

=------------------------------------------------------------------------------=
   JOB DONE.
=------------------------------------------------------------------------------=
Note: The following floating-point exceptions are signalling: IEEE_UNDERFLOW_FLAG IEEE_DENORMAL
