Authorization required, but no authorization protocol specified

Authorization required, but no authorization protocol specified

Authorization required, but no authorization protocol specified

Authorization required, but no authorization protocol specified

Authorization required, but no authorization protocol specified

Authorization required, but no authorization protocol specified

Authorization required, but no authorization protocol specified

Authorization required, but no authorization protocol specified


     Program PWSCF v.7.3 starts on 13Jun2026 at 20:33:40 

     This program is part of the open-source Quantum ESPRESSO suite
     for quantum simulation of materials; please cite
         "P. Giannozzi et al., J. Phys.:Condens. Matter 21 395502 (2009);
         "P. Giannozzi et al., J. Phys.:Condens. Matter 29 465901 (2017);
         "P. Giannozzi et al., J. Chem. Phys. 152 154105 (2020);
          URL http://www.quantum-espresso.org", 
     in publications or presentations arising from this work. More details at
     http://www.quantum-espresso.org/quote

     Parallel version (MPI), running on     1 processors

     MPI processes distributed on     1 nodes
     6707 MiB available memory on the printing compute node when the environment starts

     Waiting for input...
     Reading input from standard input

     Current dimensions of program PWSCF are:
     Max number of different atomic species (ntypx) = 10
     Max number of k-points (npk) =  40000
     Max angular momentum in pseudopotentials (lmaxx) =  4
     file Mo.pbe-spn-kjpaw_psl.1.0.0.UPF: wavefunction(s)  4S 4D renormalized
     file S.pbe-n-kjpaw_psl.1.0.0.UPF: wavefunction(s)  3S 3P renormalized

     IMPORTANT: XC functional enforced from input :
     Exchange-correlation= VDW-DF2-B86R
                           (   1   4  26   0   2   0   0)
     Any further DFT definition will be discarded
     Please, verify this is what you really want


     Subspace diagonalization in iterative solution of the eigenvalue problem:
     a serial algorithm will be used


     G-vector sticks info
     --------------------
     sticks:   dense  smooth     PW     G-vecs:    dense   smooth      PW
     Sum        1573     769    223               797393   281171   43435

     Using Slab Decomposition



     bravais-lattice index     =            4
     lattice parameter (alat)  =       5.9715  a.u.
     unit-cell volume          =    2917.9067 (a.u.)^3
     number of atoms/cell      =           12
     number of atomic types    =            2
     number of electrons       =       104.00
     number of Kohn-Sham states=           62
     kinetic-energy cutoff     =      80.0000  Ry
     charge density cutoff     =     640.0000  Ry
     scf convergence threshold =      1.0E-08
     mixing beta               =       0.2000
     number of iterations used =            8  local-TF  mixing
     Exchange-correlation= VDW-DF2-B86R
                           (   1   4  26   0   2   0   0)

     celldm(1)=   5.971535  celldm(2)=   0.000000  celldm(3)=  15.822785
     celldm(4)=   0.000000  celldm(5)=   0.000000  celldm(6)=   0.000000

     crystal axes: (cart. coord. in units of alat)
               a(1) = (   1.000000   0.000000   0.000000 )  
               a(2) = (  -0.500000   0.866025   0.000000 )  
               a(3) = (   0.000000   0.000000  15.822785 )  

     reciprocal axes: (cart. coord. in units 2 pi/alat)
               b(1) = (  1.000000  0.577350 -0.000000 )  
               b(2) = (  0.000000  1.154701  0.000000 )  
               b(3) = (  0.000000 -0.000000  0.063200 )  


     PseudoPot. # 1 for Mo read from file:
     ./pseudo/Mo.pbe-spn-kjpaw_psl.1.0.0.UPF
     MD5 check sum: 4396e0c640fcce5c25f020efccf1ab12
     Pseudo is Projector augmented-wave + core cor, Zval = 14.0
     Generated using &quot;atomic&quot; code by A. Dal Corso  v.6.3
     Shape of augmentation charge: PSQ
     Using radial grid of 1229 points,  6 beta functions with: 
                l(1) =   0
                l(2) =   0
                l(3) =   1
                l(4) =   1
                l(5) =   2
                l(6) =   2
     Q(r) pseudized with 0 coefficients 


     PseudoPot. # 2 for S  read from file:
     ./pseudo/S.pbe-n-kjpaw_psl.1.0.0.UPF
     MD5 check sum: fb45dfebcf3e72a4e1bd4a866ec2e262
     Pseudo is Projector augmented-wave + core cor, Zval =  6.0
     Generated using &quot;atomic&quot; code by A. Dal Corso  v.6.3
     Shape of augmentation charge: PSQ
     Using radial grid of 1151 points,  6 beta functions with: 
                l(1) =   0
                l(2) =   0
                l(3) =   1
                l(4) =   1
                l(5) =   2
                l(6) =   2
     Q(r) pseudized with 0 coefficients 


     atomic species   valence    mass     pseudopotential
     Mo               14.00    95.96000     Mo( 1.00)
     S                 6.00    32.06000     S ( 1.00)

      6 Sym. Ops. (no inversion) found



   Cartesian axes

     site n.     atom                  positions (alat units)
         1        S      tau(   1) = (  -0.0000005   0.5773503  -0.9967195  )
         2        Mo     tau(   2) = (   0.0000000   0.0000000  -0.4993332  )
         3        S      tau(   3) = (  -0.0000005   0.5773503  -0.0017175  )
         4        S      tau(   4) = (   0.5000003   0.2886747   0.9835827  )
         5        Mo     tau(   5) = (  -0.0000005   0.5773503   1.4818950  )
         6        S      tau(   6) = (   0.5000003   0.2886747   1.9798512  )
         7        S      tau(   7) = (   0.0000000   0.0000000   2.9586848  )
         8        Mo     tau(   8) = (   0.5000003   0.2886747   3.4569999  )
         9        S      tau(   9) = (   0.0000000   0.0000000   3.9548385  )
        10        S      tau(  10) = (  -0.0000005   0.5773503   7.1359515  )
        11        Mo     tau(  11) = (   0.0000000   0.0000000   7.6335881  )
        12        S      tau(  12) = (  -0.0000005   0.5773503   8.1307222  )

     number of k points=    30  Methfessel-Paxton smearing, width (Ry)=  0.0200
                       cart. coord. in units 2pi/alat
        k(    1) = (   0.0000000   0.0000000   0.0000000), wk =   0.0078125
        k(    2) = (   0.0000000   0.0721688   0.0000000), wk =   0.0468750
        k(    3) = (   0.0000000   0.1443376   0.0000000), wk =   0.0468750
        k(    4) = (   0.0000000   0.2165064   0.0000000), wk =   0.0468750
        k(    5) = (   0.0000000   0.2886751   0.0000000), wk =   0.0468750
        k(    6) = (   0.0000000   0.3608439   0.0000000), wk =   0.0468750
        k(    7) = (   0.0000000   0.4330127   0.0000000), wk =   0.0468750
        k(    8) = (   0.0000000   0.5051815   0.0000000), wk =   0.0468750
        k(    9) = (   0.0000000  -0.5773503   0.0000000), wk =   0.0234375
        k(   10) = (   0.0625000   0.1082532   0.0000000), wk =   0.0468750
        k(   11) = (   0.0625000   0.1804220   0.0000000), wk =   0.0937500
        k(   12) = (   0.0625000   0.2525907   0.0000000), wk =   0.0937500
        k(   13) = (   0.0625000   0.3247595   0.0000000), wk =   0.0937500
        k(   14) = (   0.0625000   0.3969283   0.0000000), wk =   0.0937500
        k(   15) = (   0.0625000   0.4690971   0.0000000), wk =   0.0937500
        k(   16) = (   0.0625000   0.5412659   0.0000000), wk =   0.0937500
        k(   17) = (   0.1250000   0.2165064   0.0000000), wk =   0.0468750
        k(   18) = (   0.1250000   0.2886751   0.0000000), wk =   0.0937500
        k(   19) = (   0.1250000   0.3608439   0.0000000), wk =   0.0937500
        k(   20) = (   0.1250000   0.4330127   0.0000000), wk =   0.0937500
        k(   21) = (   0.1250000   0.5051815   0.0000000), wk =   0.0937500
        k(   22) = (   0.1250000   0.5773503   0.0000000), wk =   0.0468750
        k(   23) = (   0.1875000   0.3247595   0.0000000), wk =   0.0468750
        k(   24) = (   0.1875000   0.3969283   0.0000000), wk =   0.0937500
        k(   25) = (   0.1875000   0.4690971   0.0000000), wk =   0.0937500
        k(   26) = (   0.1875000   0.5412659   0.0000000), wk =   0.0937500
        k(   27) = (   0.2500000   0.4330127   0.0000000), wk =   0.0468750
        k(   28) = (   0.2500000   0.5051815   0.0000000), wk =   0.0937500
        k(   29) = (   0.2500000   0.5773503   0.0000000), wk =   0.0468750
        k(   30) = (   0.3125000   0.5412659   0.0000000), wk =   0.0468750

     Dense  grid:   797393 G-vectors     FFT dimensions: (  50,  50, 768)

     Smooth grid:   281171 G-vectors     FFT dimensions: (  36,  36, 540)

     Estimated max dynamical RAM per process >       3.90 GB

     Initial potential from superposition of free atoms

     starting charge     103.9962, renormalised to     104.0000

     negative rho (up, down):  1.207E-04 0.000E+00


     %%%%%%%%%%%%%%%%%%%%%%%%%%%%%%%%%%%%%%%%%%%%%%%%%%%%%%%%%%%%%%%%%%%%%%%%
     %                                                                      %
     % You are using vdW-DF, which was implemented by the Thonhauser group. %
     % Please cite the following two papers that made this development      %
     % possible and the two reviews that describe the various versions:     %
     %                                                                      %
     %   T. Thonhauser et al., PRL 115, 136402 (2015).                      %
     %   T. Thonhauser et al., PRB 76, 125112 (2007).                       %
     %   K. Berland et al., Rep. Prog. Phys. 78, 066501 (2015).             %
     %   D.C. Langreth et al., J. Phys.: Condens. Matter 21, 084203 (2009). %
     %                                                                      %
     % If you are calculating stress with vdW-DF, please also cite:         %
     %                                                                      %
     %   R. Sabatini et al., J. Phys.: Condens. Matter 24, 424209 (2012).   %
     %                                                                      %
     %%%%%%%%%%%%%%%%%%%%%%%%%%%%%%%%%%%%%%%%%%%%%%%%%%%%%%%%%%%%%%%%%%%%%%%%

     %%%%%%%%%%%%%%%%%%%%%%%%%%%%%%%%%%%%%%%%%%%%%%%%%%%%%%%%%%%%%%%%%%%%%%%%
     %                                                                      %
     %  vdW-DF NEWS:                                                        %
     %                                                                      %
     %  * vdW-DF3 is now available. DOI: 10.1021/acs.jctc.0c00471           %
     %    use with input_dft = 'vdW-DF3-opt1' or 'vdW-DF3-opt2'             %
     %                                                                      %
     %  * Unscreened and range-separated hybrid vdW-DF-cx functionals       %
     %    DOI: 10.1063/1.4986522 and 10.1088/1361-648X/ac2ad2               %
     %    use with input_dft = 'vdW-DF-cx0'    and 'vdW-DF-ahcx'            %
     %  * Unscreened and range-separated hybrid vdW-DF2-b86r functionals    %
     %    DOI: 10.1063/1.4986522 and DOI: 10.1103/PhysRevX.12.041003        %
     %    use with input_dft = 'vdW-DF2-br0' and 'vdW-DF2-ahbr'             %
     %                                                                      %
     %%%%%%%%%%%%%%%%%%%%%%%%%%%%%%%%%%%%%%%%%%%%%%%%%%%%%%%%%%%%%%%%%%%%%%%%


     Starting wfcs are   72 randomized atomic wfcs
     Checking if some PAW data can be deallocated... 

     total cpu time spent up to now is      123.6 secs

     Self-consistent Calculation

     iteration #  1     ecut=    80.00 Ry     beta= 0.20
     Davidson diagonalization with overlap
     ethr =  1.00E-02,  avg # of iterations =  2.3

     Threshold (ethr) on eigenvalues was too large:
     Diagonalizing with lowered threshold

     Davidson diagonalization with overlap
     ethr =  2.87E-04,  avg # of iterations =  3.7

     negative rho (up, down):  4.990E-06 0.000E+00

     total cpu time spent up to now is      600.5 secs

     total energy              =   -1978.45321694 Ry
     estimated scf accuracy    <       0.44896860 Ry

     iteration #  2     ecut=    80.00 Ry     beta= 0.20
     Davidson diagonalization with overlap
     ethr =  4.32E-04,  avg # of iterations =  1.0

     negative rho (up, down):  1.178E-07 0.000E+00

     total cpu time spent up to now is      780.2 secs

     total energy              =   -1978.27467885 Ry
     estimated scf accuracy    <       0.37066848 Ry

     iteration #  3     ecut=    80.00 Ry     beta= 0.20
     Davidson diagonalization with overlap
     ethr =  3.56E-04,  avg # of iterations =  2.0

     total cpu time spent up to now is     1017.5 secs

     total energy              =   -1978.35429364 Ry
     estimated scf accuracy    <       0.04898052 Ry

     iteration #  4     ecut=    80.00 Ry     beta= 0.20
     Davidson diagonalization with overlap
     ethr =  4.71E-05,  avg # of iterations =  2.2

     total cpu time spent up to now is     1248.1 secs

     total energy              =   -1978.35721239 Ry
     estimated scf accuracy    <       0.02087721 Ry

     iteration #  5     ecut=    80.00 Ry     beta= 0.20
     Davidson diagonalization with overlap
     ethr =  2.01E-05,  avg # of iterations =  3.1

     total cpu time spent up to now is     1457.7 secs

     total energy              =   -1978.35874944 Ry
     estimated scf accuracy    <       0.00575281 Ry

     iteration #  6     ecut=    80.00 Ry     beta= 0.20
     Davidson diagonalization with overlap
     c_bands:  1 eigenvalues not converged
     ethr =  5.53E-06,  avg # of iterations =  5.1

     negative rho (up, down):  6.544E-08 0.000E+00

     total cpu time spent up to now is     1664.8 secs

     total energy              =   -1978.35715756 Ry
     estimated scf accuracy    <       0.00508987 Ry

     iteration #  7     ecut=    80.00 Ry     beta= 0.20
     Davidson diagonalization with overlap
     c_bands:  1 eigenvalues not converged
     c_bands:  1 eigenvalues not converged
     ethr =  4.89E-06,  avg # of iterations =  6.4

     negative rho (up, down):  1.314E-08 0.000E+00

     total cpu time spent up to now is     1940.1 secs

     total energy              =   -1978.35668028 Ry
     estimated scf accuracy    <       0.01548354 Ry

     iteration #  8     ecut=    80.00 Ry     beta= 0.20
     Davidson diagonalization with overlap
     ethr =  4.89E-06,  avg # of iterations =  3.0

     negative rho (up, down):  3.672E-07 0.000E+00

     total cpu time spent up to now is     2152.1 secs

     total energy              =   -1978.35629438 Ry
     estimated scf accuracy    <       0.00420292 Ry

     iteration #  9     ecut=    80.00 Ry     beta= 0.20
     Davidson diagonalization with overlap
     ethr =  4.04E-06,  avg # of iterations =  4.3

     negative rho (up, down):  6.605E-04 0.000E+00

     total cpu time spent up to now is     2395.6 secs

     total energy              =   -1978.35711448 Ry
     estimated scf accuracy    <       0.00580863 Ry

     iteration # 10     ecut=    80.00 Ry     beta= 0.20
     Davidson diagonalization with overlap
     ethr =  4.04E-06,  avg # of iterations =  1.9

     negative rho (up, down):  2.771E-03 0.000E+00

     total cpu time spent up to now is     2591.6 secs

     total energy              =   -1978.35675780 Ry
     estimated scf accuracy    <       0.00326060 Ry

     iteration # 11     ecut=    80.00 Ry     beta= 0.20
     Davidson diagonalization with overlap
     ethr =  3.14E-06,  avg # of iterations =  3.0

     negative rho (up, down):  2.513E-03 0.000E+00

     total cpu time spent up to now is     2797.2 secs

     total energy              =   -1978.35707796 Ry
     estimated scf accuracy    <       0.00053756 Ry

     iteration # 12     ecut=    80.00 Ry     beta= 0.20
     Davidson diagonalization with overlap
     ethr =  5.17E-07,  avg # of iterations =  6.1

     negative rho (up, down):  2.415E-03 0.000E+00

     total cpu time spent up to now is     3028.1 secs

     total energy              =   -1978.35714905 Ry
     estimated scf accuracy    <       0.00047367 Ry

     iteration # 13     ecut=    80.00 Ry     beta= 0.20
     Davidson diagonalization with overlap
     ethr =  4.55E-07,  avg # of iterations =  2.0

     negative rho (up, down):  5.641E-03 0.000E+00

     total cpu time spent up to now is     3226.7 secs

     total energy              =   -1978.35710712 Ry
     estimated scf accuracy    <       0.00041686 Ry

     iteration # 14     ecut=    80.00 Ry     beta= 0.20
     Davidson diagonalization with overlap
     ethr =  4.01E-07,  avg # of iterations =  3.3

     negative rho (up, down):  4.502E-03 0.000E+00

     total cpu time spent up to now is     3428.9 secs

     total energy              =   -1978.35710437 Ry
     estimated scf accuracy    <       0.00050652 Ry

     iteration # 15     ecut=    80.00 Ry     beta= 0.20
     Davidson diagonalization with overlap
     ethr =  4.01E-07,  avg # of iterations =  3.0

     negative rho (up, down):  3.512E-03 0.000E+00

     total cpu time spent up to now is     3631.4 secs

     total energy              =   -1978.35707299 Ry
     estimated scf accuracy    <       0.00023935 Ry

     iteration # 16     ecut=    80.00 Ry     beta= 0.20
     Davidson diagonalization with overlap
     ethr =  2.30E-07,  avg # of iterations =  3.2

     negative rho (up, down):  2.463E-03 0.000E+00

     total cpu time spent up to now is     3845.2 secs

     total energy              =   -1978.35711079 Ry
     estimated scf accuracy    <       0.00010372 Ry

     iteration # 17     ecut=    80.00 Ry     beta= 0.20
     Davidson diagonalization with overlap
     ethr =  9.97E-08,  avg # of iterations =  1.9

     negative rho (up, down):  1.059E-03 0.000E+00

     total cpu time spent up to now is     4040.1 secs

     total energy              =   -1978.35711323 Ry
     estimated scf accuracy    <       0.00008341 Ry

     iteration # 18     ecut=    80.00 Ry     beta= 0.20
     Davidson diagonalization with overlap
     c_bands:  1 eigenvalues not converged
     ethr =  8.02E-08,  avg # of iterations =  2.7

     negative rho (up, down):  1.161E-03 0.000E+00

     total cpu time spent up to now is     4243.7 secs

     total energy              =   -1978.35711657 Ry
     estimated scf accuracy    <       0.00004414 Ry

     iteration # 19     ecut=    80.00 Ry     beta= 0.20
     Davidson diagonalization with overlap
     ethr =  4.24E-08,  avg # of iterations =  1.7

     negative rho (up, down):  8.571E-04 0.000E+00

     total cpu time spent up to now is     4432.1 secs

     total energy              =   -1978.35712052 Ry
     estimated scf accuracy    <       0.00003153 Ry

     iteration # 20     ecut=    80.00 Ry     beta= 0.20
     Davidson diagonalization with overlap
     ethr =  3.03E-08,  avg # of iterations =  1.2

     negative rho (up, down):  7.938E-04 0.000E+00

     total cpu time spent up to now is     4615.1 secs

     total energy              =   -1978.35711955 Ry
     estimated scf accuracy    <       0.00002632 Ry

     iteration # 21     ecut=    80.00 Ry     beta= 0.20
     Davidson diagonalization with overlap
     ethr =  2.53E-08,  avg # of iterations =  1.4

     negative rho (up, down):  3.341E-04 0.000E+00

     total cpu time spent up to now is     4802.8 secs

     total energy              =   -1978.35712546 Ry
     estimated scf accuracy    <       0.00002198 Ry

     iteration # 22     ecut=    80.00 Ry     beta= 0.20
     Davidson diagonalization with overlap
     ethr =  2.11E-08,  avg # of iterations =  1.6

     negative rho (up, down):  3.549E-04 0.000E+00

     total cpu time spent up to now is     4994.0 secs

     total energy              =   -1978.35712733 Ry
     estimated scf accuracy    <       0.00001895 Ry

     iteration # 23     ecut=    80.00 Ry     beta= 0.20
     Davidson diagonalization with overlap
     ethr =  1.82E-08,  avg # of iterations =  1.0

     negative rho (up, down):  3.587E-04 0.000E+00

     total cpu time spent up to now is     5173.7 secs

     total energy              =   -1978.35712622 Ry
     estimated scf accuracy    <       0.00001865 Ry

     iteration # 24     ecut=    80.00 Ry     beta= 0.20
     Davidson diagonalization with overlap
     ethr =  1.79E-08,  avg # of iterations =  1.0

     negative rho (up, down):  3.863E-04 0.000E+00

     total cpu time spent up to now is     5357.1 secs

     total energy              =   -1978.35712629 Ry
     estimated scf accuracy    <       0.00001847 Ry

     iteration # 25     ecut=    80.00 Ry     beta= 0.20
     Davidson diagonalization with overlap
     ethr =  1.78E-08,  avg # of iterations =  1.0

     negative rho (up, down):  3.407E-04 0.000E+00

     total cpu time spent up to now is     5536.7 secs

     total energy              =   -1978.35712657 Ry
     estimated scf accuracy    <       0.00001850 Ry

     iteration # 26     ecut=    80.00 Ry     beta= 0.20
     Davidson diagonalization with overlap
     ethr =  1.78E-08,  avg # of iterations =  1.2

     negative rho (up, down):  1.693E-04 0.000E+00

     total cpu time spent up to now is     5721.2 secs

     total energy              =   -1978.35712204 Ry
     estimated scf accuracy    <       0.00001787 Ry

     iteration # 27     ecut=    80.00 Ry     beta= 0.20
     Davidson diagonalization with overlap
     ethr =  1.72E-08,  avg # of iterations =  1.5

     negative rho (up, down):  1.978E-04 0.000E+00

     total cpu time spent up to now is     5911.5 secs

     total energy              =   -1978.35712197 Ry
     estimated scf accuracy    <       0.00001549 Ry

     iteration # 28     ecut=    80.00 Ry     beta= 0.20
     Davidson diagonalization with overlap
     ethr =  1.49E-08,  avg # of iterations =  1.2

     negative rho (up, down):  1.584E-04 0.000E+00

     total cpu time spent up to now is     6095.0 secs

     total energy              =   -1978.35712300 Ry
     estimated scf accuracy    <       0.00001488 Ry

     iteration # 29     ecut=    80.00 Ry     beta= 0.20
     Davidson diagonalization with overlap
     ethr =  1.43E-08,  avg # of iterations =  1.0

     negative rho (up, down):  1.149E-04 0.000E+00

     total cpu time spent up to now is     6276.0 secs

     total energy              =   -1978.35712482 Ry
     estimated scf accuracy    <       0.00001443 Ry

     iteration # 30     ecut=    80.00 Ry     beta= 0.20
     Davidson diagonalization with overlap
     ethr =  1.39E-08,  avg # of iterations =  1.2

     negative rho (up, down):  3.236E-04 0.000E+00

     total cpu time spent up to now is     6458.9 secs

     total energy              =   -1978.35711767 Ry
     estimated scf accuracy    <       0.00001409 Ry

     iteration # 31     ecut=    80.00 Ry     beta= 0.20
     Davidson diagonalization with overlap
     ethr =  1.35E-08,  avg # of iterations =  1.3

     negative rho (up, down):  2.724E-04 0.000E+00

     total cpu time spent up to now is     6644.5 secs

     total energy              =   -1978.35711739 Ry
     estimated scf accuracy    <       0.00001370 Ry

     iteration # 32     ecut=    80.00 Ry     beta= 0.20
     Davidson diagonalization with overlap
     ethr =  1.32E-08,  avg # of iterations =  1.0

     negative rho (up, down):  3.772E-04 0.000E+00

     total cpu time spent up to now is     6825.7 secs

     total energy              =   -1978.35711654 Ry
     estimated scf accuracy    <       0.00001275 Ry

     iteration # 33     ecut=    80.00 Ry     beta= 0.20
     Davidson diagonalization with overlap
     ethr =  1.23E-08,  avg # of iterations =  1.0

     negative rho (up, down):  6.288E-04 0.000E+00

     total cpu time spent up to now is     7005.9 secs

     total energy              =   -1978.35711636 Ry
     estimated scf accuracy    <       0.00001179 Ry

     iteration # 34     ecut=    80.00 Ry     beta= 0.20
     Davidson diagonalization with overlap
     ethr =  1.13E-08,  avg # of iterations =  2.1

     negative rho (up, down):  2.488E-04 0.000E+00

     total cpu time spent up to now is     7208.0 secs

     total energy              =   -1978.35711569 Ry
     estimated scf accuracy    <       0.00001352 Ry

     iteration # 35     ecut=    80.00 Ry     beta= 0.20
     Davidson diagonalization with overlap
     ethr =  1.13E-08,  avg # of iterations =  2.1

     negative rho (up, down):  1.970E-04 0.000E+00

     total cpu time spent up to now is     7409.6 secs

     total energy              =   -1978.35711867 Ry
     estimated scf accuracy    <       0.00000822 Ry

     iteration # 36     ecut=    80.00 Ry     beta= 0.20
     Davidson diagonalization with overlap
     ethr =  7.90E-09,  avg # of iterations =  1.2

     negative rho (up, down):  2.296E-04 0.000E+00

     total cpu time spent up to now is     7592.2 secs

     total energy              =   -1978.35712159 Ry
     estimated scf accuracy    <       0.00000781 Ry

     iteration # 37     ecut=    80.00 Ry     beta= 0.20
     Davidson diagonalization with overlap
     ethr =  7.51E-09,  avg # of iterations =  2.3

     negative rho (up, down):  2.501E-04 0.000E+00

     total cpu time spent up to now is     7792.6 secs

     total energy              =   -1978.35711756 Ry
     estimated scf accuracy    <       0.00000770 Ry

     iteration # 38     ecut=    80.00 Ry     beta= 0.20
     Davidson diagonalization with overlap
     ethr =  7.41E-09,  avg # of iterations =  1.3

     negative rho (up, down):  2.389E-04 0.000E+00

     total cpu time spent up to now is     7979.7 secs

     total energy              =   -1978.35711750 Ry
     estimated scf accuracy    <       0.00000660 Ry

     iteration # 39     ecut=    80.00 Ry     beta= 0.20
     Davidson diagonalization with overlap
     ethr =  6.34E-09,  avg # of iterations =  1.0

     negative rho (up, down):  2.184E-04 0.000E+00

     total cpu time spent up to now is     8159.6 secs

     total energy              =   -1978.35711827 Ry
     estimated scf accuracy    <       0.00000645 Ry

     iteration # 40     ecut=    80.00 Ry     beta= 0.20
     Davidson diagonalization with overlap
     ethr =  6.20E-09,  avg # of iterations =  1.0

     negative rho (up, down):  2.104E-04 0.000E+00

     total cpu time spent up to now is     8339.2 secs

     total energy              =   -1978.35711802 Ry
     estimated scf accuracy    <       0.00000638 Ry

     iteration # 41     ecut=    80.00 Ry     beta= 0.20
     Davidson diagonalization with overlap
     ethr =  6.14E-09,  avg # of iterations =  1.0

     negative rho (up, down):  2.404E-04 0.000E+00

     total cpu time spent up to now is     8520.4 secs

     total energy              =   -1978.35711772 Ry
     estimated scf accuracy    <       0.00000629 Ry

     iteration # 42     ecut=    80.00 Ry     beta= 0.20
     Davidson diagonalization with overlap
     ethr =  6.05E-09,  avg # of iterations =  1.1

     negative rho (up, down):  2.891E-04 0.000E+00

     total cpu time spent up to now is     8701.6 secs

     total energy              =   -1978.35711665 Ry
     estimated scf accuracy    <       0.00000612 Ry

     iteration # 43     ecut=    80.00 Ry     beta= 0.20
     Davidson diagonalization with overlap
     ethr =  5.88E-09,  avg # of iterations =  1.0

     negative rho (up, down):  3.758E-04 0.000E+00

     total cpu time spent up to now is     8880.9 secs

     total energy              =   -1978.35711774 Ry
     estimated scf accuracy    <       0.00000589 Ry

     iteration # 44     ecut=    80.00 Ry     beta= 0.20
     Davidson diagonalization with overlap
     ethr =  5.66E-09,  avg # of iterations =  1.2

     negative rho (up, down):  4.277E-04 0.000E+00

     total cpu time spent up to now is     9065.3 secs

     total energy              =   -1978.35711209 Ry
     estimated scf accuracy    <       0.00000588 Ry

     iteration # 45     ecut=    80.00 Ry     beta= 0.20
     Davidson diagonalization with overlap
     ethr =  5.65E-09,  avg # of iterations =  1.4

     negative rho (up, down):  4.571E-04 0.000E+00

     total cpu time spent up to now is     9252.6 secs

     total energy              =   -1978.35711034 Ry
     estimated scf accuracy    <       0.00000488 Ry

     iteration # 46     ecut=    80.00 Ry     beta= 0.20
     Davidson diagonalization with overlap
     ethr =  4.70E-09,  avg # of iterations =  1.1

     negative rho (up, down):  4.587E-04 0.000E+00

     total cpu time spent up to now is     9434.7 secs

     total energy              =   -1978.35711060 Ry
     estimated scf accuracy    <       0.00000479 Ry

     iteration # 47     ecut=    80.00 Ry     beta= 0.20
     Davidson diagonalization with overlap
     ethr =  4.60E-09,  avg # of iterations =  1.0

     negative rho (up, down):  4.612E-04 0.000E+00

     total cpu time spent up to now is     9615.5 secs

     total energy              =   -1978.35711204 Ry
     estimated scf accuracy    <       0.00000448 Ry

     iteration # 48     ecut=    80.00 Ry     beta= 0.20
     Davidson diagonalization with overlap
     ethr =  4.30E-09,  avg # of iterations =  1.2

     negative rho (up, down):  4.612E-04 0.000E+00

     total cpu time spent up to now is     9800.6 secs

     total energy              =   -1978.35711443 Ry
     estimated scf accuracy    <       0.00000364 Ry

     iteration # 49     ecut=    80.00 Ry     beta= 0.20
     Davidson diagonalization with overlap
     ethr =  3.50E-09,  avg # of iterations =  1.3

     negative rho (up, down):  4.599E-04 0.000E+00

     total cpu time spent up to now is     9985.4 secs

     total energy              =   -1978.35711368 Ry
     estimated scf accuracy    <       0.00000320 Ry

     iteration # 50     ecut=    80.00 Ry     beta= 0.20
     Davidson diagonalization with overlap
     ethr =  3.07E-09,  avg # of iterations =  1.1

     negative rho (up, down):  3.737E-04 0.000E+00

     total cpu time spent up to now is    10167.6 secs

     total energy              =   -1978.35711559 Ry
     estimated scf accuracy    <       0.00000260 Ry

     iteration # 51     ecut=    80.00 Ry     beta= 0.20
     Davidson diagonalization with overlap
     ethr =  2.50E-09,  avg # of iterations =  2.1

     negative rho (up, down):  3.251E-04 0.000E+00

     total cpu time spent up to now is    10369.4 secs

     total energy              =   -1978.35711430 Ry
     estimated scf accuracy    <       0.00000143 Ry

     iteration # 52     ecut=    80.00 Ry     beta= 0.20
     Davidson diagonalization with overlap
     ethr =  1.37E-09,  avg # of iterations =  1.5

     negative rho (up, down):  3.288E-04 0.000E+00

     total cpu time spent up to now is    10557.0 secs

     total energy              =   -1978.35711190 Ry
     estimated scf accuracy    <       0.00000112 Ry

     iteration # 53     ecut=    80.00 Ry     beta= 0.20
     Davidson diagonalization with overlap
     ethr =  1.08E-09,  avg # of iterations =  1.7

     negative rho (up, down):  2.830E-04 0.000E+00

     total cpu time spent up to now is    10749.7 secs

     total energy              =   -1978.35711333 Ry
     estimated scf accuracy    <       0.00000086 Ry

     iteration # 54     ecut=    80.00 Ry     beta= 0.20
     Davidson diagonalization with overlap
     ethr =  8.22E-10,  avg # of iterations =  2.0

     negative rho (up, down):  2.599E-04 0.000E+00

     total cpu time spent up to now is    10951.5 secs

     total energy              =   -1978.35711344 Ry
     estimated scf accuracy    <       0.00000057 Ry

     iteration # 55     ecut=    80.00 Ry     beta= 0.20
     Davidson diagonalization with overlap
     ethr =  5.52E-10,  avg # of iterations =  1.3

     negative rho (up, down):  2.070E-04 0.000E+00

     total cpu time spent up to now is    11137.8 secs

     total energy              =   -1978.35711372 Ry
     estimated scf accuracy    <       0.00000044 Ry

     iteration # 56     ecut=    80.00 Ry     beta= 0.20
     Davidson diagonalization with overlap
     ethr =  4.19E-10,  avg # of iterations =  1.6

     negative rho (up, down):  1.803E-04 0.000E+00

     total cpu time spent up to now is    11329.9 secs

     total energy              =   -1978.35711288 Ry
     estimated scf accuracy    <       0.00000029 Ry

     iteration # 57     ecut=    80.00 Ry     beta= 0.20
     Davidson diagonalization with overlap
     ethr =  2.80E-10,  avg # of iterations =  2.2

     negative rho (up, down):  1.591E-04 0.000E+00

     total cpu time spent up to now is    11530.8 secs

     total energy              =   -1978.35711431 Ry
     estimated scf accuracy    <       0.00000018 Ry

     iteration # 58     ecut=    80.00 Ry     beta= 0.20
     Davidson diagonalization with overlap
     ethr =  1.70E-10,  avg # of iterations =  2.1

     negative rho (up, down):  1.533E-04 0.000E+00

     total cpu time spent up to now is    11739.5 secs

     total energy              =   -1978.35711507 Ry
     estimated scf accuracy    <       0.00000013 Ry

     iteration # 59     ecut=    80.00 Ry     beta= 0.20
     Davidson diagonalization with overlap
     ethr =  1.22E-10,  avg # of iterations =  2.1

     negative rho (up, down):  1.461E-04 0.000E+00

     total cpu time spent up to now is    11942.3 secs

     total energy              =   -1978.35711520 Ry
     estimated scf accuracy    <       0.00000006 Ry

     iteration # 60     ecut=    80.00 Ry     beta= 0.20
     Davidson diagonalization with overlap
     ethr =  5.84E-11,  avg # of iterations =  1.2

     negative rho (up, down):  1.348E-04 0.000E+00

     total cpu time spent up to now is    12126.6 secs

     total energy              =   -1978.35711481 Ry
     estimated scf accuracy    <       0.00000004 Ry

     iteration # 61     ecut=    80.00 Ry     beta= 0.20
     Davidson diagonalization with overlap
     ethr =  3.87E-11,  avg # of iterations =  2.3

     negative rho (up, down):  1.389E-04 0.000E+00

     total cpu time spent up to now is    12347.8 secs

     End of self-consistent calculation

          k = 0.0000 0.0000 0.0000 ( 35507 PWs)   bands (ev):

   -58.8983 -58.8696 -58.8503 -58.8005 -33.0723 -33.0434 -33.0249 -32.9748
   -32.8349 -32.8349 -32.8075 -32.8075 -32.7868 -32.7868 -32.7381 -32.7381
   -12.2419 -12.1445 -12.1439 -12.0462 -11.0073 -10.8578 -10.8493 -10.7151
    -4.0398  -3.7055  -3.6702  -3.3537  -0.6208  -0.6208  -0.6015  -0.6015
    -0.6014  -0.5751  -0.5751  -0.5336  -0.5336   0.0536   0.0887   0.4935
     0.4936   0.5174   0.5175   0.5391   0.5392   0.5848   0.5849   0.8229
     1.6014   1.8442   2.1335   2.4606   4.7252   4.7252   4.7767   4.7767
     4.7768   4.7768   4.8349   4.8351   4.9396   4.9545

          k = 0.0000 0.0722 0.0000 ( 35493 PWs)   bands (ev):

   -58.8968 -58.8681 -58.8487 -58.7989 -33.0693 -33.0403 -33.0218 -32.9718
   -32.8505 -32.8385 -32.8231 -32.8110 -32.8024 -32.7903 -32.7537 -32.7416
   -12.1823 -12.0851 -12.0846 -11.9871 -10.9797 -10.8329 -10.8240 -10.6920
    -3.9709  -3.6380  -3.6010  -3.2858  -0.7579  -0.7373  -0.7359  -0.7106
    -0.6676  -0.5585  -0.5390  -0.5129  -0.4711  -0.1984  -0.1978   0.1783
     0.3963   0.4208   0.4424   0.4885   0.5990   0.7071   0.7175   1.0635
     1.6031   1.8246   2.0989   2.3807   4.6504   4.6866   4.6969   4.7516
     4.7854   4.8126   4.8455   4.8645   4.8699   4.8932

          k = 0.0000 0.1443 0.0000 ( 35435 PWs)   bands (ev):

   -58.8923 -58.8636 -58.8443 -58.7945 -33.0606 -33.0317 -33.0132 -32.9631
   -32.8945 -32.8672 -32.8485 -32.8464 -32.8211 -32.8004 -32.7978 -32.7517
   -12.0083 -11.9120 -11.9117 -11.8148 -10.8992 -10.7604 -10.7504 -10.6246
    -3.7792  -3.4523  -3.4102  -3.1006  -1.1093  -1.0820  -1.0656  -1.0517
    -1.0081  -0.6577  -0.6295  -0.3794  -0.3589  -0.3369  -0.3337  -0.2910
     0.1451   0.1708   0.1919   0.2391   0.6592   0.8424   0.8797   1.2135
     1.5707   1.7349   1.9448   2.1235   4.3712   4.4278   4.4614   4.5195
     4.5567   4.5941   4.6669   4.6682   4.7216   4.7444

          k = 0.0000 0.2165 0.0000 ( 35345 PWs)   bands (ev):

   -58.8857 -58.8570 -58.8377 -58.7878 -33.0476 -33.0187 -33.0002 -32.9599
   -32.9501 -32.9326 -32.9118 -32.8635 -32.8632 -32.8361 -32.8154 -32.7667
   -11.7349 -11.6407 -11.6407 -11.5454 -10.7728 -10.6470 -10.6354 -10.5197
    -3.5194  -3.2115  -3.1628  -2.8741  -1.5461  -1.5044  -1.4993  -1.4677
    -1.3937  -1.1450  -1.0938  -0.8819  -0.1814  -0.1528  -0.1360  -0.1048
    -0.0857  -0.0839  -0.0558  -0.0145   0.5723   0.7960   0.8236   1.1317
     1.4211   1.5138   1.6229   1.7146   3.9914   4.1339   4.1811   4.4165
     4.4467   4.5289   4.5302   4.5745   4.6151   4.7650

          k = 0.0000 0.2887 0.0000 ( 35323 PWs)   bands (ev):

   -58.8778 -58.8491 -58.8298 -58.7800 -33.0362 -33.0323 -33.0090 -33.0033
   -32.9881 -32.9848 -32.9396 -32.9347 -32.8811 -32.8537 -32.8330 -32.7843
   -11.3874 -11.2979 -11.2976 -11.2059 -10.6133 -10.5048 -10.4914 -10.3888
    -3.3196  -3.0692  -3.0251  -2.8089  -1.9450  -1.8709  -1.8173  -1.8119
    -1.7097  -1.6363  -1.5368  -1.4209  -0.5095  -0.4806  -0.4610  -0.4114
     0.2185   0.2454   0.2673   0.3155   0.3569   0.5997   0.6094   0.8891
     1.1417   1.1946   1.2396   1.3050   3.8549   4.0660   4.1036   4.2586
     4.3361   4.3400   4.4152   4.4226   4.7942   4.8727

          k = 0.0000 0.3608 0.0000 ( 35299 PWs)   bands (ev):

   -58.8700 -58.8413 -58.8219 -58.7721 -33.1116 -33.0844 -33.0635 -33.0169
   -33.0151 -32.9879 -32.9695 -32.9193 -32.8987 -32.8713 -32.8505 -32.8019
   -11.0043 -10.9225 -10.9221 -10.8367 -10.4398 -10.3517 -10.3368 -10.2493
    -3.3567  -3.2025  -3.1804  -3.0599  -2.3095  -2.1865  -2.1037  -2.0202
    -1.9508  -1.9003  -1.8220  -1.7260  -0.7979  -0.7681  -0.7487  -0.6983
     0.1215   0.3620   0.3696   0.5376   0.5735   0.5922   0.6149   0.6471
     0.9213   0.9742   1.0108   1.0748   3.9691   4.1553   4.1886   4.2112
     4.2199   4.2270   4.3015   4.5080   5.1234   5.2379

          k = 0.0000 0.4330 0.0000 ( 35224 PWs)   bands (ev):

   -58.8633 -58.8346 -58.8153 -58.7654 -33.1748 -33.1477 -33.1268 -33.0784
   -33.0038 -32.9748 -32.9564 -32.9135 -32.9062 -32.8861 -32.8654 -32.8167
   -10.6404 -10.5699 -10.5698 -10.4935 -10.2782 -10.2117 -10.1965 -10.1237
    -3.5897  -3.4981  -3.4842  -3.4086  -2.6475  -2.5368  -2.4992  -2.4115
    -2.0631  -1.9514  -1.9374  -1.8074  -1.0187  -0.9882  -0.9690  -0.9181
    -0.0538   0.1736   0.1846   0.3998   0.7915   0.8404   0.8561   0.9200
     0.9410   1.0153   1.0465   1.1278   4.1497   4.1972   4.2082   4.2283
     4.2717   4.4093   4.4207   4.6480   5.4279   5.6325

          k = 0.0000 0.5052 0.0000 ( 35152 PWs)   bands (ev):

   -58.8588 -58.8301 -58.8108 -58.7609 -33.2167 -33.1897 -33.1687 -33.1203
   -32.9951 -32.9660 -32.9476 -32.9234 -32.8975 -32.8960 -32.8752 -32.8266
   -10.3681 -10.3110 -10.3103 -10.2453 -10.1600 -10.1120 -10.0983 -10.0364
    -3.8181  -3.7519  -3.7359  -3.6755  -2.8849  -2.8002  -2.7667  -2.6921
    -2.1662  -2.0494  -2.0443  -1.9200  -1.1564  -1.1255  -1.1064  -1.0553
    -0.1492   0.0661   0.0757   0.2691   0.9451   1.0063   1.0197   1.0918
     1.1294   1.2141   1.2306   1.3158   4.1984   4.2331   4.2483   4.3029
     4.5182   4.6372   4.6435   4.7829   5.6171   5.7938

          k = 0.0000-0.5774 0.0000 ( 35026 PWs)   bands (ev):

   -58.8573 -58.8285 -58.8092 -58.7594 -33.2313 -33.2044 -33.1833 -33.1350
   -32.9920 -32.9629 -32.9445 -32.9268 -32.8995 -32.8944 -32.8787 -32.8301
   -10.2645 -10.2146 -10.2131 -10.1547 -10.1155 -10.0756 -10.0637 -10.0053
    -3.9101  -3.8495  -3.8320  -3.7748  -2.9699  -2.8963  -2.8615  -2.7911
    -2.2143  -2.0982  -2.0934  -1.9723  -1.2031  -1.1721  -1.1530  -1.1018
    -0.1778   0.0321   0.0405   0.2251   0.9950   1.0611   1.0737   1.1491
     1.2456   1.3206   1.3277   1.4031   4.2269   4.2577   4.2749   4.3264
     4.6720   4.7447   4.7520   4.8297   5.6754   5.8353

          k = 0.0625 0.1083 0.0000 ( 35467 PWs)   bands (ev):

   -58.8938 -58.8651 -58.8457 -58.7959 -33.0634 -33.0345 -33.0160 -32.9659
   -32.8798 -32.8525 -32.8457 -32.8317 -32.8183 -32.7976 -32.7830 -32.7489
   -12.0655 -11.9688 -11.9685 -11.8714 -10.9256 -10.7841 -10.7745 -10.6467
    -3.8402  -3.5108  -3.4704  -3.1584  -0.9986  -0.9740  -0.9568  -0.9482
    -0.9038  -0.5175  -0.4965  -0.4397  -0.4197  -0.3940  -0.3521  -0.1722
     0.1814   0.2063   0.2271   0.2736   0.6959   0.8547   0.8898   1.2174
     1.5891   1.7701   2.0061   2.2119   4.4953   4.5216   4.5354   4.5551
     4.5600   4.6249   4.6409   4.7146   4.7379   4.8062

          k = 0.0625 0.1804 0.0000 ( 35370 PWs)   bands (ev):

   -58.8882 -58.8595 -58.8402 -58.7904 -33.0526 -33.0236 -33.0052 -32.9551
   -32.9333 -32.9060 -32.8852 -32.8594 -32.8366 -32.8320 -32.8113 -32.7626
   -11.8416 -11.7465 -11.7464 -11.6504 -10.8220 -10.6910 -10.6801 -10.5604
    -3.6103  -3.2922  -3.2455  -2.9449  -1.3827  -1.3521  -1.3394  -1.3030
    -1.2445  -0.9280  -0.8862  -0.6306  -0.2240  -0.2022  -0.1919  -0.1703
    -0.1592  -0.1467  -0.1256  -0.0918   0.7471   0.9327   0.9719   1.2575
     1.5012   1.6133   1.7671   1.8753   4.1012   4.2108   4.2481   4.4040
     4.4646   4.4876   4.5265   4.5823   4.6254   4.6884

          k = 0.0625 0.2526 0.0000 ( 35362 PWs)   bands (ev):

   -58.8810 -58.8523 -58.8330 -58.7831 -33.0385 -33.0095 -33.0025 -32.9910
   -32.9753 -32.9544 -32.9409 -32.9059 -32.8774 -32.8500 -32.8292 -32.7806
   -11.5306 -11.4388 -11.4386 -11.3453 -10.6784 -10.5626 -10.5499 -10.4418
    -3.3668  -3.0834  -3.0339  -2.7759  -1.7752  -1.7223  -1.7132  -1.6834
    -1.5739  -1.3836  -1.3160  -1.1540  -0.5621  -0.5334  -0.5106  -0.4595
     0.0441   0.0698   0.0909   0.1381   0.6448   0.8382   0.8587   1.1056
     1.2846   1.3370   1.4023   1.4646   3.8346   4.0187   4.0524   4.2561
     4.3799   4.4189   4.4407   4.4870   4.5957   4.6251

          k = 0.0625 0.3248 0.0000 ( 35310 PWs)   bands (ev):

   -58.8731 -58.8444 -58.8251 -58.7752 -33.0765 -33.0494 -33.0285 -33.0231
   -32.9941 -32.9800 -32.9756 -32.9255 -32.8967 -32.8694 -32.8486 -32.8000
   -11.1637 -11.0782 -11.0778 -10.9894 -10.5105 -10.4135 -10.3992 -10.3052
    -3.2777  -3.0781  -3.0461  -2.8859  -2.1133  -2.0196  -1.8986  -1.8709
    -1.8680  -1.8165  -1.6939  -1.6521  -0.8674  -0.8257  -0.8024  -0.7410
     0.2780   0.3129   0.3237   0.3766   0.4338   0.6165   0.6206   0.8397
     1.0517   1.0902   1.1187   1.1758   3.7948   3.9976   4.0150   4.1714
     4.3111   4.3491   4.3877   4.5053   4.8533   4.9371

          k = 0.0625 0.3969 0.0000 ( 35243 PWs)   bands (ev):

   -58.8659 -58.8371 -58.8178 -58.7680 -33.1442 -33.1171 -33.0961 -33.0477
   -33.0088 -32.9798 -32.9614 -32.9146 -32.9113 -32.8872 -32.8664 -32.8178
   -10.7870 -10.7111 -10.7108 -10.6301 -10.3406 -10.2648 -10.2494 -10.1704
    -3.4323  -3.3151  -3.2995  -3.2065  -2.4822  -2.3697  -2.3276  -2.2426
    -1.9911  -1.8893  -1.8705  -1.7388  -1.0666  -1.0196  -0.9993  -0.9369
     0.1690   0.3486   0.3682   0.4232   0.4606   0.4825   0.5072   0.5971
     1.0613   1.0955   1.1186   1.1723   3.9257   4.0870   4.0920   4.2025
     4.3550   4.4076   4.4328   4.5933   5.1898   5.3903

          k = 0.0625 0.4691 0.0000 ( 35169 PWs)   bands (ev):

   -58.8603 -58.8316 -58.8122 -58.7624 -33.1955 -33.1685 -33.1475 -33.0991
   -32.9979 -32.9689 -32.9505 -32.9282 -32.9008 -32.9003 -32.8800 -32.8314
   -10.4637 -10.4006 -10.4004 -10.3302 -10.1976 -10.1423 -10.1275 -10.0617
    -3.6700  -3.5937  -3.5790  -3.5127  -2.7986  -2.7127  -2.6842  -2.6107
    -2.0938  -1.9728  -1.9718  -1.8421  -1.1741  -1.1325  -1.1184  -1.0602
    -0.0228   0.1641   0.1726   0.3434   0.5463   0.6004   0.6097   0.6842
     1.2348   1.2762   1.2953   1.3552   4.1160   4.2023   4.2077   4.2800
     4.4911   4.5687   4.5835   4.7239   5.5012   5.6633

          k = 0.0625 0.5413 0.0000 ( 35128 PWs)   bands (ev):

   -58.8573 -58.8285 -58.8092 -58.7594 -33.2231 -33.1961 -33.1751 -33.1267
   -32.9920 -32.9629 -32.9445 -32.9355 -32.9082 -32.8944 -32.8874 -32.8388
   -10.2703 -10.2190 -10.2177 -10.1584 -10.1132 -10.0723 -10.0598 -10.0011
    -3.8301  -3.7686  -3.7509  -3.6930  -2.9771  -2.9084  -2.8792  -2.8113
    -2.1831  -2.0627  -2.0611  -1.9381  -1.2173  -1.1833  -1.1732  -1.1187
    -0.1279   0.0628   0.0680   0.2366   0.6363   0.7029   0.7076   0.7824
     1.3886   1.4415   1.4551   1.5211   4.2269   4.2610   4.2708   4.3233
     4.6667   4.7430   4.7519   4.8407   5.7230   5.8471

          k = 0.1250 0.2165 0.0000 ( 35331 PWs)   bands (ev):

   -58.8821 -58.8534 -58.8341 -58.7842 -33.0406 -33.0116 -32.9932 -32.9885
   -32.9612 -32.9431 -32.9404 -32.8918 -32.8782 -32.8509 -32.8301 -32.7814
   -11.5797 -11.4873 -11.4871 -11.3933 -10.7007 -10.5823 -10.5699 -10.4599
    -3.3860  -3.0915  -3.0407  -2.7681  -1.7034  -1.6629  -1.6613  -1.6161
    -1.4781  -1.2215  -1.1607  -0.9669  -0.7005  -0.6768  -0.6481  -0.6005
    -0.0354  -0.0100   0.0101   0.0571   0.8300   0.9955   1.0276   1.2362
     1.3515   1.3945   1.4784   1.5337   3.8223   3.9946   4.0226   4.2165
     4.3755   4.4057   4.4455   4.4582   4.4724   4.5221

          k = 0.1250 0.2887 0.0000 ( 35357 PWs)   bands (ev):

   -58.8748 -58.8461 -58.8268 -58.7770 -33.0518 -33.0264 -33.0246 -33.0037
   -32.9974 -32.9790 -32.9552 -32.9289 -32.9015 -32.8742 -32.8534 -32.8048
   -11.2476 -11.1603 -11.1599 -11.0701 -10.5472 -10.4455 -10.4315 -10.3340
    -3.2292  -2.9964  -2.9564  -2.7620  -1.9560  -1.8994  -1.8314  -1.8061
    -1.7032  -1.6253  -1.5357  -1.4705  -1.1311  -1.0709  -1.0335  -0.9225
     0.0675   0.1022   0.1148   0.1685   0.7568   0.9010   0.9109   1.0753
     1.1587   1.1763   1.1986   1.2499   3.6607   3.8718   3.8909   4.0916
     4.3705   4.4143   4.4177   4.4805   4.6055   4.6343

          k = 0.1250 0.3608 0.0000 ( 35341 PWs)   bands (ev):

   -58.8676 -58.8389 -58.8195 -58.7697 -33.1140 -33.0869 -33.0660 -33.0176
   -33.0122 -32.9832 -32.9647 -32.9252 -32.9146 -32.8979 -32.8771 -32.8285
   -10.8831 -10.8039 -10.8035 -10.7202 -10.3797 -10.2976 -10.2823 -10.1989
    -3.2765  -3.1281  -3.1089  -2.9925  -2.2822  -2.1912  -2.1477  -2.0902
    -1.8978  -1.8093  -1.8021  -1.6750  -1.3263  -1.2221  -1.1738  -1.0545
     0.0094   0.0547   0.0614   0.1206   0.5358   0.6594   0.6611   0.7980
     1.1138   1.1451   1.1605   1.2131   3.6953   3.9281   3.9380   4.1591
     4.4412   4.4784   4.4941   4.5797   4.8467   4.9344

          k = 0.1250 0.4330 0.0000 ( 35215 PWs)   bands (ev):

   -58.8614 -58.8327 -58.8134 -58.7635 -33.1662 -33.1391 -33.1181 -33.0697
   -33.0001 -32.9711 -32.9527 -32.9454 -32.9181 -32.9025 -32.8973 -32.8487
   -10.5392 -10.4715 -10.4714 -10.3974 -10.2231 -10.1617 -10.1462 -10.0766
    -3.4571  -3.3612  -3.3477  -3.2687  -2.6947  -2.6295  -2.6102  -2.5496
    -1.9691  -1.8548  -1.8365  -1.7206  -1.3563  -1.2489  -1.2165  -1.1109
    -0.0453   0.0248   0.0258   0.1018   0.2604   0.3779   0.3787   0.5055
     1.2527   1.2849   1.3021   1.3550   3.9015   4.1186   4.1224   4.3283
     4.5495   4.5793   4.6066   4.6688   5.1546   5.3175

          k = 0.1250 0.5052 0.0000 ( 35141 PWs)   bands (ev):

   -58.8573 -58.8285 -58.8092 -58.7594 -33.2007 -33.1737 -33.1527 -33.1043
   -32.9920 -32.9630 -32.9589 -32.9446 -32.9316 -32.9108 -32.8944 -32.8622
   -10.2840 -10.2295 -10.2287 -10.1669 -10.1075 -10.0644 -10.0506  -9.9910
    -3.6203  -3.5522  -3.5348  -3.4732  -2.9900  -2.9373  -2.9191  -2.8582
    -2.0878  -1.9632  -1.9560  -1.8397  -1.3084  -1.2221  -1.2091  -1.1290
    -0.0492   0.0369   0.0752   0.0883   0.1333   0.1525   0.1798   0.2941
     1.4396   1.4816   1.4987   1.5582   4.1201   4.2279   4.2375   4.3323
     4.6999   4.7654   4.7754   4.8698   5.4274   5.5418

          k = 0.1250 0.5774 0.0000 ( 35180 PWs)   bands (ev):

   -58.8558 -58.8271 -58.8078 -58.7579 -33.2128 -33.1858 -33.1648 -33.1164
   -32.9892 -32.9636 -32.9601 -32.9417 -32.9363 -32.9155 -32.8916 -32.8669
   -10.1874 -10.1399 -10.1382 -10.0859 -10.0618 -10.0288 -10.0166  -9.9603
    -3.6836  -3.6254  -3.6047  -3.5483  -3.0953  -3.0459  -3.0274  -2.9661
    -2.1479  -2.0221  -2.0187  -1.9008  -1.2615  -1.2023  -1.2020  -1.1347
    -0.1054   0.0273   0.0621   0.0642   0.1039   0.1121   0.1638   0.2384
     1.5319   1.5823   1.5984   1.6635   4.1943   4.2294   4.2372   4.2918
     4.8112   4.8924   4.8972   4.9704   5.5395   5.6561

          k = 0.1875 0.3248 0.0000 ( 35337 PWs)   bands (ev):

   -58.8682 -58.8395 -58.8201 -58.7703 -33.1005 -33.0733 -33.0524 -33.0134
   -33.0040 -32.9843 -32.9659 -32.9320 -32.9158 -32.9046 -32.8839 -32.8352
   -10.9164 -10.8362 -10.8357 -10.7515 -10.3929 -10.3087 -10.2934 -10.2085
    -3.2104  -3.0460  -3.0247  -2.8956  -2.1536  -2.0842  -2.0441  -2.0194
    -1.8523  -1.7708  -1.7676  -1.6798  -1.4676  -1.3519  -1.2724  -1.1243
    -0.1645  -0.1188  -0.1141  -0.0532   0.7003   0.7964   0.8023   0.9079
     1.1197   1.1554   1.1693   1.2252   3.6074   3.8653   3.8719   4.1329
     4.4650   4.5034   4.5050   4.5620   4.7012   4.7621

          k = 0.1875 0.3969 0.0000 ( 35241 PWs)   bands (ev):

   -58.8620 -58.8333 -58.8140 -58.7641 -33.1424 -33.1153 -33.0943 -33.0459
   -33.0013 -32.9722 -32.9628 -32.9538 -32.9355 -32.9147 -32.9037 -32.8661
   -10.5806 -10.5105 -10.5102 -10.4344 -10.2357 -10.1708 -10.1551 -10.0832
    -3.2962  -3.1792  -3.1667  -3.0727  -2.6016  -2.5688  -2.5541  -2.5065
    -1.8334  -1.7553  -1.6808  -1.6354  -1.4655  -1.3653  -1.2840  -1.1500
    -0.4828  -0.4265  -0.4220  -0.3549   0.4716   0.5396   0.5520   0.6285
     1.2227   1.2596   1.2780   1.3359   3.7607   4.0383   4.0483   4.3614
     4.5764   4.6066   4.6170   4.6702   4.8825   4.9758

          k = 0.1875 0.4691 0.0000 ( 35167 PWs)   bands (ev):

   -58.8573 -58.8285 -58.8092 -58.7594 -33.1729 -33.1458 -33.1248 -33.0765
   -32.9921 -32.9877 -32.9630 -32.9604 -32.9446 -32.9396 -32.8944 -32.8911
   -10.2973 -10.2399 -10.2395 -10.1754 -10.1019 -10.0563 -10.0416  -9.9808
    -3.3823  -3.2954  -3.2801  -3.2080  -2.9983  -2.9638  -2.9558  -2.9012
    -1.9180  -1.7939  -1.7723  -1.6961  -1.4073  -1.2733  -1.2426  -1.1173
    -0.6674  -0.5749  -0.5736  -0.4729   0.1711   0.2567   0.2596   0.3421
     1.4236   1.4567   1.4762   1.5300   3.9779   4.1617   4.1639   4.3307
     4.7413   4.8056   4.8056   4.9048   5.0894   5.2068

          k = 0.1875 0.5413 0.0000 ( 35162 PWs)   bands (ev):

   -58.8547 -58.8260 -58.8067 -58.7568 -33.1889 -33.1618 -33.1408 -33.0925
   -33.0017 -32.9870 -32.9744 -32.9579 -32.9536 -32.9396 -32.9050 -32.8894
   -10.1304 -10.0842 -10.0824 -10.0380 -10.0154  -9.9905  -9.9774  -9.9232
    -3.4197  -3.3599  -3.3324  -3.2754  -3.2145  -3.1767  -3.1731  -3.1125
    -2.0611  -1.9292  -1.9236  -1.8182  -1.2796  -1.1755  -1.1726  -1.0819
    -0.7116  -0.5936  -0.5922  -0.4839  -0.0373   0.0487   0.0545   0.1412
     1.6079   1.6484   1.6664   1.7259   4.0468   4.0995   4.1101   4.1745
     4.9286   5.0252   5.0641   5.1476   5.2006   5.3046

          k = 0.2500 0.4330 0.0000 ( 35195 PWs)   bands (ev):

   -58.8573 -58.8285 -58.8092 -58.7594 -33.1584 -33.1313 -33.1103 -33.0619
   -33.0026 -32.9921 -32.9754 -32.9630 -32.9546 -32.9446 -32.9060 -32.8944
   -10.3027 -10.2441 -10.2439 -10.1789 -10.0996 -10.0530 -10.0379  -9.9766
    -3.2737  -3.1726  -3.1591  -3.0838  -2.9992  -2.9702  -2.9690  -2.9189
    -1.7365  -1.6900  -1.6062  -1.6029  -1.3980  -1.2971  -1.2334  -1.1010
    -0.9826  -0.9389  -0.9278  -0.8747   0.2408   0.2927   0.3100   0.3774
     1.4070   1.4390   1.4603   1.5133   3.9178   4.1226   4.1335   4.3220
     4.7520   4.8075   4.8237   4.9117   4.9607   5.1021

          k = 0.2500 0.5052 0.0000 ( 35193 PWs)   bands (ev):

   -58.8541 -58.8254 -58.8061 -58.7562 -33.1631 -33.1361 -33.1151 -33.0667
   -33.0352 -33.0080 -32.9871 -32.9859 -32.9568 -32.9386 -32.9384 -32.8882
   -10.1023 -10.0559 -10.0543 -10.0135  -9.9890  -9.9679  -9.9536  -9.9008
    -3.3066  -3.2755  -3.2625  -3.2187  -3.1547  -3.0770  -3.0721  -2.9971
    -1.8904  -1.7625  -1.7571  -1.7045  -1.3418  -1.2760  -1.2035  -1.1994
    -1.1473  -1.1411  -1.0546  -0.9852  -0.0364   0.0320   0.0378   0.1164
     1.6477   1.6792   1.6991   1.7514   3.9146   3.9859   3.9948   4.0739
     4.8963   4.9671   4.9903   5.0573   5.1805   5.2599

          k = 0.2500 0.5774 0.0000 ( 35190 PWs)   bands (ev):

   -58.8530 -58.8243 -58.8050 -58.7551 -33.1629 -33.1359 -33.1149 -33.0665
   -33.0485 -33.0212 -33.0004 -32.9837 -32.9546 -32.9518 -32.9362 -32.8861
   -10.0273  -9.9877  -9.9856  -9.9692  -9.9393  -9.9366  -9.9179  -9.8730
    -3.4060  -3.3763  -3.3665  -3.3182  -3.0702  -3.0196  -3.0021  -2.9470
    -2.0451  -1.9200  -1.9192  -1.8315  -1.3794  -1.2738  -1.2303  -1.1777
    -1.1015  -1.0472  -1.0079  -0.9516  -0.1565  -0.0979  -0.0962  -0.0201
     1.7743   1.8094   1.8279   1.8834   3.8423   3.8712   3.8872   3.9370
     4.9226   4.9851   5.0267   5.0629   5.3397   5.3807

          k = 0.3125 0.5413 0.0000 ( 35172 PWs)   bands (ev):

   -58.8524 -58.8237 -58.8044 -58.7545 -33.1419 -33.1148 -33.0938 -33.0769
   -33.0496 -33.0455 -33.0288 -32.9825 -32.9803 -32.9534 -32.9351 -32.8849
    -9.9908  -9.9543  -9.9541  -9.9440  -9.9167  -9.9156  -9.8920  -9.8540
    -3.4739  -3.4438  -3.4380  -3.3866  -2.8463  -2.7813  -2.7649  -2.7031
    -2.0368  -2.0252  -1.9806  -1.9587  -1.5568  -1.5281  -1.5144  -1.4984
    -1.0517  -0.9737  -0.9638  -0.8943  -0.2446  -0.1765  -0.1708  -0.0904
     1.8563   1.8878   1.9064   1.9587   3.7263   3.7539   3.7725   3.8214
     4.8593   4.8912   4.9495   4.9730   5.4346   5.5068

     the Fermi energy is     2.9706 ev

!    total energy              =   -1978.35711492 Ry
     total all-electron energy =    -38771.677960 Ry
     estimated scf accuracy    <          8.4E-09 Ry
     smearing contrib. (-TS)   =       0.00003298 Ry
     internal energy E=F+TS    =   -1978.35714790 Ry

     The total energy is F=E-TS. E is the sum of the following terms:
     one-electron contribution =  -10485.36597135 Ry
     hartree contribution      =    5264.29958252 Ry
     xc contribution           =    -119.22531983 Ry
     ewald contribution        =    4631.78747805 Ry
     one-center paw contrib.   =   -1269.85291730 Ry

     convergence has been achieved in  61 iterations

     Writing all to output data dir ./tmp/cleave2/cleave_dz026_dz7p0/mos2_cleave.save/ :
     XML data file, charge density, pseudopotentials, collected wavefunctions

     init_run     :    121.39s CPU    123.50s WALL (       1 calls)
     electrons    :  12018.32s CPU  12224.21s WALL (       1 calls)

     Called by init_run:
     wfcinit      :     74.10s CPU     74.76s WALL (       1 calls)
     potinit      :     43.69s CPU     44.12s WALL (       1 calls)
     hinit0       :      0.37s CPU      0.39s WALL (       1 calls)

     Called by electrons:
     c_bands      :   9950.57s CPU  10010.67s WALL (      62 calls)
     sum_band     :   1574.77s CPU   1642.29s WALL (      62 calls)
     v_of_rho     :    240.37s CPU    260.62s WALL (      62 calls)
     newd         :    189.05s CPU    247.13s WALL (      62 calls)
     PAW_pot      :     24.87s CPU     24.88s WALL (      62 calls)
     mix_rho      :     82.94s CPU     84.25s WALL (      62 calls)
     vdW_kernel   :     40.01s CPU     40.03s WALL (       1 calls)

     Called by c_bands:
     init_us_2    :     46.60s CPU     46.65s WALL (    3750 calls)
     init_us_2:cp :     46.59s CPU     46.65s WALL (    3750 calls)
     cegterg      :   9497.68s CPU   9557.29s WALL (    1860 calls)

     Called by *egterg:
     cdiaghg      :     13.50s CPU     13.51s WALL (    5466 calls)
     h_psi        :   5107.55s CPU   5130.76s WALL (    5526 calls)
     s_psi        :   1499.01s CPU   1499.43s WALL (    5526 calls)
     g_psi        :     21.48s CPU     21.49s WALL (    3636 calls)

     Called by h_psi:
     h_psi:calbec :   1946.21s CPU   1946.67s WALL (    5526 calls)
     vloc_psi     :   1651.98s CPU   1653.21s WALL (    5526 calls)
     add_vuspsi   :   1499.10s CPU   1499.49s WALL (    5526 calls)

     General routines
     calbec       :   2853.33s CPU   2854.07s WALL (    7386 calls)
     fft          :     76.31s CPU     76.34s WALL (    3905 calls)
     ffts         :     40.73s CPU     40.75s WALL (    7504 calls)
     fftw         :   1507.49s CPU   1508.35s WALL (  608630 calls)
     interpolate  :      1.81s CPU      1.82s WALL (      62 calls)

     Parallel routines

     PWSCF        :      3h22m CPU      3h25m WALL


   This run was terminated on:  23:59:28  13Jun2026            

=------------------------------------------------------------------------------=
   JOB DONE.
=------------------------------------------------------------------------------=
Note: The following floating-point exceptions are signalling: IEEE_UNDERFLOW_FLAG IEEE_DENORMAL
