Authorization required, but no authorization protocol specified

Authorization required, but no authorization protocol specified

Authorization required, but no authorization protocol specified

Authorization required, but no authorization protocol specified

Authorization required, but no authorization protocol specified

Authorization required, but no authorization protocol specified

Authorization required, but no authorization protocol specified

Authorization required, but no authorization protocol specified


     Program PWSCF v.7.3 starts on 12Jun2026 at  4: 1:22 

     This program is part of the open-source Quantum ESPRESSO suite
     for quantum simulation of materials; please cite
         "P. Giannozzi et al., J. Phys.:Condens. Matter 21 395502 (2009);
         "P. Giannozzi et al., J. Phys.:Condens. Matter 29 465901 (2017);
         "P. Giannozzi et al., J. Chem. Phys. 152 154105 (2020);
          URL http://www.quantum-espresso.org", 
     in publications or presentations arising from this work. More details at
     http://www.quantum-espresso.org/quote

     Parallel version (MPI), running on     1 processors

     MPI processes distributed on     1 nodes
     42879 MiB available memory on the printing compute node when the environment starts

     Waiting for input...
     Reading input from standard input

     Current dimensions of program PWSCF are:
     Max number of different atomic species (ntypx) = 10
     Max number of k-points (npk) =  40000
     Max angular momentum in pseudopotentials (lmaxx) =  4
     file Mo.pbe-spn-kjpaw_psl.1.0.0.UPF: wavefunction(s)  4S 4D renormalized
     file S.pbe-n-kjpaw_psl.1.0.0.UPF: wavefunction(s)  3S 3P renormalized

     IMPORTANT: XC functional enforced from input :
     Exchange-correlation= VDW-DF2-B86R
                           (   1   4  26   0   2   0   0)
     Any further DFT definition will be discarded
     Please, verify this is what you really want


     Subspace diagonalization in iterative solution of the eigenvalue problem:
     a serial algorithm will be used


     G-vector sticks info
     --------------------
     sticks:   dense  smooth     PW     G-vecs:    dense   smooth      PW
     Sum        1573     769    223               797393   281171   43435

     Using Slab Decomposition



     bravais-lattice index     =            4
     lattice parameter (alat)  =       5.9715  a.u.
     unit-cell volume          =    2917.9067 (a.u.)^3
     number of atoms/cell      =           12
     number of atomic types    =            2
     number of electrons       =       104.00
     number of Kohn-Sham states=           62
     kinetic-energy cutoff     =      80.0000  Ry
     charge density cutoff     =     640.0000  Ry
     scf convergence threshold =      1.0E-08
     mixing beta               =       0.2000
     number of iterations used =            8  local-TF  mixing
     Exchange-correlation= VDW-DF2-B86R
                           (   1   4  26   0   2   0   0)

     celldm(1)=   5.971535  celldm(2)=   0.000000  celldm(3)=  15.822785
     celldm(4)=   0.000000  celldm(5)=   0.000000  celldm(6)=   0.000000

     crystal axes: (cart. coord. in units of alat)
               a(1) = (   1.000000   0.000000   0.000000 )  
               a(2) = (  -0.500000   0.866025   0.000000 )  
               a(3) = (   0.000000   0.000000  15.822785 )  

     reciprocal axes: (cart. coord. in units 2 pi/alat)
               b(1) = (  1.000000  0.577350 -0.000000 )  
               b(2) = (  0.000000  1.154701  0.000000 )  
               b(3) = (  0.000000 -0.000000  0.063200 )  


     PseudoPot. # 1 for Mo read from file:
     ./pseudo/Mo.pbe-spn-kjpaw_psl.1.0.0.UPF
     MD5 check sum: 4396e0c640fcce5c25f020efccf1ab12
     Pseudo is Projector augmented-wave + core cor, Zval = 14.0
     Generated using &quot;atomic&quot; code by A. Dal Corso  v.6.3
     Shape of augmentation charge: PSQ
     Using radial grid of 1229 points,  6 beta functions with: 
                l(1) =   0
                l(2) =   0
                l(3) =   1
                l(4) =   1
                l(5) =   2
                l(6) =   2
     Q(r) pseudized with 0 coefficients 


     PseudoPot. # 2 for S  read from file:
     ./pseudo/S.pbe-n-kjpaw_psl.1.0.0.UPF
     MD5 check sum: fb45dfebcf3e72a4e1bd4a866ec2e262
     Pseudo is Projector augmented-wave + core cor, Zval =  6.0
     Generated using &quot;atomic&quot; code by A. Dal Corso  v.6.3
     Shape of augmentation charge: PSQ
     Using radial grid of 1151 points,  6 beta functions with: 
                l(1) =   0
                l(2) =   0
                l(3) =   1
                l(4) =   1
                l(5) =   2
                l(6) =   2
     Q(r) pseudized with 0 coefficients 


     atomic species   valence    mass     pseudopotential
     Mo               14.00    95.96000     Mo( 1.00)
     S                 6.00    32.06000     S ( 1.00)

      6 Sym. Ops. (no inversion) found



   Cartesian axes

     site n.     atom                  positions (alat units)
         1        S      tau(   1) = (  -0.0000005   0.5773503  -0.9967195  )
         2        Mo     tau(   2) = (   0.0000000   0.0000000  -0.4993332  )
         3        S      tau(   3) = (  -0.0000005   0.5773503  -0.0017175  )
         4        S      tau(   4) = (   0.5000003   0.2886747   0.9835827  )
         5        Mo     tau(   5) = (  -0.0000005   0.5773503   1.4818950  )
         6        S      tau(   6) = (   0.5000003   0.2886747   1.9798512  )
         7        S      tau(   7) = (   0.0000000   0.0000000   2.9586848  )
         8        Mo     tau(   8) = (   0.5000003   0.2886747   3.4569999  )
         9        S      tau(   9) = (   0.0000000   0.0000000   3.9548385  )
        10        S      tau(  10) = (  -0.0000005   0.5773503   5.9334198  )
        11        Mo     tau(  11) = (   0.0000000   0.0000000   6.4310564  )
        12        S      tau(  12) = (  -0.0000005   0.5773503   6.9281906  )

     number of k points=    30  Methfessel-Paxton smearing, width (Ry)=  0.0200
                       cart. coord. in units 2pi/alat
        k(    1) = (   0.0000000   0.0000000   0.0000000), wk =   0.0078125
        k(    2) = (   0.0000000   0.0721688   0.0000000), wk =   0.0468750
        k(    3) = (   0.0000000   0.1443376   0.0000000), wk =   0.0468750
        k(    4) = (   0.0000000   0.2165064   0.0000000), wk =   0.0468750
        k(    5) = (   0.0000000   0.2886751   0.0000000), wk =   0.0468750
        k(    6) = (   0.0000000   0.3608439   0.0000000), wk =   0.0468750
        k(    7) = (   0.0000000   0.4330127   0.0000000), wk =   0.0468750
        k(    8) = (   0.0000000   0.5051815   0.0000000), wk =   0.0468750
        k(    9) = (   0.0000000  -0.5773503   0.0000000), wk =   0.0234375
        k(   10) = (   0.0625000   0.1082532   0.0000000), wk =   0.0468750
        k(   11) = (   0.0625000   0.1804220   0.0000000), wk =   0.0937500
        k(   12) = (   0.0625000   0.2525907   0.0000000), wk =   0.0937500
        k(   13) = (   0.0625000   0.3247595   0.0000000), wk =   0.0937500
        k(   14) = (   0.0625000   0.3969283   0.0000000), wk =   0.0937500
        k(   15) = (   0.0625000   0.4690971   0.0000000), wk =   0.0937500
        k(   16) = (   0.0625000   0.5412659   0.0000000), wk =   0.0937500
        k(   17) = (   0.1250000   0.2165064   0.0000000), wk =   0.0468750
        k(   18) = (   0.1250000   0.2886751   0.0000000), wk =   0.0937500
        k(   19) = (   0.1250000   0.3608439   0.0000000), wk =   0.0937500
        k(   20) = (   0.1250000   0.4330127   0.0000000), wk =   0.0937500
        k(   21) = (   0.1250000   0.5051815   0.0000000), wk =   0.0937500
        k(   22) = (   0.1250000   0.5773503   0.0000000), wk =   0.0468750
        k(   23) = (   0.1875000   0.3247595   0.0000000), wk =   0.0468750
        k(   24) = (   0.1875000   0.3969283   0.0000000), wk =   0.0937500
        k(   25) = (   0.1875000   0.4690971   0.0000000), wk =   0.0937500
        k(   26) = (   0.1875000   0.5412659   0.0000000), wk =   0.0937500
        k(   27) = (   0.2500000   0.4330127   0.0000000), wk =   0.0468750
        k(   28) = (   0.2500000   0.5051815   0.0000000), wk =   0.0937500
        k(   29) = (   0.2500000   0.5773503   0.0000000), wk =   0.0468750
        k(   30) = (   0.3125000   0.5412659   0.0000000), wk =   0.0468750

     Dense  grid:   797393 G-vectors     FFT dimensions: (  50,  50, 768)

     Smooth grid:   281171 G-vectors     FFT dimensions: (  36,  36, 540)

     Estimated max dynamical RAM per process >       3.90 GB

     Initial potential from superposition of free atoms

     starting charge     103.9962, renormalised to     104.0000

     negative rho (up, down):  1.362E-04 0.000E+00


     %%%%%%%%%%%%%%%%%%%%%%%%%%%%%%%%%%%%%%%%%%%%%%%%%%%%%%%%%%%%%%%%%%%%%%%%
     %                                                                      %
     % You are using vdW-DF, which was implemented by the Thonhauser group. %
     % Please cite the following two papers that made this development      %
     % possible and the two reviews that describe the various versions:     %
     %                                                                      %
     %   T. Thonhauser et al., PRL 115, 136402 (2015).                      %
     %   T. Thonhauser et al., PRB 76, 125112 (2007).                       %
     %   K. Berland et al., Rep. Prog. Phys. 78, 066501 (2015).             %
     %   D.C. Langreth et al., J. Phys.: Condens. Matter 21, 084203 (2009). %
     %                                                                      %
     % If you are calculating stress with vdW-DF, please also cite:         %
     %                                                                      %
     %   R. Sabatini et al., J. Phys.: Condens. Matter 24, 424209 (2012).   %
     %                                                                      %
     %%%%%%%%%%%%%%%%%%%%%%%%%%%%%%%%%%%%%%%%%%%%%%%%%%%%%%%%%%%%%%%%%%%%%%%%

     %%%%%%%%%%%%%%%%%%%%%%%%%%%%%%%%%%%%%%%%%%%%%%%%%%%%%%%%%%%%%%%%%%%%%%%%
     %                                                                      %
     %  vdW-DF NEWS:                                                        %
     %                                                                      %
     %  * vdW-DF3 is now available. DOI: 10.1021/acs.jctc.0c00471           %
     %    use with input_dft = 'vdW-DF3-opt1' or 'vdW-DF3-opt2'             %
     %                                                                      %
     %  * Unscreened and range-separated hybrid vdW-DF-cx functionals       %
     %    DOI: 10.1063/1.4986522 and 10.1088/1361-648X/ac2ad2               %
     %    use with input_dft = 'vdW-DF-cx0'    and 'vdW-DF-ahcx'            %
     %  * Unscreened and range-separated hybrid vdW-DF2-b86r functionals    %
     %    DOI: 10.1063/1.4986522 and DOI: 10.1103/PhysRevX.12.041003        %
     %    use with input_dft = 'vdW-DF2-br0' and 'vdW-DF2-ahbr'             %
     %                                                                      %
     %%%%%%%%%%%%%%%%%%%%%%%%%%%%%%%%%%%%%%%%%%%%%%%%%%%%%%%%%%%%%%%%%%%%%%%%


     Starting wfcs are   72 randomized atomic wfcs
     Checking if some PAW data can be deallocated... 

     total cpu time spent up to now is      124.8 secs

     Self-consistent Calculation

     iteration #  1     ecut=    80.00 Ry     beta= 0.20
     Davidson diagonalization with overlap
     ethr =  1.00E-02,  avg # of iterations =  2.3

     Threshold (ethr) on eigenvalues was too large:
     Diagonalizing with lowered threshold

     Davidson diagonalization with overlap
     ethr =  2.87E-04,  avg # of iterations =  3.7

     negative rho (up, down):  2.529E-05 0.000E+00

     total cpu time spent up to now is      604.0 secs

     total energy              =   -1978.45464525 Ry
     estimated scf accuracy    <       0.44909020 Ry

     iteration #  2     ecut=    80.00 Ry     beta= 0.20
     Davidson diagonalization with overlap
     ethr =  4.32E-04,  avg # of iterations =  1.0

     negative rho (up, down):  1.871E-06 0.000E+00

     total cpu time spent up to now is      786.1 secs

     total energy              =   -1978.27618041 Ry
     estimated scf accuracy    <       0.37096789 Ry

     iteration #  3     ecut=    80.00 Ry     beta= 0.20
     Davidson diagonalization with overlap
     ethr =  3.57E-04,  avg # of iterations =  2.0

     negative rho (up, down):  2.426E-07 0.000E+00

     total cpu time spent up to now is     1022.6 secs

     total energy              =   -1978.35571385 Ry
     estimated scf accuracy    <       0.04816150 Ry

     iteration #  4     ecut=    80.00 Ry     beta= 0.20
     Davidson diagonalization with overlap
     ethr =  4.63E-05,  avg # of iterations =  2.2

     negative rho (up, down):  7.853E-08 0.000E+00

     total cpu time spent up to now is     1255.3 secs

     total energy              =   -1978.35846173 Ry
     estimated scf accuracy    <       0.02034591 Ry

     iteration #  5     ecut=    80.00 Ry     beta= 0.20
     Davidson diagonalization with overlap
     ethr =  1.96E-05,  avg # of iterations =  3.2

     negative rho (up, down):  5.215E-08 0.000E+00

     total cpu time spent up to now is     1468.7 secs

     total energy              =   -1978.36014873 Ry
     estimated scf accuracy    <       0.00492047 Ry

     iteration #  6     ecut=    80.00 Ry     beta= 0.20
     Davidson diagonalization with overlap
     ethr =  4.73E-06,  avg # of iterations =  5.1

     negative rho (up, down):  8.078E-07 0.000E+00

     total cpu time spent up to now is     1682.5 secs

     total energy              =   -1978.35859265 Ry
     estimated scf accuracy    <       0.00432379 Ry

     iteration #  7     ecut=    80.00 Ry     beta= 0.20
     Davidson diagonalization with overlap
     c_bands:  1 eigenvalues not converged
     c_bands:  1 eigenvalues not converged
     ethr =  4.16E-06,  avg # of iterations =  6.2

     negative rho (up, down):  1.311E-07 0.000E+00

     total cpu time spent up to now is     1961.9 secs

     total energy              =   -1978.35791512 Ry
     estimated scf accuracy    <       0.01339464 Ry

     iteration #  8     ecut=    80.00 Ry     beta= 0.20
     Davidson diagonalization with overlap
     c_bands:  1 eigenvalues not converged
     c_bands:  1 eigenvalues not converged
     ethr =  4.16E-06,  avg # of iterations =  4.0

     negative rho (up, down):  4.591E-07 0.000E+00

     total cpu time spent up to now is     2187.4 secs

     total energy              =   -1978.35836116 Ry
     estimated scf accuracy    <       0.00273043 Ry

     iteration #  9     ecut=    80.00 Ry     beta= 0.20
     Davidson diagonalization with overlap
     c_bands:  1 eigenvalues not converged
     c_bands:  1 eigenvalues not converged
     ethr =  2.63E-06,  avg # of iterations =  8.1

     negative rho (up, down):  6.398E-07 0.000E+00

     total cpu time spent up to now is     2429.8 secs

     total energy              =   -1978.35869371 Ry
     estimated scf accuracy    <       0.00261464 Ry

     iteration # 10     ecut=    80.00 Ry     beta= 0.20
     Davidson diagonalization with overlap
     ethr =  2.51E-06,  avg # of iterations =  1.4

     negative rho (up, down):  4.366E-03 0.000E+00

     total cpu time spent up to now is     2619.8 secs

     total energy              =   -1978.35797529 Ry
     estimated scf accuracy    <       0.00210597 Ry

     iteration # 11     ecut=    80.00 Ry     beta= 0.20
     Davidson diagonalization with overlap
     ethr =  2.02E-06,  avg # of iterations =  4.1

     negative rho (up, down):  4.698E-03 0.000E+00

     total cpu time spent up to now is     2839.8 secs

     total energy              =   -1978.35841282 Ry
     estimated scf accuracy    <       0.00069550 Ry

     iteration # 12     ecut=    80.00 Ry     beta= 0.20
     Davidson diagonalization with overlap
     c_bands:  1 eigenvalues not converged
     ethr =  6.69E-07,  avg # of iterations =  4.4

     negative rho (up, down):  1.628E-03 0.000E+00

     total cpu time spent up to now is     3055.6 secs

     total energy              =   -1978.35854846 Ry
     estimated scf accuracy    <       0.00125481 Ry

     iteration # 13     ecut=    80.00 Ry     beta= 0.20
     Davidson diagonalization with overlap
     ethr =  6.69E-07,  avg # of iterations =  2.2

     negative rho (up, down):  5.222E-03 0.000E+00

     total cpu time spent up to now is     3259.3 secs

     total energy              =   -1978.35847127 Ry
     estimated scf accuracy    <       0.00054508 Ry

     iteration # 14     ecut=    80.00 Ry     beta= 0.20
     Davidson diagonalization with overlap
     c_bands:  1 eigenvalues not converged
     ethr =  5.24E-07,  avg # of iterations =  5.5

     negative rho (up, down):  5.033E-03 0.000E+00

     total cpu time spent up to now is     3474.3 secs

     total energy              =   -1978.35850192 Ry
     estimated scf accuracy    <       0.00023226 Ry

     iteration # 15     ecut=    80.00 Ry     beta= 0.20
     Davidson diagonalization with overlap
     ethr =  2.23E-07,  avg # of iterations =  2.6

     negative rho (up, down):  3.050E-03 0.000E+00

     total cpu time spent up to now is     3675.2 secs

     total energy              =   -1978.35854131 Ry
     estimated scf accuracy    <       0.00016704 Ry

     iteration # 16     ecut=    80.00 Ry     beta= 0.20
     Davidson diagonalization with overlap
     ethr =  1.61E-07,  avg # of iterations =  5.3

     negative rho (up, down):  2.948E-03 0.000E+00

     total cpu time spent up to now is     3926.9 secs

     total energy              =   -1978.35848616 Ry
     estimated scf accuracy    <       0.00051306 Ry

     iteration # 17     ecut=    80.00 Ry     beta= 0.20
     Davidson diagonalization with overlap
     ethr =  1.61E-07,  avg # of iterations =  3.2

     negative rho (up, down):  1.915E-03 0.000E+00

     total cpu time spent up to now is     4153.4 secs

     total energy              =   -1978.35853004 Ry
     estimated scf accuracy    <       0.00008392 Ry

     iteration # 18     ecut=    80.00 Ry     beta= 0.20
     Davidson diagonalization with overlap
     ethr =  8.07E-08,  avg # of iterations =  3.2

     negative rho (up, down):  1.135E-03 0.000E+00

     total cpu time spent up to now is     4359.1 secs

     total energy              =   -1978.35854774 Ry
     estimated scf accuracy    <       0.00005799 Ry

     iteration # 19     ecut=    80.00 Ry     beta= 0.20
     Davidson diagonalization with overlap
     ethr =  5.58E-08,  avg # of iterations =  1.2

     negative rho (up, down):  1.821E-04 0.000E+00

     total cpu time spent up to now is     4544.3 secs

     total energy              =   -1978.35856841 Ry
     estimated scf accuracy    <       0.00004939 Ry

     iteration # 20     ecut=    80.00 Ry     beta= 0.20
     Davidson diagonalization with overlap
     ethr =  4.75E-08,  avg # of iterations =  1.4

     negative rho (up, down):  1.790E-04 0.000E+00

     total cpu time spent up to now is     4733.0 secs

     total energy              =   -1978.35856915 Ry
     estimated scf accuracy    <       0.00004551 Ry

     iteration # 21     ecut=    80.00 Ry     beta= 0.20
     Davidson diagonalization with overlap
     ethr =  4.38E-08,  avg # of iterations =  1.0

     negative rho (up, down):  1.884E-04 0.000E+00

     total cpu time spent up to now is     4913.4 secs

     total energy              =   -1978.35856962 Ry
     estimated scf accuracy    <       0.00004600 Ry

     iteration # 22     ecut=    80.00 Ry     beta= 0.20
     Davidson diagonalization with overlap
     ethr =  4.38E-08,  avg # of iterations =  1.0

     negative rho (up, down):  1.844E-04 0.000E+00

     total cpu time spent up to now is     5093.9 secs

     total energy              =   -1978.35857023 Ry
     estimated scf accuracy    <       0.00004989 Ry

     iteration # 23     ecut=    80.00 Ry     beta= 0.20
     Davidson diagonalization with overlap
     ethr =  4.38E-08,  avg # of iterations =  1.0

     negative rho (up, down):  2.589E-04 0.000E+00

     total cpu time spent up to now is     5277.6 secs

     total energy              =   -1978.35856804 Ry
     estimated scf accuracy    <       0.00004586 Ry

     iteration # 24     ecut=    80.00 Ry     beta= 0.20
     Davidson diagonalization with overlap
     ethr =  4.38E-08,  avg # of iterations =  1.3

     negative rho (up, down):  3.522E-04 0.000E+00

     total cpu time spent up to now is     5464.1 secs

     total energy              =   -1978.35856956 Ry
     estimated scf accuracy    <       0.00004069 Ry

     iteration # 25     ecut=    80.00 Ry     beta= 0.20
     Davidson diagonalization with overlap
     ethr =  3.91E-08,  avg # of iterations =  1.5

     negative rho (up, down):  5.619E-04 0.000E+00

     total cpu time spent up to now is     5655.5 secs

     total energy              =   -1978.35857038 Ry
     estimated scf accuracy    <       0.00003960 Ry

     iteration # 26     ecut=    80.00 Ry     beta= 0.20
     Davidson diagonalization with overlap
     ethr =  3.81E-08,  avg # of iterations =  1.0

     negative rho (up, down):  5.552E-04 0.000E+00

     total cpu time spent up to now is     5836.4 secs

     total energy              =   -1978.35857038 Ry
     estimated scf accuracy    <       0.00003662 Ry

     iteration # 27     ecut=    80.00 Ry     beta= 0.20
     Davidson diagonalization with overlap
     ethr =  3.52E-08,  avg # of iterations =  1.0

     negative rho (up, down):  6.193E-04 0.000E+00

     total cpu time spent up to now is     6016.9 secs

     total energy              =   -1978.35856822 Ry
     estimated scf accuracy    <       0.00003990 Ry

     iteration # 28     ecut=    80.00 Ry     beta= 0.20
     Davidson diagonalization with overlap
     ethr =  3.52E-08,  avg # of iterations =  1.2

     negative rho (up, down):  5.896E-04 0.000E+00

     total cpu time spent up to now is     6203.0 secs

     total energy              =   -1978.35856852 Ry
     estimated scf accuracy    <       0.00003328 Ry

     iteration # 29     ecut=    80.00 Ry     beta= 0.20
     Davidson diagonalization with overlap
     ethr =  3.20E-08,  avg # of iterations =  1.0

     negative rho (up, down):  5.053E-04 0.000E+00

     total cpu time spent up to now is     6383.1 secs

     total energy              =   -1978.35856944 Ry
     estimated scf accuracy    <       0.00003229 Ry

     iteration # 30     ecut=    80.00 Ry     beta= 0.20
     Davidson diagonalization with overlap
     ethr =  3.10E-08,  avg # of iterations =  1.1

     negative rho (up, down):  9.916E-04 0.000E+00

     total cpu time spent up to now is     6564.5 secs

     total energy              =   -1978.35855460 Ry
     estimated scf accuracy    <       0.00003431 Ry

     iteration # 31     ecut=    80.00 Ry     beta= 0.20
     Davidson diagonalization with overlap
     ethr =  3.10E-08,  avg # of iterations =  2.1

     negative rho (up, down):  1.568E-03 0.000E+00

     total cpu time spent up to now is     6767.2 secs

     total energy              =   -1978.35855180 Ry
     estimated scf accuracy    <       0.00002719 Ry

     iteration # 32     ecut=    80.00 Ry     beta= 0.20
     Davidson diagonalization with overlap
     ethr =  2.61E-08,  avg # of iterations =  2.1

     negative rho (up, down):  1.544E-03 0.000E+00

     total cpu time spent up to now is     6971.5 secs

     total energy              =   -1978.35855143 Ry
     estimated scf accuracy    <       0.00002774 Ry

     iteration # 33     ecut=    80.00 Ry     beta= 0.20
     Davidson diagonalization with overlap
     ethr =  2.61E-08,  avg # of iterations =  1.0

     negative rho (up, down):  1.535E-03 0.000E+00

     total cpu time spent up to now is     7152.7 secs

     total energy              =   -1978.35854808 Ry
     estimated scf accuracy    <       0.00002497 Ry

     iteration # 34     ecut=    80.00 Ry     beta= 0.20
     Davidson diagonalization with overlap
     ethr =  2.40E-08,  avg # of iterations =  1.1

     negative rho (up, down):  1.378E-03 0.000E+00

     total cpu time spent up to now is     7335.6 secs

     total energy              =   -1978.35854999 Ry
     estimated scf accuracy    <       0.00002036 Ry

     iteration # 35     ecut=    80.00 Ry     beta= 0.20
     Davidson diagonalization with overlap
     ethr =  1.96E-08,  avg # of iterations =  1.2

     negative rho (up, down):  6.248E-04 0.000E+00

     total cpu time spent up to now is     7519.4 secs

     total energy              =   -1978.35854687 Ry
     estimated scf accuracy    <       0.00001727 Ry

     iteration # 36     ecut=    80.00 Ry     beta= 0.20
     Davidson diagonalization with overlap
     ethr =  1.66E-08,  avg # of iterations =  2.1

     negative rho (up, down):  4.795E-04 0.000E+00

     total cpu time spent up to now is     7721.3 secs

     total energy              =   -1978.35854913 Ry
     estimated scf accuracy    <       0.00001258 Ry

     iteration # 37     ecut=    80.00 Ry     beta= 0.20
     Davidson diagonalization with overlap
     c_bands:  1 eigenvalues not converged
     ethr =  1.21E-08,  avg # of iterations =  3.3

     negative rho (up, down):  3.902E-04 0.000E+00

     total cpu time spent up to now is     7923.7 secs

     total energy              =   -1978.35855143 Ry
     estimated scf accuracy    <       0.00000982 Ry

     iteration # 38     ecut=    80.00 Ry     beta= 0.20
     Davidson diagonalization with overlap
     ethr =  9.45E-09,  avg # of iterations =  1.0

     negative rho (up, down):  2.473E-04 0.000E+00

     total cpu time spent up to now is     8104.8 secs

     total energy              =   -1978.35855239 Ry
     estimated scf accuracy    <       0.00000956 Ry

     iteration # 39     ecut=    80.00 Ry     beta= 0.20
     Davidson diagonalization with overlap
     ethr =  9.20E-09,  avg # of iterations =  1.1

     negative rho (up, down):  2.371E-04 0.000E+00

     total cpu time spent up to now is     8288.9 secs

     total energy              =   -1978.35855283 Ry
     estimated scf accuracy    <       0.00000944 Ry

     iteration # 40     ecut=    80.00 Ry     beta= 0.20
     Davidson diagonalization with overlap
     ethr =  9.07E-09,  avg # of iterations =  1.0

     negative rho (up, down):  2.619E-04 0.000E+00

     total cpu time spent up to now is     8469.8 secs

     total energy              =   -1978.35855258 Ry
     estimated scf accuracy    <       0.00000932 Ry

     iteration # 41     ecut=    80.00 Ry     beta= 0.20
     Davidson diagonalization with overlap
     ethr =  8.96E-09,  avg # of iterations =  1.0

     negative rho (up, down):  2.392E-04 0.000E+00

     total cpu time spent up to now is     8650.1 secs

     total energy              =   -1978.35855289 Ry
     estimated scf accuracy    <       0.00000933 Ry

     iteration # 42     ecut=    80.00 Ry     beta= 0.20
     Davidson diagonalization with overlap
     ethr =  8.96E-09,  avg # of iterations =  1.0

     negative rho (up, down):  3.059E-04 0.000E+00

     total cpu time spent up to now is     8831.0 secs

     total energy              =   -1978.35855249 Ry
     estimated scf accuracy    <       0.00000940 Ry

     iteration # 43     ecut=    80.00 Ry     beta= 0.20
     Davidson diagonalization with overlap
     ethr =  8.96E-09,  avg # of iterations =  1.1

     negative rho (up, down):  3.138E-04 0.000E+00

     total cpu time spent up to now is     9014.6 secs

     total energy              =   -1978.35855258 Ry
     estimated scf accuracy    <       0.00000978 Ry

     iteration # 44     ecut=    80.00 Ry     beta= 0.20
     Davidson diagonalization with overlap
     ethr =  8.96E-09,  avg # of iterations =  1.0

     negative rho (up, down):  2.202E-04 0.000E+00

     total cpu time spent up to now is     9195.2 secs

     total energy              =   -1978.35855338 Ry
     estimated scf accuracy    <       0.00000998 Ry

     iteration # 45     ecut=    80.00 Ry     beta= 0.20
     Davidson diagonalization with overlap
     ethr =  8.96E-09,  avg # of iterations =  1.1

     negative rho (up, down):  2.580E-04 0.000E+00

     total cpu time spent up to now is     9378.4 secs

     total energy              =   -1978.35855318 Ry
     estimated scf accuracy    <       0.00000937 Ry

     iteration # 46     ecut=    80.00 Ry     beta= 0.20
     Davidson diagonalization with overlap
     ethr =  8.96E-09,  avg # of iterations =  1.0

     negative rho (up, down):  2.487E-04 0.000E+00

     total cpu time spent up to now is     9559.9 secs

     total energy              =   -1978.35855281 Ry
     estimated scf accuracy    <       0.00000958 Ry

     iteration # 47     ecut=    80.00 Ry     beta= 0.20
     Davidson diagonalization with overlap
     ethr =  8.96E-09,  avg # of iterations =  1.0

     negative rho (up, down):  2.780E-04 0.000E+00

     total cpu time spent up to now is     9740.6 secs

     total energy              =   -1978.35855386 Ry
     estimated scf accuracy    <       0.00000985 Ry

     iteration # 48     ecut=    80.00 Ry     beta= 0.20
     Davidson diagonalization with overlap
     ethr =  8.96E-09,  avg # of iterations =  1.0

     negative rho (up, down):  2.666E-04 0.000E+00

     total cpu time spent up to now is     9921.0 secs

     total energy              =   -1978.35855365 Ry
     estimated scf accuracy    <       0.00001017 Ry

     iteration # 49     ecut=    80.00 Ry     beta= 0.20
     Davidson diagonalization with overlap
     ethr =  8.96E-09,  avg # of iterations =  1.0

     negative rho (up, down):  3.696E-04 0.000E+00

     total cpu time spent up to now is    10102.6 secs

     total energy              =   -1978.35855162 Ry
     estimated scf accuracy    <       0.00000967 Ry

     iteration # 50     ecut=    80.00 Ry     beta= 0.20
     Davidson diagonalization with overlap
     ethr =  8.96E-09,  avg # of iterations =  1.0

     negative rho (up, down):  1.485E-04 0.000E+00

     total cpu time spent up to now is    10283.6 secs

     total energy              =   -1978.35855539 Ry
     estimated scf accuracy    <       0.00000941 Ry

     iteration # 51     ecut=    80.00 Ry     beta= 0.20
     Davidson diagonalization with overlap
     ethr =  8.96E-09,  avg # of iterations =  1.1

     negative rho (up, down):  2.371E-04 0.000E+00

     total cpu time spent up to now is    10465.1 secs

     total energy              =   -1978.35855292 Ry
     estimated scf accuracy    <       0.00000953 Ry

     iteration # 52     ecut=    80.00 Ry     beta= 0.20
     Davidson diagonalization with overlap
     ethr =  8.96E-09,  avg # of iterations =  1.1

     negative rho (up, down):  2.473E-04 0.000E+00

     total cpu time spent up to now is    10646.9 secs

     total energy              =   -1978.35855225 Ry
     estimated scf accuracy    <       0.00000922 Ry

     iteration # 53     ecut=    80.00 Ry     beta= 0.20
     Davidson diagonalization with overlap
     ethr =  8.86E-09,  avg # of iterations =  1.0

     negative rho (up, down):  2.423E-04 0.000E+00

     total cpu time spent up to now is    10828.1 secs

     total energy              =   -1978.35855238 Ry
     estimated scf accuracy    <       0.00000892 Ry

     iteration # 54     ecut=    80.00 Ry     beta= 0.20
     Davidson diagonalization with overlap
     ethr =  8.58E-09,  avg # of iterations =  1.0

     negative rho (up, down):  3.236E-04 0.000E+00

     total cpu time spent up to now is    11008.5 secs

     total energy              =   -1978.35855370 Ry
     estimated scf accuracy    <       0.00000878 Ry

     iteration # 55     ecut=    80.00 Ry     beta= 0.20
     Davidson diagonalization with overlap
     ethr =  8.44E-09,  avg # of iterations =  2.1

     negative rho (up, down):  4.102E-04 0.000E+00

     total cpu time spent up to now is    11211.3 secs

     total energy              =   -1978.35855351 Ry
     estimated scf accuracy    <       0.00000781 Ry

     iteration # 56     ecut=    80.00 Ry     beta= 0.20
     Davidson diagonalization with overlap
     ethr =  7.51E-09,  avg # of iterations =  1.1

     negative rho (up, down):  5.508E-04 0.000E+00

     total cpu time spent up to now is    11394.5 secs

     total energy              =   -1978.35855480 Ry
     estimated scf accuracy    <       0.00000605 Ry

     iteration # 57     ecut=    80.00 Ry     beta= 0.20
     Davidson diagonalization with overlap
     ethr =  5.82E-09,  avg # of iterations =  1.5

     negative rho (up, down):  5.527E-04 0.000E+00

     total cpu time spent up to now is    11584.9 secs

     total energy              =   -1978.35855496 Ry
     estimated scf accuracy    <       0.00000524 Ry

     iteration # 58     ecut=    80.00 Ry     beta= 0.20
     Davidson diagonalization with overlap
     ethr =  5.04E-09,  avg # of iterations =  1.0

     negative rho (up, down):  4.248E-04 0.000E+00

     total cpu time spent up to now is    11765.6 secs

     total energy              =   -1978.35855167 Ry
     estimated scf accuracy    <       0.00000492 Ry

     iteration # 59     ecut=    80.00 Ry     beta= 0.20
     Davidson diagonalization with overlap
     ethr =  4.73E-09,  avg # of iterations =  2.0

     negative rho (up, down):  4.043E-04 0.000E+00

     total cpu time spent up to now is    11958.1 secs

     total energy              =   -1978.35855193 Ry
     estimated scf accuracy    <       0.00000358 Ry

     iteration # 60     ecut=    80.00 Ry     beta= 0.20
     Davidson diagonalization with overlap
     ethr =  3.44E-09,  avg # of iterations =  1.9

     negative rho (up, down):  3.747E-04 0.000E+00

     total cpu time spent up to now is    12157.6 secs

     total energy              =   -1978.35855144 Ry
     estimated scf accuracy    <       0.00000297 Ry

     iteration # 61     ecut=    80.00 Ry     beta= 0.20
     Davidson diagonalization with overlap
     c_bands:  1 eigenvalues not converged
     ethr =  2.85E-09,  avg # of iterations =  1.9

     negative rho (up, down):  2.673E-04 0.000E+00

     total cpu time spent up to now is    12344.2 secs

     total energy              =   -1978.35855145 Ry
     estimated scf accuracy    <       0.00000261 Ry

     iteration # 62     ecut=    80.00 Ry     beta= 0.20
     Davidson diagonalization with overlap
     ethr =  2.51E-09,  avg # of iterations =  1.7

     negative rho (up, down):  1.740E-04 0.000E+00

     total cpu time spent up to now is    12539.3 secs

     total energy              =   -1978.35855061 Ry
     estimated scf accuracy    <       0.00000201 Ry

     iteration # 63     ecut=    80.00 Ry     beta= 0.20
     Davidson diagonalization with overlap
     ethr =  1.94E-09,  avg # of iterations =  2.7

     negative rho (up, down):  1.875E-04 0.000E+00

     total cpu time spent up to now is    12744.2 secs

     total energy              =   -1978.35855015 Ry
     estimated scf accuracy    <       0.00000146 Ry

     iteration # 64     ecut=    80.00 Ry     beta= 0.20
     Davidson diagonalization with overlap
     ethr =  1.41E-09,  avg # of iterations =  1.1

     negative rho (up, down):  2.195E-04 0.000E+00

     total cpu time spent up to now is    12926.7 secs

     total energy              =   -1978.35854953 Ry
     estimated scf accuracy    <       0.00000129 Ry

     iteration # 65     ecut=    80.00 Ry     beta= 0.20
     Davidson diagonalization with overlap
     ethr =  1.24E-09,  avg # of iterations =  1.1

     negative rho (up, down):  2.018E-04 0.000E+00

     total cpu time spent up to now is    13108.2 secs

     total energy              =   -1978.35854954 Ry
     estimated scf accuracy    <       0.00000112 Ry

     iteration # 66     ecut=    80.00 Ry     beta= 0.20
     Davidson diagonalization with overlap
     ethr =  1.08E-09,  avg # of iterations =  1.1

     negative rho (up, down):  1.832E-04 0.000E+00

     total cpu time spent up to now is    13292.5 secs

     total energy              =   -1978.35854956 Ry
     estimated scf accuracy    <       0.00000104 Ry

     iteration # 67     ecut=    80.00 Ry     beta= 0.20
     Davidson diagonalization with overlap
     ethr =  9.99E-10,  avg # of iterations =  1.3

     negative rho (up, down):  1.559E-04 0.000E+00

     total cpu time spent up to now is    13478.0 secs

     total energy              =   -1978.35854931 Ry
     estimated scf accuracy    <       0.00000087 Ry

     iteration # 68     ecut=    80.00 Ry     beta= 0.20
     Davidson diagonalization with overlap
     ethr =  8.38E-10,  avg # of iterations =  1.5

     negative rho (up, down):  2.005E-04 0.000E+00

     total cpu time spent up to now is    13668.4 secs

     total energy              =   -1978.35854881 Ry
     estimated scf accuracy    <       0.00000072 Ry

     iteration # 69     ecut=    80.00 Ry     beta= 0.20
     Davidson diagonalization with overlap
     ethr =  6.89E-10,  avg # of iterations =  1.0

     negative rho (up, down):  2.212E-04 0.000E+00

     total cpu time spent up to now is    13850.0 secs

     total energy              =   -1978.35854954 Ry
     estimated scf accuracy    <       0.00000063 Ry

     iteration # 70     ecut=    80.00 Ry     beta= 0.20
     Davidson diagonalization with overlap
     ethr =  6.04E-10,  avg # of iterations =  2.1

     negative rho (up, down):  1.881E-04 0.000E+00

     total cpu time spent up to now is    14055.6 secs

     total energy              =   -1978.35854992 Ry
     estimated scf accuracy    <       0.00000025 Ry

     iteration # 71     ecut=    80.00 Ry     beta= 0.20
     Davidson diagonalization with overlap
     ethr =  2.45E-10,  avg # of iterations =  1.6

     negative rho (up, down):  1.474E-04 0.000E+00

     total cpu time spent up to now is    14249.4 secs

     total energy              =   -1978.35854995 Ry
     estimated scf accuracy    <       0.00000018 Ry

     iteration # 72     ecut=    80.00 Ry     beta= 0.20
     Davidson diagonalization with overlap
     ethr =  1.71E-10,  avg # of iterations =  2.1

     negative rho (up, down):  1.449E-04 0.000E+00

     total cpu time spent up to now is    14454.7 secs

     total energy              =   -1978.35854983 Ry
     estimated scf accuracy    <       0.00000012 Ry

     iteration # 73     ecut=    80.00 Ry     beta= 0.20
     Davidson diagonalization with overlap
     ethr =  1.16E-10,  avg # of iterations =  2.0

     negative rho (up, down):  1.457E-04 0.000E+00

     total cpu time spent up to now is    14661.1 secs

     total energy              =   -1978.35854989 Ry
     estimated scf accuracy    <       0.00000006 Ry

     iteration # 74     ecut=    80.00 Ry     beta= 0.20
     Davidson diagonalization with overlap
     ethr =  5.54E-11,  avg # of iterations =  2.1

     negative rho (up, down):  1.546E-04 0.000E+00

     total cpu time spent up to now is    14864.1 secs

     total energy              =   -1978.35855012 Ry
     estimated scf accuracy    <       0.00000004 Ry

     iteration # 75     ecut=    80.00 Ry     beta= 0.20
     Davidson diagonalization with overlap
     ethr =  3.77E-11,  avg # of iterations =  1.9

     negative rho (up, down):  1.604E-04 0.000E+00

     total cpu time spent up to now is    15061.5 secs

     total energy              =   -1978.35855017 Ry
     estimated scf accuracy    <       0.00000002 Ry

     iteration # 76     ecut=    80.00 Ry     beta= 0.20
     Davidson diagonalization with overlap
     ethr =  2.34E-11,  avg # of iterations =  2.4

     negative rho (up, down):  1.604E-04 0.000E+00

     total cpu time spent up to now is    15281.5 secs

     total energy              =   -1978.35855020 Ry
     estimated scf accuracy    <       0.00000001 Ry

     iteration # 77     ecut=    80.00 Ry     beta= 0.20
     Davidson diagonalization with overlap
     ethr =  1.31E-11,  avg # of iterations =  2.0

     negative rho (up, down):  1.587E-04 0.000E+00

     total cpu time spent up to now is    15481.6 secs

     End of self-consistent calculation

          k = 0.0000 0.0000 0.0000 ( 35507 PWs)   bands (ev):

   -58.9005 -58.8822 -58.8523 -58.8023 -33.0745 -33.0559 -33.0269 -32.9767
   -32.8371 -32.8371 -32.8200 -32.8200 -32.7889 -32.7889 -32.7399 -32.7399
   -12.2439 -12.1569 -12.1458 -12.0481 -11.0092 -10.8700 -10.8511 -10.7171
    -4.0418  -3.7075  -3.6825  -3.3557  -0.6229  -0.6229  -0.6141  -0.6140
    -0.6038  -0.5771  -0.5771  -0.5354  -0.5354   0.0463   0.0786   0.4915
     0.4915   0.5050   0.5051   0.5371   0.5372   0.5830   0.5830   0.8199
     1.5975   1.8298   2.1312   2.4585   4.7232   4.7232   4.7645   4.7646
     4.7748   4.7748   4.8331   4.8331   4.9373   4.9374

          k = 0.0000 0.0722 0.0000 ( 35493 PWs)   bands (ev):

   -58.8989 -58.8806 -58.8508 -58.8008 -33.0714 -33.0528 -33.0239 -32.9736
   -32.8526 -32.8406 -32.8356 -32.8235 -32.8044 -32.7924 -32.7555 -32.7435
   -12.1843 -12.0975 -12.0865 -11.9890 -10.9816 -10.8451 -10.8258 -10.6939
    -3.9730  -3.6401  -3.6134  -3.2877  -0.7601  -0.7484  -0.7397  -0.7127
    -0.6695  -0.5607  -0.5515  -0.5149  -0.4729  -0.2152  -0.1972   0.1762
     0.3943   0.4084   0.4403   0.4867   0.5968   0.7007   0.7084   1.0606
     1.5995   1.8105   2.0967   2.3786   4.6477   4.6735   4.6947   4.7496
     4.7809   4.8080   4.8432   4.8608   4.8637   4.8913

          k = 0.0000 0.1443 0.0000 ( 35435 PWs)   bands (ev):

   -58.8945 -58.8762 -58.8464 -58.7963 -33.0628 -33.0442 -33.0152 -32.9650
   -32.8967 -32.8797 -32.8506 -32.8485 -32.8336 -32.8024 -32.7996 -32.7535
   -12.0103 -11.9244 -11.9137 -11.8168 -10.9010 -10.7726 -10.7523 -10.6266
    -3.7813  -3.4543  -3.4226  -3.1025  -1.1114  -1.0945  -1.0677  -1.0538
    -1.0100  -0.6710  -0.6314  -0.3815  -0.3714  -0.3390  -0.3358  -0.2928
     0.1430   0.1584   0.1899   0.2373   0.6570   0.8390   0.8673   1.2108
     1.5676   1.7216   1.9427   2.1215   4.3620   4.4105   4.4603   4.5156
     4.5453   4.5923   4.6648   4.6653   4.7197   4.7430

          k = 0.0000 0.2165 0.0000 ( 35345 PWs)   bands (ev):

   -58.8879 -58.8695 -58.8397 -58.7897 -33.0498 -33.0312 -33.0022 -32.9620
   -32.9520 -32.9451 -32.9139 -32.8656 -32.8651 -32.8486 -32.8174 -32.7685
   -11.7369 -11.6530 -11.6426 -11.5473 -10.7747 -10.6592 -10.6373 -10.5216
    -3.5215  -3.2134  -3.1752  -2.8761  -1.5481  -1.5168  -1.5013  -1.4696
    -1.3957  -1.1577  -1.0958  -0.8839  -0.1835  -0.1652  -0.1380  -0.1069
    -0.0964  -0.0876  -0.0578  -0.0164   0.5701   0.7924   0.8120   1.1295
     1.4186   1.5012   1.6209   1.7127   3.9860   4.1133   4.1806   4.4123
     4.4448   4.5167   4.5283   4.5677   4.5962   4.6132

          k = 0.0000 0.2887 0.0000 ( 35323 PWs)   bands (ev):

   -58.8800 -58.8617 -58.8319 -58.7818 -33.0383 -33.0344 -33.0215 -33.0158
   -32.9902 -32.9869 -32.9414 -32.9366 -32.8832 -32.8662 -32.8350 -32.7861
   -11.3894 -11.3099 -11.2998 -11.2079 -10.6152 -10.5170 -10.4933 -10.3907
    -3.3217  -3.0711  -3.0376  -2.8109  -1.9470  -1.8730  -1.8297  -1.8137
    -1.7116  -1.6488  -1.5388  -1.4229  -0.5116  -0.4930  -0.4630  -0.4132
     0.2165   0.2330   0.2653   0.3137   0.3549   0.5933   0.6013   0.8871
     1.1396   1.1823   1.2376   1.3031   3.8509   4.0457   4.1034   4.2567
     4.3239   4.3381   4.4117   4.4207   4.7864   4.8591

          k = 0.0000 0.3608 0.0000 ( 35299 PWs)   bands (ev):

   -58.8721 -58.8538 -58.8240 -58.7739 -33.1137 -33.0969 -33.0656 -33.0191
   -33.0169 -33.0004 -32.9715 -32.9212 -32.9008 -32.8838 -32.8526 -32.8037
   -11.0063 -10.9345 -10.9245 -10.8386 -10.4416 -10.3639 -10.3387 -10.2512
    -3.3587  -3.2045  -3.1929  -3.0619  -2.3115  -2.1884  -2.1160  -2.0221
    -1.9526  -1.9125  -1.8240  -1.7279  -0.7999  -0.7805  -0.7507  -0.7002
     0.1196   0.3557   0.3618   0.5356   0.5611   0.5902   0.6130   0.6452
     0.9193   0.9619   1.0088   1.0729   3.9659   4.1533   4.1707   4.2076
     4.2107   4.2251   4.2997   4.5053   5.1163   5.2193

          k = 0.0000 0.4330 0.0000 ( 35224 PWs)   bands (ev):

   -58.8655 -58.8471 -58.8173 -58.7673 -33.1769 -33.1602 -33.1288 -33.0802
   -33.0060 -32.9873 -32.9584 -32.9156 -32.9081 -32.8986 -32.8674 -32.8186
   -10.6424 -10.5822 -10.5719 -10.4953 -10.2801 -10.2240 -10.1984 -10.1256
    -3.5917  -3.5001  -3.4966  -3.4105  -2.6495  -2.5387  -2.5115  -2.4134
    -2.0648  -1.9635  -1.9393  -1.8093  -1.0207  -1.0006  -0.9710  -0.9200
    -0.0557   0.1704   0.1740   0.3979   0.7895   0.8281   0.8542   0.9181
     0.9390   1.0028   1.0445   1.1259   4.1476   4.1848   4.2063   4.2256
     4.2698   4.3940   4.4195   4.6457   5.4237   5.6199

          k = 0.0000 0.5052 0.0000 ( 35152 PWs)   bands (ev):

   -58.8610 -58.8426 -58.8128 -58.7628 -33.2188 -33.2022 -33.1707 -33.1222
   -32.9972 -32.9785 -32.9496 -32.9255 -32.9085 -32.8993 -32.8773 -32.8284
   -10.3701 -10.3234 -10.3123 -10.2471 -10.1619 -10.1243 -10.1003 -10.0383
    -3.8201  -3.7539  -3.7483  -3.6774  -2.8868  -2.8021  -2.7790  -2.6940
    -2.1680  -2.0615  -2.0461  -1.9219  -1.1584  -1.1379  -1.1084  -1.0571
    -0.1510   0.0630   0.0653   0.2672   0.9432   0.9941   1.0178   1.0899
     1.1274   1.2017   1.2287   1.3139   4.1963   4.2207   4.2463   4.3010
     4.5158   4.6238   4.6416   4.7809   5.6138   5.7894

          k = 0.0000-0.5774 0.0000 ( 35026 PWs)   bands (ev):

   -58.8594 -58.8411 -58.8113 -58.7612 -33.2335 -33.2169 -33.1854 -33.1368
   -32.9941 -32.9754 -32.9466 -32.9289 -32.9120 -32.8962 -32.8808 -32.8319
   -10.2665 -10.2270 -10.2150 -10.1566 -10.1174 -10.0879 -10.0656 -10.0071
    -3.9121  -3.8515  -3.8444  -3.7767  -2.9718  -2.8982  -2.8738  -2.7930
    -2.2161  -2.1103  -2.0953  -1.9742  -1.2052  -1.1845  -1.1550  -1.1037
    -0.1795   0.0284   0.0308   0.2232   0.9931   1.0488   1.0718   1.1472
     1.2437   1.3083   1.3258   1.4012   4.2248   4.2452   4.2728   4.3246
     4.6697   4.7319   4.7499   4.8278   5.6728   5.8323

          k = 0.0625 0.1083 0.0000 ( 35467 PWs)   bands (ev):

   -58.8959 -58.8776 -58.8478 -58.7978 -33.0656 -33.0470 -33.0180 -32.9678
   -32.8820 -32.8650 -32.8478 -32.8338 -32.8308 -32.7996 -32.7849 -32.7507
   -12.0675 -11.9812 -11.9704 -11.8733 -10.9275 -10.7963 -10.7764 -10.6486
    -3.8422  -3.5128  -3.4828  -3.1604  -1.0007  -0.9865  -0.9590  -0.9503
    -0.9057  -0.5314  -0.4982  -0.4418  -0.4322  -0.3960  -0.3539  -0.1742
     0.1794   0.1939   0.2251   0.2717   0.6937   0.8513   0.8774   1.2146
     1.5859   1.7566   2.0040   2.2099   4.4847   4.5066   4.5334   4.5485
     4.5531   4.6231   4.6388   4.7126   4.7358   4.8040

          k = 0.0625 0.1804 0.0000 ( 35370 PWs)   bands (ev):

   -58.8904 -58.8721 -58.8423 -58.7922 -33.0548 -33.0362 -33.0072 -32.9569
   -32.9355 -32.9185 -32.8873 -32.8616 -32.8445 -32.8384 -32.8133 -32.7645
   -11.8436 -11.7588 -11.7483 -11.6523 -10.8239 -10.7032 -10.6819 -10.5623
    -3.6123  -3.2942  -3.2579  -2.9469  -1.3848  -1.3646  -1.3415  -1.3049
    -1.2465  -0.9409  -0.8881  -0.6326  -0.2261  -0.2147  -0.1939  -0.1724
    -0.1715  -0.1486  -0.1275  -0.0936   0.7449   0.9296   0.9595   1.2550
     1.4986   1.6006   1.7651   1.8734   4.0952   4.1906   4.2476   4.3993
     4.4606   4.4763   4.5245   4.5804   4.6232   4.6862

          k = 0.0625 0.2526 0.0000 ( 35362 PWs)   bands (ev):

   -58.8832 -58.8648 -58.8350 -58.7850 -33.0406 -33.0220 -33.0046 -32.9930
   -32.9878 -32.9565 -32.9428 -32.9077 -32.8795 -32.8625 -32.8313 -32.7824
   -11.5326 -11.4509 -11.4408 -11.3472 -10.6803 -10.5748 -10.5518 -10.4437
    -3.3688  -3.0854  -3.0463  -2.7779  -1.7773  -1.7256  -1.7242  -1.6853
    -1.5759  -1.3962  -1.3180  -1.1560  -0.5641  -0.5458  -0.5126  -0.4614
     0.0420   0.0574   0.0889   0.1362   0.6427   0.8346   0.8474   1.1035
     1.2824   1.3246   1.4003   1.4627   3.8302   3.9988   4.0521   4.2539
     4.3768   4.4057   4.4374   4.4843   4.5901   4.6154

          k = 0.0625 0.3248 0.0000 ( 35310 PWs)   bands (ev):

   -58.8753 -58.8570 -58.8271 -58.7771 -33.0787 -33.0619 -33.0305 -33.0252
   -33.0066 -32.9818 -32.9777 -32.9274 -32.8989 -32.8819 -32.8507 -32.8018
   -11.1657 -11.0901 -11.0801 -10.9913 -10.5124 -10.4258 -10.4011 -10.3071
    -3.2797  -3.0801  -3.0585  -2.8879  -2.1153  -2.0216  -1.9006  -1.8831
    -1.8802  -1.8184  -1.6959  -1.6540  -0.8694  -0.8381  -0.8044  -0.7429
     0.2760   0.3005   0.3216   0.3747   0.4318   0.6071   0.6157   0.8378
     1.0497   1.0778   1.1167   1.1740   3.7915   3.9803   4.0143   4.1694
     4.3083   4.3361   4.3856   4.5023   4.8465   4.9233

          k = 0.0625 0.3969 0.0000 ( 35243 PWs)   bands (ev):

   -58.8680 -58.8497 -58.8199 -58.7698 -33.1463 -33.1296 -33.0982 -33.0496
   -33.0110 -32.9923 -32.9634 -32.9167 -32.9131 -32.8997 -32.8685 -32.8196
   -10.7890 -10.7231 -10.7131 -10.6320 -10.3425 -10.2770 -10.2514 -10.1723
    -3.4344  -3.3171  -3.3119  -3.2084  -2.4842  -2.3716  -2.3399  -2.2445
    -1.9929  -1.9014  -1.8724  -1.7407  -1.0686  -1.0320  -1.0013  -0.9388
     0.1671   0.3465   0.3564   0.4212   0.4482   0.4805   0.5054   0.5952
     1.0593   1.0831   1.1165   1.1704   3.9230   4.0726   4.0906   4.2005
     4.3524   4.3942   4.4308   4.5909   5.1855   5.3812

          k = 0.0625 0.4691 0.0000 ( 35169 PWs)   bands (ev):

   -58.8624 -58.8441 -58.8143 -58.7642 -33.1976 -33.1810 -33.1495 -33.1009
   -33.0001 -32.9814 -32.9525 -32.9303 -32.9133 -32.9021 -32.8821 -32.8333
   -10.4657 -10.4130 -10.4023 -10.3321 -10.1995 -10.1545 -10.1295 -10.0635
    -3.6721  -3.5957  -3.5914  -3.5146  -2.8005  -2.7147  -2.6965  -2.6126
    -2.0956  -1.9849  -1.9736  -1.8440  -1.1761  -1.1448  -1.1204  -1.0621
    -0.0246   0.1601   0.1630   0.3415   0.5444   0.5881   0.6078   0.6823
     1.2328   1.2638   1.2933   1.3533   4.1137   4.1895   4.2057   4.2781
     4.4887   4.5554   4.5816   4.7218   5.4976   5.6588

          k = 0.0625 0.5413 0.0000 ( 35128 PWs)   bands (ev):

   -58.8594 -58.8411 -58.8113 -58.7612 -33.2252 -33.2086 -33.1771 -33.1286
   -32.9942 -32.9754 -32.9466 -32.9376 -32.9207 -32.8962 -32.8894 -32.8406
   -10.2723 -10.2313 -10.2196 -10.1602 -10.1150 -10.0846 -10.0618 -10.0030
    -3.8321  -3.7705  -3.7632  -3.6949  -2.9790  -2.9103  -2.8914  -2.8132
    -2.1849  -2.0748  -2.0630  -1.9400  -1.2192  -1.1956  -1.1752  -1.1206
    -0.1296   0.0561   0.0612   0.2347   0.6345   0.6907   0.7057   0.7805
     1.3867   1.4291   1.4531   1.5192   4.2247   4.2485   4.2688   4.3215
     4.6644   4.7301   4.7499   4.8388   5.7194   5.8404

          k = 0.1250 0.2165 0.0000 ( 35331 PWs)   bands (ev):

   -58.8843 -58.8659 -58.8361 -58.7861 -33.0428 -33.0241 -32.9952 -32.9906
   -32.9737 -32.9449 -32.9424 -32.8937 -32.8804 -32.8634 -32.8322 -32.7833
   -11.5817 -11.4995 -11.4892 -11.3952 -10.7026 -10.5945 -10.5718 -10.4618
    -3.3880  -3.0935  -3.0530  -2.7701  -1.7054  -1.6737  -1.6649  -1.6180
    -1.4802  -1.2342  -1.1627  -0.9689  -0.7025  -0.6892  -0.6501  -0.6023
    -0.0374  -0.0224   0.0080   0.0553   0.8279   0.9926   1.0155   1.2340
     1.3494   1.3821   1.4764   1.5318   3.8179   3.9749   4.0223   4.2142
     4.3691   4.4007   4.4338   4.4535   4.4631   4.5202

          k = 0.1250 0.2887 0.0000 ( 35357 PWs)   bands (ev):

   -58.8770 -58.8587 -58.8288 -58.7788 -33.0539 -33.0371 -33.0286 -33.0099
   -33.0058 -32.9810 -32.9571 -32.9307 -32.9037 -32.8867 -32.8555 -32.8066
   -11.2496 -11.1722 -11.1622 -11.0720 -10.5491 -10.4577 -10.4334 -10.3359
    -3.2312  -2.9983  -2.9689  -2.7640  -1.9580  -1.9013  -1.8437  -1.8080
    -1.7051  -1.6377  -1.5376  -1.4725  -1.1331  -1.0833  -1.0355  -0.9244
     0.0655   0.0898   0.1127   0.1667   0.7548   0.8959   0.9017   1.0734
     1.1566   1.1640   1.1966   1.2481   3.6572   3.8540   3.8903   4.0895
     4.3680   4.4010   4.4137   4.4762   4.6016   4.6220

          k = 0.1250 0.3608 0.0000 ( 35341 PWs)   bands (ev):

   -58.8697 -58.8514 -58.8216 -58.7715 -33.1162 -33.0994 -33.0680 -33.0194
   -33.0143 -32.9957 -32.9668 -32.9273 -32.9165 -32.9104 -32.8791 -32.8303
   -10.8851 -10.8158 -10.8059 -10.7221 -10.3815 -10.3098 -10.2842 -10.2008
    -3.2786  -3.1301  -3.1213  -2.9944  -2.2842  -2.1932  -2.1600  -2.0922
    -1.8997  -1.8215  -1.8039  -1.6769  -1.3282  -1.2344  -1.1758  -1.0565
     0.0075   0.0423   0.0594   0.1187   0.5339   0.6487   0.6579   0.7961
     1.1119   1.1328   1.1584   1.2113   3.6925   3.9115   3.9374   4.1570
     4.4386   4.4652   4.4921   4.5770   4.8414   4.9201

          k = 0.1250 0.4330 0.0000 ( 35215 PWs)   bands (ev):

   -58.8636 -58.8452 -58.8154 -58.7653 -33.1683 -33.1516 -33.1202 -33.0716
   -33.0023 -32.9836 -32.9547 -32.9475 -32.9306 -32.9043 -32.8993 -32.8505
   -10.5412 -10.4837 -10.4734 -10.3993 -10.2249 -10.1739 -10.1482 -10.0785
    -3.4592  -3.3632  -3.3601  -3.2706  -2.6967  -2.6315  -2.6225  -2.5514
    -1.9710  -1.8567  -1.8485  -1.7225  -1.3582  -1.2612  -1.2184  -1.1129
    -0.0473   0.0125   0.0239   0.1000   0.2586   0.3659   0.3770   0.5036
     1.2507   1.2725   1.3001   1.3531   3.8990   4.1035   4.1215   4.3262
     4.5471   4.5666   4.6046   4.6668   5.1509   5.3140

          k = 0.1250 0.5052 0.0000 ( 35141 PWs)   bands (ev):

   -58.8594 -58.8411 -58.8113 -58.7612 -33.2029 -33.1862 -33.1547 -33.1062
   -32.9942 -32.9755 -32.9610 -32.9466 -32.9441 -32.9128 -32.8962 -32.8640
   -10.2860 -10.2418 -10.2306 -10.1688 -10.1093 -10.0766 -10.0526  -9.9928
    -3.6223  -3.5542  -3.5471  -3.4751  -2.9919  -2.9393  -2.9314  -2.8601
    -2.0896  -1.9681  -1.9650  -1.8416  -1.3103  -1.2343  -1.2111  -1.1309
    -0.0512   0.0353   0.0630   0.0863   0.1315   0.1407   0.1780   0.2922
     1.4376   1.4692   1.4966   1.5564   4.1178   4.2151   4.2355   4.3303
     4.6976   4.7525   4.7733   4.8679   5.4248   5.5400

          k = 0.1250 0.5774 0.0000 ( 35180 PWs)   bands (ev):

   -58.8580 -58.8396 -58.8098 -58.7598 -33.2149 -33.1983 -33.1668 -33.1183
   -32.9913 -32.9726 -32.9657 -32.9488 -32.9438 -32.9176 -32.8934 -32.8688
   -10.1895 -10.1523 -10.1401 -10.0878 -10.0637 -10.0410 -10.0186  -9.9622
    -3.6856  -3.6274  -3.6170  -3.5502  -3.0972  -3.0479  -3.0398  -2.9680
    -2.1497  -2.0308  -2.0239  -1.9027  -1.2634  -1.2143  -1.2043  -1.1365
    -0.1073   0.0255   0.0524   0.0606   0.0918   0.1102   0.1619   0.2365
     1.5299   1.5699   1.5964   1.6617   4.1922   4.2168   4.2352   4.2900
     4.8090   4.8796   4.8951   4.9685   5.5372   5.6541

          k = 0.1875 0.3248 0.0000 ( 35337 PWs)   bands (ev):

   -58.8703 -58.8520 -58.8222 -58.7721 -33.1026 -33.0858 -33.0545 -33.0155
   -33.0058 -32.9968 -32.9680 -32.9341 -32.9176 -32.9171 -32.8859 -32.8371
   -10.9184 -10.8480 -10.8381 -10.7534 -10.3948 -10.3209 -10.2953 -10.2104
    -3.2124  -3.0480  -3.0372  -2.8975  -2.1556  -2.0862  -2.0565  -2.0213
    -1.8543  -1.7798  -1.7726  -1.6816  -1.4695  -1.3642  -1.2743  -1.1262
    -0.1665  -0.1312  -0.1161  -0.0551   0.6985   0.7897   0.7952   0.9060
     1.1177   1.1431   1.1673   1.2233   3.6045   3.8475   3.8721   4.1306
     4.4627   4.4908   4.5016   4.5586   4.6973   4.7494

          k = 0.1875 0.3969 0.0000 ( 35241 PWs)   bands (ev):

   -58.8642 -58.8458 -58.8160 -58.7659 -33.1445 -33.1278 -33.0964 -33.0478
   -33.0035 -32.9847 -32.9649 -32.9559 -32.9480 -32.9167 -32.9055 -32.8679
   -10.5826 -10.5225 -10.5125 -10.4363 -10.2376 -10.1831 -10.1570 -10.0851
    -3.2982  -3.1812  -3.1791  -3.0746  -2.6036  -2.5708  -2.5665  -2.5083
    -1.8354  -1.7571  -1.6928  -1.6371  -1.4674  -1.3775  -1.2859  -1.1519
    -0.4847  -0.4388  -0.4240  -0.3568   0.4700   0.5376   0.5403   0.6266
     1.2207   1.2472   1.2759   1.3340   3.7582   4.0278   4.0420   4.3589
     4.5742   4.5941   4.6149   4.6683   4.8769   5.0579

          k = 0.1875 0.4691 0.0000 ( 35167 PWs)   bands (ev):

   -58.8594 -58.8411 -58.8113 -58.7612 -33.1750 -33.1583 -33.1269 -33.0783
   -32.9942 -32.9899 -32.9755 -32.9729 -32.9466 -32.9417 -32.8963 -32.8929
   -10.2993 -10.2522 -10.2414 -10.1773 -10.1037 -10.0686 -10.0436  -9.9827
    -3.3844  -3.2974  -3.2925  -3.2099  -3.0003  -2.9682  -2.9659  -2.9031
    -1.9200  -1.7956  -1.7843  -1.6979  -1.4092  -1.2855  -1.2444  -1.1192
    -0.6694  -0.5871  -0.5754  -0.4748   0.1695   0.2477   0.2550   0.3402
     1.4216   1.4443   1.4742   1.5281   3.9756   4.1499   4.1604   4.3287
     4.7390   4.7926   4.8037   4.9028   5.0862   5.2045

          k = 0.1875 0.5413 0.0000 ( 35162 PWs)   bands (ev):

   -58.8569 -58.8385 -58.8087 -58.7587 -33.1910 -33.1743 -33.1429 -33.0943
   -33.0038 -32.9892 -32.9869 -32.9705 -32.9556 -32.9416 -32.9068 -32.8912
   -10.1324 -10.0965 -10.0843 -10.0398 -10.0173 -10.0028  -9.9793  -9.9250
    -3.4217  -3.3619  -3.3448  -3.2773  -3.2164  -3.1855  -3.1787  -3.1144
    -2.0630  -1.9357  -1.9310  -1.8201  -1.2815  -1.1848  -1.1773  -1.0838
    -0.7135  -0.6057  -0.5940  -0.4858  -0.0388   0.0369   0.0527   0.1393
     1.6058   1.6360   1.6644   1.7240   4.0447   4.0869   4.1081   4.1726
     4.9264   5.0229   5.0513   5.1456   5.1979   5.3020

          k = 0.2500 0.4330 0.0000 ( 35195 PWs)   bands (ev):

   -58.8594 -58.8411 -58.8113 -58.7612 -33.1605 -33.1438 -33.1124 -33.0638
   -33.0048 -32.9942 -32.9879 -32.9755 -32.9566 -32.9466 -32.9078 -32.8963
   -10.3047 -10.2564 -10.2458 -10.1808 -10.1014 -10.0652 -10.0399  -9.9785
    -3.2758  -3.1745  -3.1715  -3.0857  -3.0012  -2.9826  -2.9710  -2.9207
    -1.7385  -1.6918  -1.6149  -1.6078  -1.3999  -1.3093  -1.2352  -1.1029
    -0.9846  -0.9512  -0.9298  -0.8765   0.2394   0.2907   0.2983   0.3756
     1.4049   1.4265   1.4582   1.5115   3.9155   4.1168   4.1238   4.3199
     4.7498   4.8054   4.8109   4.9095   4.9578   5.1006

          k = 0.2500 0.5052 0.0000 ( 35193 PWs)   bands (ev):

   -58.8563 -58.8379 -58.8081 -58.7581 -33.1652 -33.1486 -33.1171 -33.0685
   -33.0373 -33.0205 -32.9892 -32.9880 -32.9693 -32.9404 -32.9404 -32.8901
   -10.1043 -10.0683 -10.0562 -10.0154  -9.9909  -9.9801  -9.9556  -9.9026
    -3.3087  -3.2775  -3.2749  -3.2205  -3.1566  -3.0844  -3.0790  -2.9990
    -1.8924  -1.7692  -1.7642  -1.7064  -1.3438  -1.2778  -1.2115  -1.2054
    -1.1533  -1.1490  -1.0565  -0.9871  -0.0379   0.0261   0.0301   0.1146
     1.6456   1.6667   1.6970   1.7496   3.9124   3.9733   3.9927   4.0720
     4.8940   4.9650   4.9877   5.0444   5.1780   5.2541

          k = 0.2500 0.5774 0.0000 ( 35190 PWs)   bands (ev):

   -58.8552 -58.8368 -58.8070 -58.7569 -33.1651 -33.1484 -33.1169 -33.0684
   -33.0506 -33.0337 -33.0024 -32.9859 -32.9671 -32.9537 -32.9383 -32.8879
   -10.0294 -10.0000  -9.9876  -9.9711  -9.9488  -9.9413  -9.9198  -9.8749
    -3.4081  -3.3789  -3.3783  -3.3200  -3.0721  -3.0216  -3.0144  -2.9488
    -2.0471  -1.9322  -1.9210  -1.8334  -1.3813  -1.2756  -1.2423  -1.1795
    -1.1034  -1.0593  -1.0098  -0.9535  -0.1578  -0.1096  -0.0982  -0.0220
     1.7722   1.7969   1.8258   1.8815   3.8402   3.8587   3.8852   3.9352
     4.9203   4.9827   5.0248   5.0500   5.3346   5.3757

          k = 0.3125 0.5413 0.0000 ( 35172 PWs)   bands (ev):

   -58.8546 -58.8362 -58.8064 -58.7563 -33.1440 -33.1274 -33.0959 -33.0790
   -33.0622 -33.0473 -33.0309 -32.9847 -32.9821 -32.9659 -32.9371 -32.8867
    -9.9928  -9.9664  -9.9561  -9.9460  -9.9289  -9.9176  -9.8939  -9.8559
    -3.4759  -3.4505  -3.4458  -3.3884  -2.8483  -2.7832  -2.7772  -2.7050
    -2.0388  -2.0272  -1.9930  -1.9606  -1.5586  -1.5298  -1.5263  -1.5003
    -1.0536  -0.9859  -0.9657  -0.8962  -0.2459  -0.1881  -0.1727  -0.0923
     1.8542   1.8753   1.9044   1.9569   3.7241   3.7414   3.7704   3.8196
     4.8572   4.8887   4.9476   4.9600   5.4312   5.5018

     the Fermi energy is     2.9677 ev

!    total energy              =   -1978.35855030 Ry
     total all-electron energy =    -38771.679395 Ry
     estimated scf accuracy    <          9.5E-09 Ry
     smearing contrib. (-TS)   =       0.00003333 Ry
     internal energy E=F+TS    =   -1978.35858363 Ry

     The total energy is F=E-TS. E is the sum of the following terms:
     one-electron contribution =  -14019.29042361 Ry
     hartree contribution      =    7031.24245207 Ry
     xc contribution           =    -119.22515491 Ry
     ewald contribution        =    6398.76725738 Ry
     one-center paw contrib.   =   -1269.85271455 Ry

     convergence has been achieved in  77 iterations

     Writing all to output data dir ./tmp/cleave2/cleave_dz016_dz3p2/mos2_cleave.save/ :
     XML data file, charge density, pseudopotentials, collected wavefunctions

     init_run     :    122.59s CPU    124.74s WALL (       1 calls)
     electrons    :  15099.25s CPU  15356.78s WALL (       1 calls)

     Called by init_run:
     wfcinit      :     75.64s CPU     76.32s WALL (       1 calls)
     potinit      :     43.39s CPU     43.84s WALL (       1 calls)
     hinit0       :      0.35s CPU      0.37s WALL (       1 calls)

     Called by electrons:
     c_bands      :  12485.61s CPU  12561.09s WALL (      78 calls)
     sum_band     :   1988.78s CPU   2073.02s WALL (      78 calls)
     v_of_rho     :    292.25s CPU    317.48s WALL (      78 calls)
     newd         :    238.39s CPU    310.71s WALL (      78 calls)
     PAW_pot      :     31.42s CPU     31.43s WALL (      78 calls)
     mix_rho      :    106.14s CPU    107.78s WALL (      78 calls)
     vdW_kernel   :     39.77s CPU     39.79s WALL (       1 calls)

     Called by c_bands:
     init_us_2    :     58.76s CPU     58.82s WALL (    4710 calls)
     init_us_2:cp :     58.75s CPU     58.81s WALL (    4710 calls)
     cegterg      :  11914.49s CPU  11989.37s WALL (    2340 calls)

     Called by *egterg:
     cdiaghg      :     17.27s CPU     17.29s WALL (    6906 calls)
     h_psi        :   6430.22s CPU   6459.28s WALL (    6966 calls)
     s_psi        :   1884.70s CPU   1885.23s WALL (    6966 calls)
     g_psi        :     27.06s CPU     27.07s WALL (    4596 calls)

     Called by h_psi:
     h_psi:calbec :   2449.49s CPU   2450.06s WALL (    6966 calls)
     vloc_psi     :   2082.86s CPU   2084.26s WALL (    6966 calls)
     add_vuspsi   :   1884.86s CPU   1885.34s WALL (    6966 calls)

     General routines
     calbec       :   3595.36s CPU   3596.25s WALL (    9306 calls)
     fft          :     96.60s CPU     96.63s WALL (    4913 calls)
     ffts         :     52.02s CPU     52.04s WALL (    9504 calls)
     fftw         :   1898.63s CPU   1899.63s WALL (  763726 calls)
     interpolate  :      2.29s CPU      2.29s WALL (      78 calls)

     Parallel routines

     PWSCF        :      4h13m CPU      4h18m WALL


   This run was terminated on:   8:19:24  12Jun2026            

=------------------------------------------------------------------------------=
   JOB DONE.
=------------------------------------------------------------------------------=
Note: The following floating-point exceptions are signalling: IEEE_UNDERFLOW_FLAG IEEE_DENORMAL
