Authorization required, but no authorization protocol specified

Authorization required, but no authorization protocol specified

Authorization required, but no authorization protocol specified

Authorization required, but no authorization protocol specified

Authorization required, but no authorization protocol specified

Authorization required, but no authorization protocol specified

Authorization required, but no authorization protocol specified

Authorization required, but no authorization protocol specified


     Program PWSCF v.7.3 starts on 10Jun2026 at  2:26:41 

     This program is part of the open-source Quantum ESPRESSO suite
     for quantum simulation of materials; please cite
         "P. Giannozzi et al., J. Phys.:Condens. Matter 21 395502 (2009);
         "P. Giannozzi et al., J. Phys.:Condens. Matter 29 465901 (2017);
         "P. Giannozzi et al., J. Chem. Phys. 152 154105 (2020);
          URL http://www.quantum-espresso.org", 
     in publications or presentations arising from this work. More details at
     http://www.quantum-espresso.org/quote

     Parallel version (MPI), running on     1 processors

     MPI processes distributed on     1 nodes
     62388 MiB available memory on the printing compute node when the environment starts

     Waiting for input...
     Reading input from standard input

     Current dimensions of program PWSCF are:
     Max number of different atomic species (ntypx) = 10
     Max number of k-points (npk) =  40000
     Max angular momentum in pseudopotentials (lmaxx) =  4
     file Mo.pbe-spn-kjpaw_psl.1.0.0.UPF: wavefunction(s)  4S 4D renormalized
     file S.pbe-n-kjpaw_psl.1.0.0.UPF: wavefunction(s)  3S 3P renormalized

     IMPORTANT: XC functional enforced from input :
     Exchange-correlation= VDW-DF2-B86R
                           (   1   4  26   0   2   0   0)
     Any further DFT definition will be discarded
     Please, verify this is what you really want


     Subspace diagonalization in iterative solution of the eigenvalue problem:
     a serial algorithm will be used


     G-vector sticks info
     --------------------
     sticks:   dense  smooth     PW     G-vecs:    dense   smooth      PW
     Sum        1573     769    223               797393   281171   43435

     Using Slab Decomposition



     bravais-lattice index     =            4
     lattice parameter (alat)  =       5.9715  a.u.
     unit-cell volume          =    2917.9067 (a.u.)^3
     number of atoms/cell      =           12
     number of atomic types    =            2
     number of electrons       =       104.00
     number of Kohn-Sham states=           62
     kinetic-energy cutoff     =      80.0000  Ry
     charge density cutoff     =     640.0000  Ry
     scf convergence threshold =      1.0E-08
     mixing beta               =       0.2000
     number of iterations used =            8  local-TF  mixing
     Exchange-correlation= VDW-DF2-B86R
                           (   1   4  26   0   2   0   0)

     celldm(1)=   5.971535  celldm(2)=   0.000000  celldm(3)=  15.822785
     celldm(4)=   0.000000  celldm(5)=   0.000000  celldm(6)=   0.000000

     crystal axes: (cart. coord. in units of alat)
               a(1) = (   1.000000   0.000000   0.000000 )  
               a(2) = (  -0.500000   0.866025   0.000000 )  
               a(3) = (   0.000000   0.000000  15.822785 )  

     reciprocal axes: (cart. coord. in units 2 pi/alat)
               b(1) = (  1.000000  0.577350 -0.000000 )  
               b(2) = (  0.000000  1.154701  0.000000 )  
               b(3) = (  0.000000 -0.000000  0.063200 )  


     PseudoPot. # 1 for Mo read from file:
     ./pseudo/Mo.pbe-spn-kjpaw_psl.1.0.0.UPF
     MD5 check sum: 4396e0c640fcce5c25f020efccf1ab12
     Pseudo is Projector augmented-wave + core cor, Zval = 14.0
     Generated using &quot;atomic&quot; code by A. Dal Corso  v.6.3
     Shape of augmentation charge: PSQ
     Using radial grid of 1229 points,  6 beta functions with: 
                l(1) =   0
                l(2) =   0
                l(3) =   1
                l(4) =   1
                l(5) =   2
                l(6) =   2
     Q(r) pseudized with 0 coefficients 


     PseudoPot. # 2 for S  read from file:
     ./pseudo/S.pbe-n-kjpaw_psl.1.0.0.UPF
     MD5 check sum: fb45dfebcf3e72a4e1bd4a866ec2e262
     Pseudo is Projector augmented-wave + core cor, Zval =  6.0
     Generated using &quot;atomic&quot; code by A. Dal Corso  v.6.3
     Shape of augmentation charge: PSQ
     Using radial grid of 1151 points,  6 beta functions with: 
                l(1) =   0
                l(2) =   0
                l(3) =   1
                l(4) =   1
                l(5) =   2
                l(6) =   2
     Q(r) pseudized with 0 coefficients 


     atomic species   valence    mass     pseudopotential
     Mo               14.00    95.96000     Mo( 1.00)
     S                 6.00    32.06000     S ( 1.00)

      6 Sym. Ops. (no inversion) found



   Cartesian axes

     site n.     atom                  positions (alat units)
         1        S      tau(   1) = (  -0.0000005   0.5773503  -0.9967195  )
         2        Mo     tau(   2) = (   0.0000000   0.0000000  -0.4993332  )
         3        S      tau(   3) = (  -0.0000005   0.5773503  -0.0017175  )
         4        S      tau(   4) = (   0.5000003   0.2886747   0.9835827  )
         5        Mo     tau(   5) = (  -0.0000005   0.5773503   1.4818950  )
         6        S      tau(   6) = (   0.5000003   0.2886747   1.9798512  )
         7        S      tau(   7) = (   0.0000000   0.0000000   2.9586848  )
         8        Mo     tau(   8) = (   0.5000003   0.2886747   3.4569999  )
         9        S      tau(   9) = (   0.0000000   0.0000000   3.9548385  )
        10        S      tau(  10) = (  -0.0000005   0.5773503   5.0473439  )
        11        Mo     tau(  11) = (   0.0000000   0.0000000   5.5449805  )
        12        S      tau(  12) = (  -0.0000005   0.5773503   6.0421146  )

     number of k points=    30  Methfessel-Paxton smearing, width (Ry)=  0.0200
                       cart. coord. in units 2pi/alat
        k(    1) = (   0.0000000   0.0000000   0.0000000), wk =   0.0078125
        k(    2) = (   0.0000000   0.0721688   0.0000000), wk =   0.0468750
        k(    3) = (   0.0000000   0.1443376   0.0000000), wk =   0.0468750
        k(    4) = (   0.0000000   0.2165064   0.0000000), wk =   0.0468750
        k(    5) = (   0.0000000   0.2886751   0.0000000), wk =   0.0468750
        k(    6) = (   0.0000000   0.3608439   0.0000000), wk =   0.0468750
        k(    7) = (   0.0000000   0.4330127   0.0000000), wk =   0.0468750
        k(    8) = (   0.0000000   0.5051815   0.0000000), wk =   0.0468750
        k(    9) = (   0.0000000  -0.5773503   0.0000000), wk =   0.0234375
        k(   10) = (   0.0625000   0.1082532   0.0000000), wk =   0.0468750
        k(   11) = (   0.0625000   0.1804220   0.0000000), wk =   0.0937500
        k(   12) = (   0.0625000   0.2525907   0.0000000), wk =   0.0937500
        k(   13) = (   0.0625000   0.3247595   0.0000000), wk =   0.0937500
        k(   14) = (   0.0625000   0.3969283   0.0000000), wk =   0.0937500
        k(   15) = (   0.0625000   0.4690971   0.0000000), wk =   0.0937500
        k(   16) = (   0.0625000   0.5412659   0.0000000), wk =   0.0937500
        k(   17) = (   0.1250000   0.2165064   0.0000000), wk =   0.0468750
        k(   18) = (   0.1250000   0.2886751   0.0000000), wk =   0.0937500
        k(   19) = (   0.1250000   0.3608439   0.0000000), wk =   0.0937500
        k(   20) = (   0.1250000   0.4330127   0.0000000), wk =   0.0937500
        k(   21) = (   0.1250000   0.5051815   0.0000000), wk =   0.0937500
        k(   22) = (   0.1250000   0.5773503   0.0000000), wk =   0.0468750
        k(   23) = (   0.1875000   0.3247595   0.0000000), wk =   0.0468750
        k(   24) = (   0.1875000   0.3969283   0.0000000), wk =   0.0937500
        k(   25) = (   0.1875000   0.4690971   0.0000000), wk =   0.0937500
        k(   26) = (   0.1875000   0.5412659   0.0000000), wk =   0.0937500
        k(   27) = (   0.2500000   0.4330127   0.0000000), wk =   0.0468750
        k(   28) = (   0.2500000   0.5051815   0.0000000), wk =   0.0937500
        k(   29) = (   0.2500000   0.5773503   0.0000000), wk =   0.0468750
        k(   30) = (   0.3125000   0.5412659   0.0000000), wk =   0.0468750

     Dense  grid:   797393 G-vectors     FFT dimensions: (  50,  50, 768)

     Smooth grid:   281171 G-vectors     FFT dimensions: (  36,  36, 540)

     Estimated max dynamical RAM per process >       3.90 GB

     Initial potential from superposition of free atoms

     starting charge     103.9962, renormalised to     104.0000

     negative rho (up, down):  1.571E-04 0.000E+00


     %%%%%%%%%%%%%%%%%%%%%%%%%%%%%%%%%%%%%%%%%%%%%%%%%%%%%%%%%%%%%%%%%%%%%%%%
     %                                                                      %
     % You are using vdW-DF, which was implemented by the Thonhauser group. %
     % Please cite the following two papers that made this development      %
     % possible and the two reviews that describe the various versions:     %
     %                                                                      %
     %   T. Thonhauser et al., PRL 115, 136402 (2015).                      %
     %   T. Thonhauser et al., PRB 76, 125112 (2007).                       %
     %   K. Berland et al., Rep. Prog. Phys. 78, 066501 (2015).             %
     %   D.C. Langreth et al., J. Phys.: Condens. Matter 21, 084203 (2009). %
     %                                                                      %
     % If you are calculating stress with vdW-DF, please also cite:         %
     %                                                                      %
     %   R. Sabatini et al., J. Phys.: Condens. Matter 24, 424209 (2012).   %
     %                                                                      %
     %%%%%%%%%%%%%%%%%%%%%%%%%%%%%%%%%%%%%%%%%%%%%%%%%%%%%%%%%%%%%%%%%%%%%%%%

     %%%%%%%%%%%%%%%%%%%%%%%%%%%%%%%%%%%%%%%%%%%%%%%%%%%%%%%%%%%%%%%%%%%%%%%%
     %                                                                      %
     %  vdW-DF NEWS:                                                        %
     %                                                                      %
     %  * vdW-DF3 is now available. DOI: 10.1021/acs.jctc.0c00471           %
     %    use with input_dft = 'vdW-DF3-opt1' or 'vdW-DF3-opt2'             %
     %                                                                      %
     %  * Unscreened and range-separated hybrid vdW-DF-cx functionals       %
     %    DOI: 10.1063/1.4986522 and 10.1088/1361-648X/ac2ad2               %
     %    use with input_dft = 'vdW-DF-cx0'    and 'vdW-DF-ahcx'            %
     %  * Unscreened and range-separated hybrid vdW-DF2-b86r functionals    %
     %    DOI: 10.1063/1.4986522 and DOI: 10.1103/PhysRevX.12.041003        %
     %    use with input_dft = 'vdW-DF2-br0' and 'vdW-DF2-ahbr'             %
     %                                                                      %
     %%%%%%%%%%%%%%%%%%%%%%%%%%%%%%%%%%%%%%%%%%%%%%%%%%%%%%%%%%%%%%%%%%%%%%%%


     Starting wfcs are   72 randomized atomic wfcs
     Checking if some PAW data can be deallocated... 

     total cpu time spent up to now is      122.9 secs

     Self-consistent Calculation

     iteration #  1     ecut=    80.00 Ry     beta= 0.20
     Davidson diagonalization with overlap
     ethr =  1.00E-02,  avg # of iterations =  2.2

     Threshold (ethr) on eigenvalues was too large:
     Diagonalizing with lowered threshold

     Davidson diagonalization with overlap
     ethr =  2.81E-04,  avg # of iterations =  3.5

     negative rho (up, down):  3.699E-05 0.000E+00

     total cpu time spent up to now is      597.2 secs

     total energy              =   -1978.46429780 Ry
     estimated scf accuracy    <       0.44316907 Ry

     iteration #  2     ecut=    80.00 Ry     beta= 0.20
     Davidson diagonalization with overlap
     ethr =  4.26E-04,  avg # of iterations =  1.0

     negative rho (up, down):  1.331E-05 0.000E+00

     total cpu time spent up to now is      774.4 secs

     total energy              =   -1978.28625140 Ry
     estimated scf accuracy    <       0.36379682 Ry

     iteration #  3     ecut=    80.00 Ry     beta= 0.20
     Davidson diagonalization with overlap
     ethr =  3.50E-04,  avg # of iterations =  2.0

     negative rho (up, down):  2.500E-06 0.000E+00

     total cpu time spent up to now is     1008.7 secs

     total energy              =   -1978.36645404 Ry
     estimated scf accuracy    <       0.04436785 Ry

     iteration #  4     ecut=    80.00 Ry     beta= 0.20
     Davidson diagonalization with overlap
     ethr =  4.27E-05,  avg # of iterations =  2.2

     negative rho (up, down):  3.150E-07 0.000E+00

     total cpu time spent up to now is     1236.7 secs

     total energy              =   -1978.36964514 Ry
     estimated scf accuracy    <       0.01625030 Ry

     iteration #  5     ecut=    80.00 Ry     beta= 0.20
     Davidson diagonalization with overlap
     ethr =  1.56E-05,  avg # of iterations =  4.2

     negative rho (up, down):  2.389E-07 0.000E+00

     total cpu time spent up to now is     1457.9 secs

     total energy              =   -1978.37127471 Ry
     estimated scf accuracy    <       0.00394126 Ry

     iteration #  6     ecut=    80.00 Ry     beta= 0.20
     Davidson diagonalization with overlap
     c_bands:  1 eigenvalues not converged
     c_bands:  1 eigenvalues not converged
     ethr =  3.79E-06,  avg # of iterations =  6.8

     negative rho (up, down):  7.224E-07 0.000E+00

     total cpu time spent up to now is     1664.7 secs

     total energy              =   -1978.37046853 Ry
     estimated scf accuracy    <       0.00358745 Ry

     iteration #  7     ecut=    80.00 Ry     beta= 0.20
     Davidson diagonalization with overlap
     c_bands:  1 eigenvalues not converged
     c_bands:  1 eigenvalues not converged
     ethr =  3.45E-06,  avg # of iterations =  6.2

     negative rho (up, down):  2.112E-07 0.000E+00

     total cpu time spent up to now is     1939.4 secs

     total energy              =   -1978.36941813 Ry
     estimated scf accuracy    <       0.01324807 Ry

     iteration #  8     ecut=    80.00 Ry     beta= 0.20
     Davidson diagonalization with overlap
     ethr =  3.45E-06,  avg # of iterations =  3.1

     negative rho (up, down):  2.216E-06 0.000E+00

     total cpu time spent up to now is     2176.7 secs

     total energy              =   -1978.37001523 Ry
     estimated scf accuracy    <       0.00258604 Ry

     iteration #  9     ecut=    80.00 Ry     beta= 0.20
     Davidson diagonalization with overlap
     ethr =  2.49E-06,  avg # of iterations =  5.6

     negative rho (up, down):  2.344E-05 0.000E+00

     total cpu time spent up to now is     2402.3 secs

     total energy              =   -1978.37028336 Ry
     estimated scf accuracy    <       0.00157902 Ry

     iteration # 10     ecut=    80.00 Ry     beta= 0.20
     Davidson diagonalization with overlap
     ethr =  1.52E-06,  avg # of iterations =  2.6

     negative rho (up, down):  2.991E-03 0.000E+00

     total cpu time spent up to now is     2598.5 secs

     total energy              =   -1978.36996974 Ry
     estimated scf accuracy    <       0.00179112 Ry

     iteration # 11     ecut=    80.00 Ry     beta= 0.20
     Davidson diagonalization with overlap
     ethr =  1.52E-06,  avg # of iterations =  3.1

     negative rho (up, down):  3.938E-03 0.000E+00

     total cpu time spent up to now is     2817.1 secs

     total energy              =   -1978.37015702 Ry
     estimated scf accuracy    <       0.00060092 Ry

     iteration # 12     ecut=    80.00 Ry     beta= 0.20
     Davidson diagonalization with overlap
     ethr =  5.78E-07,  avg # of iterations =  3.8

     negative rho (up, down):  9.679E-04 0.000E+00

     total cpu time spent up to now is     3030.9 secs

     total energy              =   -1978.37016350 Ry
     estimated scf accuracy    <       0.00106069 Ry

     iteration # 13     ecut=    80.00 Ry     beta= 0.20
     Davidson diagonalization with overlap
     ethr =  5.78E-07,  avg # of iterations =  2.0

     negative rho (up, down):  2.263E-03 0.000E+00

     total cpu time spent up to now is     3252.1 secs

     total energy              =   -1978.37025270 Ry
     estimated scf accuracy    <       0.00056885 Ry

     iteration # 14     ecut=    80.00 Ry     beta= 0.20
     Davidson diagonalization with overlap
     ethr =  5.47E-07,  avg # of iterations =  1.1

     negative rho (up, down):  2.828E-03 0.000E+00

     total cpu time spent up to now is     3433.1 secs

     total energy              =   -1978.37007863 Ry
     estimated scf accuracy    <       0.00068877 Ry

     iteration # 15     ecut=    80.00 Ry     beta= 0.20
     Davidson diagonalization with overlap
     ethr =  5.47E-07,  avg # of iterations =  3.0

     negative rho (up, down):  2.569E-03 0.000E+00

     total cpu time spent up to now is     3655.3 secs

     total energy              =   -1978.37016403 Ry
     estimated scf accuracy    <       0.00072642 Ry

     iteration # 16     ecut=    80.00 Ry     beta= 0.20
     Davidson diagonalization with overlap
     ethr =  5.47E-07,  avg # of iterations =  1.1

     negative rho (up, down):  3.844E-03 0.000E+00

     total cpu time spent up to now is     3833.9 secs

     total energy              =   -1978.37005755 Ry
     estimated scf accuracy    <       0.00056216 Ry

     iteration # 17     ecut=    80.00 Ry     beta= 0.20
     Davidson diagonalization with overlap
     ethr =  5.41E-07,  avg # of iterations =  1.9

     negative rho (up, down):  3.367E-03 0.000E+00

     total cpu time spent up to now is     4029.4 secs

     total energy              =   -1978.37011008 Ry
     estimated scf accuracy    <       0.00019320 Ry

     iteration # 18     ecut=    80.00 Ry     beta= 0.20
     Davidson diagonalization with overlap
     ethr =  1.86E-07,  avg # of iterations =  1.0

     negative rho (up, down):  1.762E-03 0.000E+00

     total cpu time spent up to now is     4207.6 secs

     total energy              =   -1978.37015233 Ry
     estimated scf accuracy    <       0.00017761 Ry

     iteration # 19     ecut=    80.00 Ry     beta= 0.20
     Davidson diagonalization with overlap
     ethr =  1.71E-07,  avg # of iterations =  1.0

     negative rho (up, down):  1.502E-03 0.000E+00

     total cpu time spent up to now is     4384.9 secs

     total energy              =   -1978.37016160 Ry
     estimated scf accuracy    <       0.00011529 Ry

     iteration # 20     ecut=    80.00 Ry     beta= 0.20
     Davidson diagonalization with overlap
     ethr =  1.11E-07,  avg # of iterations =  1.1

     negative rho (up, down):  1.443E-03 0.000E+00

     total cpu time spent up to now is     4564.9 secs

     total energy              =   -1978.37015405 Ry
     estimated scf accuracy    <       0.00008533 Ry

     iteration # 21     ecut=    80.00 Ry     beta= 0.20
     Davidson diagonalization with overlap
     ethr =  8.20E-08,  avg # of iterations =  1.9

     negative rho (up, down):  9.087E-04 0.000E+00

     total cpu time spent up to now is     4755.7 secs

     total energy              =   -1978.37016893 Ry
     estimated scf accuracy    <       0.00007423 Ry

     iteration # 22     ecut=    80.00 Ry     beta= 0.20
     Davidson diagonalization with overlap
     ethr =  7.14E-08,  avg # of iterations =  1.2

     negative rho (up, down):  1.340E-03 0.000E+00

     total cpu time spent up to now is     4937.9 secs

     total energy              =   -1978.37016347 Ry
     estimated scf accuracy    <       0.00006689 Ry

     iteration # 23     ecut=    80.00 Ry     beta= 0.20
     Davidson diagonalization with overlap
     ethr =  6.43E-08,  avg # of iterations =  1.0

     negative rho (up, down):  1.315E-03 0.000E+00

     total cpu time spent up to now is     5115.5 secs

     total energy              =   -1978.37015993 Ry
     estimated scf accuracy    <       0.00005939 Ry

     iteration # 24     ecut=    80.00 Ry     beta= 0.20
     Davidson diagonalization with overlap
     ethr =  5.71E-08,  avg # of iterations =  2.1

     negative rho (up, down):  1.967E-03 0.000E+00

     total cpu time spent up to now is     5325.6 secs

     total energy              =   -1978.37011986 Ry
     estimated scf accuracy    <       0.00006073 Ry

     iteration # 25     ecut=    80.00 Ry     beta= 0.20
     Davidson diagonalization with overlap
     ethr =  5.71E-08,  avg # of iterations =  2.2

     negative rho (up, down):  1.984E-03 0.000E+00

     total cpu time spent up to now is     5522.7 secs

     total energy              =   -1978.37010607 Ry
     estimated scf accuracy    <       0.00003751 Ry

     iteration # 26     ecut=    80.00 Ry     beta= 0.20
     Davidson diagonalization with overlap
     ethr =  3.61E-08,  avg # of iterations =  1.1

     negative rho (up, down):  1.650E-03 0.000E+00

     total cpu time spent up to now is     5703.7 secs

     total energy              =   -1978.37012793 Ry
     estimated scf accuracy    <       0.00002985 Ry

     iteration # 27     ecut=    80.00 Ry     beta= 0.20
     Davidson diagonalization with overlap
     ethr =  2.87E-08,  avg # of iterations =  1.8

     negative rho (up, down):  1.224E-03 0.000E+00

     total cpu time spent up to now is     5891.1 secs

     total energy              =   -1978.37015250 Ry
     estimated scf accuracy    <       0.00001752 Ry

     iteration # 28     ecut=    80.00 Ry     beta= 0.20
     Davidson diagonalization with overlap
     ethr =  1.68E-08,  avg # of iterations =  1.3

     negative rho (up, down):  5.111E-04 0.000E+00

     total cpu time spent up to now is     6074.9 secs

     total energy              =   -1978.37016493 Ry
     estimated scf accuracy    <       0.00001215 Ry

     iteration # 29     ecut=    80.00 Ry     beta= 0.20
     Davidson diagonalization with overlap
     ethr =  1.17E-08,  avg # of iterations =  5.2

     negative rho (up, down):  4.720E-04 0.000E+00

     total cpu time spent up to now is     6278.0 secs

     total energy              =   -1978.37016473 Ry
     estimated scf accuracy    <       0.00000705 Ry

     iteration # 30     ecut=    80.00 Ry     beta= 0.20
     Davidson diagonalization with overlap
     ethr =  6.78E-09,  avg # of iterations =  2.3

     negative rho (up, down):  4.083E-04 0.000E+00

     total cpu time spent up to now is     6478.3 secs

     total energy              =   -1978.37016592 Ry
     estimated scf accuracy    <       0.00000522 Ry

     iteration # 31     ecut=    80.00 Ry     beta= 0.20
     Davidson diagonalization with overlap
     ethr =  5.02E-09,  avg # of iterations =  1.0

     negative rho (up, down):  2.852E-04 0.000E+00

     total cpu time spent up to now is     6656.4 secs

     total energy              =   -1978.37016572 Ry
     estimated scf accuracy    <       0.00000479 Ry

     iteration # 32     ecut=    80.00 Ry     beta= 0.20
     Davidson diagonalization with overlap
     ethr =  4.61E-09,  avg # of iterations =  1.2

     negative rho (up, down):  2.676E-04 0.000E+00

     total cpu time spent up to now is     6838.8 secs

     total energy              =   -1978.37016470 Ry
     estimated scf accuracy    <       0.00000425 Ry

     iteration # 33     ecut=    80.00 Ry     beta= 0.20
     Davidson diagonalization with overlap
     ethr =  4.09E-09,  avg # of iterations =  1.7

     negative rho (up, down):  2.242E-04 0.000E+00

     total cpu time spent up to now is     7023.6 secs

     total energy              =   -1978.37016421 Ry
     estimated scf accuracy    <       0.00000405 Ry

     iteration # 34     ecut=    80.00 Ry     beta= 0.20
     Davidson diagonalization with overlap
     ethr =  3.90E-09,  avg # of iterations =  1.0

     negative rho (up, down):  1.839E-04 0.000E+00

     total cpu time spent up to now is     7201.7 secs

     total energy              =   -1978.37016435 Ry
     estimated scf accuracy    <       0.00000397 Ry

     iteration # 35     ecut=    80.00 Ry     beta= 0.20
     Davidson diagonalization with overlap
     ethr =  3.82E-09,  avg # of iterations =  1.2

     negative rho (up, down):  1.952E-04 0.000E+00

     total cpu time spent up to now is     7383.1 secs

     total energy              =   -1978.37016404 Ry
     estimated scf accuracy    <       0.00000390 Ry

     iteration # 36     ecut=    80.00 Ry     beta= 0.20
     Davidson diagonalization with overlap
     ethr =  3.75E-09,  avg # of iterations =  1.1

     negative rho (up, down):  2.470E-04 0.000E+00

     total cpu time spent up to now is     7563.0 secs

     total energy              =   -1978.37016481 Ry
     estimated scf accuracy    <       0.00000385 Ry

     iteration # 37     ecut=    80.00 Ry     beta= 0.20
     Davidson diagonalization with overlap
     ethr =  3.70E-09,  avg # of iterations =  1.3

     negative rho (up, down):  3.069E-04 0.000E+00

     total cpu time spent up to now is     7746.9 secs

     total energy              =   -1978.37016453 Ry
     estimated scf accuracy    <       0.00000360 Ry

     iteration # 38     ecut=    80.00 Ry     beta= 0.20
     Davidson diagonalization with overlap
     ethr =  3.46E-09,  avg # of iterations =  1.4

     negative rho (up, down):  4.706E-04 0.000E+00

     total cpu time spent up to now is     7933.4 secs

     total energy              =   -1978.37016361 Ry
     estimated scf accuracy    <       0.00000262 Ry

     iteration # 39     ecut=    80.00 Ry     beta= 0.20
     Davidson diagonalization with overlap
     ethr =  2.52E-09,  avg # of iterations =  1.9

     negative rho (up, down):  5.369E-04 0.000E+00

     total cpu time spent up to now is     8123.5 secs

     total energy              =   -1978.37016339 Ry
     estimated scf accuracy    <       0.00000173 Ry

     iteration # 40     ecut=    80.00 Ry     beta= 0.20
     Davidson diagonalization with overlap
     ethr =  1.66E-09,  avg # of iterations =  1.7

     negative rho (up, down):  5.808E-04 0.000E+00

     total cpu time spent up to now is     8310.7 secs

     total energy              =   -1978.37016290 Ry
     estimated scf accuracy    <       0.00000131 Ry

     iteration # 41     ecut=    80.00 Ry     beta= 0.20
     Davidson diagonalization with overlap
     ethr =  1.26E-09,  avg # of iterations =  1.5

     negative rho (up, down):  4.580E-04 0.000E+00

     total cpu time spent up to now is     8499.6 secs

     total energy              =   -1978.37016222 Ry
     estimated scf accuracy    <       0.00000098 Ry

     iteration # 42     ecut=    80.00 Ry     beta= 0.20
     Davidson diagonalization with overlap
     ethr =  9.38E-10,  avg # of iterations =  1.5

     negative rho (up, down):  3.479E-04 0.000E+00

     total cpu time spent up to now is     8686.7 secs

     total energy              =   -1978.37016258 Ry
     estimated scf accuracy    <       0.00000062 Ry

     iteration # 43     ecut=    80.00 Ry     beta= 0.20
     Davidson diagonalization with overlap
     ethr =  5.98E-10,  avg # of iterations =  1.8

     negative rho (up, down):  3.411E-04 0.000E+00

     total cpu time spent up to now is     8877.5 secs

     total energy              =   -1978.37016318 Ry
     estimated scf accuracy    <       0.00000040 Ry

     iteration # 44     ecut=    80.00 Ry     beta= 0.20
     Davidson diagonalization with overlap
     ethr =  3.88E-10,  avg # of iterations =  1.1

     negative rho (up, down):  3.063E-04 0.000E+00

     total cpu time spent up to now is     9059.0 secs

     total energy              =   -1978.37016317 Ry
     estimated scf accuracy    <       0.00000030 Ry

     iteration # 45     ecut=    80.00 Ry     beta= 0.20
     Davidson diagonalization with overlap
     ethr =  2.89E-10,  avg # of iterations =  2.5

     negative rho (up, down):  2.539E-04 0.000E+00

     total cpu time spent up to now is     9257.0 secs

     total energy              =   -1978.37016247 Ry
     estimated scf accuracy    <       0.00000018 Ry

     iteration # 46     ecut=    80.00 Ry     beta= 0.20
     Davidson diagonalization with overlap
     ethr =  1.73E-10,  avg # of iterations =  1.9

     negative rho (up, down):  2.121E-04 0.000E+00

     total cpu time spent up to now is     9451.9 secs

     total energy              =   -1978.37016239 Ry
     estimated scf accuracy    <       0.00000011 Ry

     iteration # 47     ecut=    80.00 Ry     beta= 0.20
     Davidson diagonalization with overlap
     ethr =  1.08E-10,  avg # of iterations =  2.2

     negative rho (up, down):  2.070E-04 0.000E+00

     total cpu time spent up to now is     9655.9 secs

     total energy              =   -1978.37016255 Ry
     estimated scf accuracy    <       0.00000007 Ry

     iteration # 48     ecut=    80.00 Ry     beta= 0.20
     Davidson diagonalization with overlap
     ethr =  6.38E-11,  avg # of iterations =  1.4

     negative rho (up, down):  2.016E-04 0.000E+00

     total cpu time spent up to now is     9838.5 secs

     total energy              =   -1978.37016280 Ry
     estimated scf accuracy    <       0.00000006 Ry

     iteration # 49     ecut=    80.00 Ry     beta= 0.20
     Davidson diagonalization with overlap
     ethr =  5.53E-11,  avg # of iterations =  1.5

     negative rho (up, down):  1.861E-04 0.000E+00

     total cpu time spent up to now is    10027.0 secs

     total energy              =   -1978.37016331 Ry
     estimated scf accuracy    <       0.00000004 Ry

     iteration # 50     ecut=    80.00 Ry     beta= 0.20
     Davidson diagonalization with overlap
     ethr =  4.03E-11,  avg # of iterations =  1.9

     negative rho (up, down):  1.861E-04 0.000E+00

     total cpu time spent up to now is    10225.1 secs

     total energy              =   -1978.37016332 Ry
     estimated scf accuracy    <       0.00000003 Ry

     iteration # 51     ecut=    80.00 Ry     beta= 0.20
     Davidson diagonalization with overlap
     ethr =  2.80E-11,  avg # of iterations =  1.0

     negative rho (up, down):  1.874E-04 0.000E+00

     total cpu time spent up to now is    10403.3 secs

     total energy              =   -1978.37016344 Ry
     estimated scf accuracy    <       0.00000002 Ry

     iteration # 52     ecut=    80.00 Ry     beta= 0.20
     Davidson diagonalization with overlap
     ethr =  2.28E-11,  avg # of iterations =  2.2

     negative rho (up, down):  1.859E-04 0.000E+00

     total cpu time spent up to now is    10610.3 secs

     total energy              =   -1978.37016343 Ry
     estimated scf accuracy    <       0.00000001 Ry

     iteration # 53     ecut=    80.00 Ry     beta= 0.20
     Davidson diagonalization with overlap
     ethr =  1.14E-11,  avg # of iterations =  1.1

     negative rho (up, down):  1.834E-04 0.000E+00

     total cpu time spent up to now is    10788.2 secs

     End of self-consistent calculation

          k = 0.0000 0.0000 0.0000 ( 35507 PWs)   bands (ev):

   -58.9105 -58.8925 -58.8412 -58.7912 -33.0847 -33.0667 -33.0157 -32.9655
   -32.8482 -32.8482 -32.8290 -32.8290 -32.7777 -32.7777 -32.7288 -32.7288
   -12.2454 -12.1903 -12.1320 -12.0374 -11.0140 -10.9091 -10.8285 -10.7057
    -4.0580  -3.8162  -3.6180  -3.3351  -0.6543  -0.6433  -0.6433  -0.6158
    -0.6158  -0.5661  -0.5661  -0.5243  -0.5243  -0.1859   0.2703   0.4754
     0.4755   0.4990   0.4991   0.5481   0.5482   0.5941   0.5941   0.8861
     1.5593   1.9356   2.2154   2.4787   4.7230   4.7230   4.7404   4.7406
     4.7846   4.7847   4.8439   4.8441   4.9490   4.9506

          k = 0.0000 0.0722 0.0000 ( 35493 PWs)   bands (ev):

   -58.9089 -58.8909 -58.8396 -58.7896 -33.0816 -33.0637 -33.0127 -32.9625
   -32.8637 -32.8517 -32.8445 -32.8325 -32.7932 -32.7812 -32.7444 -32.7324
   -12.1858 -12.1309 -12.0727 -11.9782 -10.9864 -10.8834 -10.8037 -10.6825
    -3.9889  -3.7480  -3.5504  -3.2672  -0.7887  -0.7759  -0.7510  -0.7016
    -0.6588  -0.5809  -0.5535  -0.5038  -0.4618  -0.3840  -0.0671   0.1933
     0.3786   0.4020   0.4513   0.4978   0.5791   0.6491   0.7656   1.1070
     1.5643   1.9177   2.1680   2.3964   4.6453   4.6587   4.7065   4.7607
     4.7712   4.8078   4.8199   4.8552   4.8733   4.9006

          k = 0.0000 0.1443 0.0000 ( 35435 PWs)   bands (ev):

   -58.9045 -58.8865 -58.8352 -58.7852 -33.0730 -33.0550 -33.0040 -32.9538
   -32.9078 -32.8886 -32.8617 -32.8426 -32.8373 -32.7912 -32.7885 -32.7424
   -12.0117 -11.9577 -11.9000 -11.8060 -10.9058 -10.8088 -10.7316 -10.6153
    -3.7964  -3.5596  -3.3650  -3.0821  -1.1288  -1.1047  -1.0890  -1.0508
    -1.0037  -0.7726  -0.5433  -0.4009  -0.3743  -0.3247  -0.3223  -0.2817
     0.1280   0.1511   0.2008   0.2484   0.6391   0.7542   0.9249   1.2486
     1.5399   1.8108   1.9866   2.1347   4.3415   4.4201   4.4841   4.5143
     4.6016   4.6046   4.6696   4.6767   4.7308   4.7481

          k = 0.0000 0.2165 0.0000 ( 35345 PWs)   bands (ev):

   -58.8979 -58.8799 -58.8285 -58.7785 -33.0600 -33.0421 -32.9910 -32.9733
   -32.9540 -32.9408 -32.9027 -32.8767 -32.8576 -32.8539 -32.8062 -32.7574
   -11.7381 -11.6860 -11.6292 -11.5366 -10.7793 -10.6923 -10.6188 -10.5105
    -3.5348  -3.3112  -3.1285  -2.8568  -1.5581  -1.5385  -1.4983  -1.4699
    -1.4072  -1.2075  -1.0405  -0.8702  -0.1963  -0.1753  -0.1296  -0.1241
    -0.0985  -0.0768  -0.0468  -0.0053   0.5492   0.6975   0.8809   1.1602
     1.3981   1.5457   1.6411   1.7238   3.9573   4.0946   4.2505   4.4400
     4.4445   4.4893   4.5408   4.5574   4.6242   4.6791

          k = 0.0000 0.2887 0.0000 ( 35323 PWs)   bands (ev):

   -58.8900 -58.8720 -58.8207 -58.7707 -33.0497 -33.0446 -33.0303 -33.0267
   -32.9790 -32.9757 -32.9303 -32.9254 -32.8944 -32.8752 -32.8238 -32.7750
   -11.3904 -11.3421 -11.2869 -11.1971 -10.6197 -10.5460 -10.4774 -10.3797
    -3.3315  -3.1494  -3.0078  -2.7964  -1.9486  -1.9072  -1.8562  -1.8217
    -1.7132  -1.6296  -1.5158  -1.4118  -0.5246  -0.5027  -0.4523  -0.4021
     0.2015   0.2253   0.2761   0.3248   0.3327   0.5011   0.6770   0.9110
     1.1241   1.1934   1.2494   1.3142   3.8189   3.9935   4.1927   4.2556
     4.2978   4.3504   4.4317   4.4469   4.7660   4.9331

          k = 0.0000 0.3608 0.0000 ( 35299 PWs)   bands (ev):

   -58.8821 -58.8641 -58.8128 -58.7628 -33.1251 -33.1057 -33.0544 -33.0292
   -33.0113 -33.0058 -32.9603 -32.9119 -32.9100 -32.8927 -32.8414 -32.7926
   -11.0071 -10.9653 -10.9125 -10.8279 -10.4463 -10.3886 -10.3255 -10.2402
    -3.3645  -3.2566  -3.1758  -3.0512  -2.3175  -2.2213  -2.1506  -2.0144
    -1.9682  -1.8883  -1.8105  -1.7162  -0.8126  -0.7907  -0.7400  -0.6891
     0.0988   0.2708   0.4283   0.5256   0.5480   0.6007   0.6319   0.6563
     0.9045   0.9637   1.0200   1.0839   3.9367   4.1056   4.1511   4.1844
     4.2364   4.2934   4.3107   4.5349   5.0902   5.2584

          k = 0.0000 0.4330 0.0000 ( 35224 PWs)   bands (ev):

   -58.8754 -58.8575 -58.8061 -58.7561 -33.1884 -33.1689 -33.1176 -33.0691
   -33.0161 -32.9982 -32.9472 -32.9268 -32.9076 -32.8969 -32.8562 -32.8074
   -10.6431 -10.6110 -10.5610 -10.4847 -10.2855 -10.2446 -10.1871 -10.1146
    -3.5959  -3.5373  -3.4869  -3.4000  -2.6554  -2.5713  -2.5161  -2.4023
    -2.0767  -1.9935  -1.9171  -1.7975  -1.0330  -1.0112  -0.9603  -0.9089
    -0.0732   0.0906   0.2296   0.4139   0.7840   0.8096   0.8647   0.9227
     0.9291   0.9957   1.0598   1.1370   4.1431   4.1659   4.2028   4.2169
     4.2809   4.3368   4.4792   4.6664   5.3962   5.5466

          k = 0.0000 0.5052 0.0000 ( 35152 PWs)   bands (ev):

   -58.8710 -58.8530 -58.8016 -58.7516 -33.2304 -33.2108 -33.1595 -33.1111
   -33.0073 -32.9895 -32.9385 -32.9367 -32.9174 -32.8882 -32.8661 -32.8173
   -10.3712 -10.3500 -10.3023 -10.2368 -10.1689 -10.1415 -10.0898 -10.0272
    -3.8236  -3.7838  -3.7443  -3.6665  -2.8910  -2.8270  -2.7872  -2.6830
    -2.1767  -2.0981  -2.0259  -1.9105  -1.1706  -1.1488  -1.0978  -1.0460
    -0.1656  -0.0108   0.1131   0.2811   0.9398   0.9722   1.0288   1.1009
     1.1123   1.1830   1.2449   1.3250   4.1881   4.2067   4.2571   4.3121
     4.5001   4.5865   4.6723   4.7943   5.5912   5.7179

          k = 0.0000-0.5774 0.0000 ( 35026 PWs)   bands (ev):

   -58.8694 -58.8514 -58.8001 -58.7501 -33.2451 -33.2255 -33.1742 -33.1257
   -33.0042 -32.9864 -32.9401 -32.9354 -32.9209 -32.8851 -32.8696 -32.8208
   -10.2681 -10.2522 -10.2052 -10.1474 -10.1251 -10.1034 -10.0552  -9.9961
    -3.9151  -3.8794  -3.8424  -3.7657  -2.9751  -2.9199  -2.8851  -2.7820
    -2.2242  -2.1470  -2.0761  -1.9629  -1.2172  -1.1955  -1.1444  -1.0926
    -0.1930  -0.0424   0.0752   0.2364   0.9901   1.0258   1.0831   1.1582
     1.2298   1.2871   1.3388   1.4122   4.2147   4.2335   4.2838   4.3356
     4.6595   4.7086   4.7610   4.8389   5.6546   5.7655

          k = 0.0625 0.1083 0.0000 ( 35467 PWs)   bands (ev):

   -58.9059 -58.8879 -58.8366 -58.7866 -33.0758 -33.0578 -33.0068 -32.9566
   -32.8931 -32.8739 -32.8589 -32.8398 -32.8226 -32.7884 -32.7738 -32.7396
   -12.0689 -12.0145 -11.9567 -11.8625 -10.9322 -10.8333 -10.7552 -10.6373
    -3.8577  -3.6192  -3.4232  -3.1398  -1.0198  -0.9974  -0.9872  -0.9420
    -0.8968  -0.6516  -0.4617  -0.4347  -0.3985  -0.3836  -0.3428  -0.1565
     0.1641   0.1868   0.2361   0.2828   0.6767   0.7754   0.9301   1.2532
     1.5563   1.8571   2.0545   2.2242   4.4676   4.5112   4.5173   4.5637
     4.6001   4.6343   4.6553   4.7240   4.7458   4.8116

          k = 0.0625 0.1804 0.0000 ( 35370 PWs)   bands (ev):

   -58.9004 -58.8824 -58.8311 -58.7811 -33.0649 -33.0470 -32.9960 -32.9467
   -32.9458 -32.9274 -32.8761 -32.8727 -32.8535 -32.8273 -32.8022 -32.7533
   -11.8449 -11.7919 -11.7348 -11.6415 -10.8285 -10.7375 -10.6626 -10.5511
    -3.6265  -3.3957  -3.2063  -2.9268  -1.3991  -1.3780  -1.3353  -1.3072
    -1.2614  -1.0147  -0.8167  -0.6175  -0.2443  -0.2199  -0.2005  -0.1852
    -0.1624  -0.1376  -0.1164  -0.0825   0.7262   0.8465   1.0088   1.2845
     1.4778   1.6704   1.7895   1.8846   4.0702   4.1817   4.2963   4.4067
     4.4607   4.5102   4.5475   4.5700   4.6043   4.6362

          k = 0.0625 0.2526 0.0000 ( 35362 PWs)   bands (ev):

   -58.8931 -58.8752 -58.8238 -58.7738 -33.0508 -33.0329 -33.0159 -32.9966
   -32.9818 -32.9453 -32.9316 -32.8966 -32.8906 -32.8714 -32.8201 -32.7713
   -11.5336 -11.4835 -11.4276 -11.3365 -10.6848 -10.6055 -10.5348 -10.4326
    -3.3804  -3.1742  -3.0090  -2.7607  -1.7811  -1.7631  -1.7159  -1.6855
    -1.5901  -1.4182  -1.2798  -1.1441  -0.5809  -0.5510  -0.5016  -0.4503
     0.0264   0.0499   0.0997   0.1473   0.6229   0.7533   0.9064   1.1262
     1.2672   1.3514   1.4116   1.4738   3.8001   3.9587   4.1209   4.2667
     4.3640   4.4017   4.4526   4.4947   4.5845   4.7077

          k = 0.0625 0.3248 0.0000 ( 35310 PWs)   bands (ev):

   -58.8853 -58.8673 -58.8159 -58.7660 -33.0901 -33.0706 -33.0354 -33.0193
   -33.0175 -32.9707 -32.9665 -32.9162 -32.9100 -32.8908 -32.8395 -32.7907
   -11.1666 -11.1216 -11.0677 -10.9806 -10.5169 -10.4523 -10.3868 -10.2961
    -3.2871  -3.1437  -3.0366  -2.8761  -2.1183  -2.0478  -1.9874  -1.9122
    -1.8077  -1.7933  -1.6870  -1.6424  -0.8847  -0.8460  -0.7931  -0.7319
     0.2661   0.2842   0.3312   0.3852   0.4149   0.5377   0.6739   0.8566
     1.0358   1.0785   1.1275   1.1850   3.7623   3.9263   4.0683   4.1813
     4.2908   4.3427   4.4040   4.5296   4.8263   4.9885

          k = 0.0625 0.3969 0.0000 ( 35243 PWs)   bands (ev):

   -58.8780 -58.8600 -58.8087 -58.7587 -33.1578 -33.1383 -33.0870 -33.0384
   -33.0211 -33.0033 -32.9522 -32.9279 -32.9086 -32.9020 -32.8573 -32.8085
   -10.7897 -10.7529 -10.7017 -10.6214 -10.3475 -10.2993 -10.2393 -10.1614
    -3.4390  -3.3606  -3.2985  -3.1980  -2.4907  -2.4052  -2.3468  -2.2333
    -2.0072  -1.9256  -1.8496  -1.7286  -1.0821  -1.0435  -0.9902  -0.9278
     0.1511   0.2823   0.3848   0.4144   0.4424   0.4966   0.5196   0.6098
     1.0438   1.0787   1.1272   1.1815   3.8999   4.0281   4.1204   4.2115
     4.3326   4.3925   4.4593   4.6134   5.1595   5.3096

          k = 0.0625 0.4691 0.0000 ( 35169 PWs)   bands (ev):

   -58.8724 -58.8544 -58.8031 -58.7531 -33.2092 -33.1896 -33.1383 -33.0898
   -33.0102 -32.9923 -32.9415 -32.9413 -32.9222 -32.8910 -32.8709 -32.8221
   -10.4665 -10.4406 -10.3921 -10.3216 -10.2058 -10.1731 -10.1189 -10.0525
    -3.6758  -3.6286  -3.5848  -3.5038  -2.8057  -2.7421  -2.7003  -2.6017
    -2.1043  -2.0246  -1.9516  -1.8325  -1.1877  -1.1596  -1.1098  -1.0510
    -0.0387   0.0946   0.2048   0.3545   0.5405   0.5656   0.6202   0.6935
     1.2176   1.2555   1.3044   1.3643   4.0980   4.1666   4.2178   4.2890
     4.4725   4.5354   4.6100   4.7372   5.4732   5.5997

          k = 0.0625 0.5413 0.0000 ( 35128 PWs)   bands (ev):

   -58.8694 -58.8514 -58.8001 -58.7501 -33.2368 -33.2172 -33.1659 -33.1175
   -33.0042 -32.9864 -32.9488 -32.9354 -32.9296 -32.8851 -32.8783 -32.8295
   -10.2738 -10.2569 -10.2099 -10.1507 -10.1229 -10.1001 -10.0513  -9.9919
    -3.8351  -3.7986  -3.7613  -3.6840  -2.9828  -2.9334  -2.8986  -2.8022
    -2.1926  -2.1141  -2.0431  -1.9287  -1.2299  -1.2120  -1.1643  -1.1095
    -0.1426  -0.0068   0.1005   0.2473   0.6329   0.6634   0.7160   0.7915
     1.3731   1.4149   1.4644   1.5302   4.2127   4.2345   4.2792   4.3325
     4.6522   4.7072   4.7648   4.8502   5.7048   5.8076

          k = 0.1250 0.2165 0.0000 ( 35331 PWs)   bands (ev):

   -58.8943 -58.8763 -58.8249 -58.7749 -33.0529 -33.0350 -33.0019 -32.9840
   -32.9826 -32.9338 -32.9313 -32.8915 -32.8826 -32.8723 -32.8210 -32.7722
   -11.5828 -11.5321 -11.4760 -11.3844 -10.7071 -10.6258 -10.5545 -10.4507
    -3.4002  -3.1860  -3.0127  -2.7519  -1.7132  -1.7005  -1.6549  -1.6116
    -1.5045  -1.2754  -1.1126  -0.9569  -0.7205  -0.6904  -0.6385  -0.5912
    -0.0531  -0.0302   0.0190   0.0664   0.8089   0.9203   1.0551   1.2480
     1.3420   1.4238   1.4861   1.5429   3.7895   3.9380   4.0826   4.2280
     4.3517   4.3908   4.4150   4.4600   4.5311   4.5964

          k = 0.1250 0.2887 0.0000 ( 35357 PWs)   bands (ev):

   -58.8870 -58.8690 -58.8177 -58.7677 -33.0653 -33.0459 -33.0387 -33.0208
   -32.9946 -32.9698 -32.9460 -32.9196 -32.9148 -32.8956 -32.8443 -32.7955
   -11.2506 -11.2041 -11.1496 -11.0613 -10.5536 -10.4853 -10.4184 -10.3249
    -3.2400  -3.0711  -2.9426  -2.7509  -1.9537  -1.9283  -1.8857  -1.8103
    -1.7104  -1.6188  -1.5268  -1.4614  -1.1492  -1.0891  -1.0149  -0.9126
     0.0558   0.0743   0.1233   0.1777   0.7360   0.8364   0.9471   1.0850
     1.1465   1.1676   1.2082   1.2592   3.6276   3.7972   3.9544   4.1030
     4.3476   4.3801   4.4323   4.4827   4.6032   4.7298

          k = 0.1250 0.3608 0.0000 ( 35341 PWs)   bands (ev):

   -58.8797 -58.8617 -58.8104 -58.7604 -33.1276 -33.1082 -33.0569 -33.0245
   -33.0083 -33.0066 -32.9556 -32.9385 -32.9193 -32.9053 -32.8680 -32.8192
   -10.8858 -10.8462 -10.7942 -10.7114 -10.3864 -10.3333 -10.2716 -10.1899
    -3.2840  -3.1812  -3.1039  -2.9839  -2.2900  -2.2220  -2.1730  -2.0818
    -1.9151  -1.8487  -1.7808  -1.6645  -1.3441  -1.2460  -1.1524  -1.0449
     0.0021   0.0206   0.0694   0.1298   0.5177   0.6060   0.6925   0.8095
     1.1020   1.1193   1.1695   1.2224   3.6650   3.8394   4.0058   4.1718
     4.4205   4.4576   4.5096   4.5958   4.8209   4.9686

          k = 0.1250 0.4330 0.0000 ( 35215 PWs)   bands (ev):

   -58.8735 -58.8556 -58.8042 -58.7542 -33.1798 -33.1603 -33.1090 -33.0605
   -33.0123 -32.9945 -32.9587 -32.9435 -32.9395 -32.8932 -32.8881 -32.8394
   -10.5419 -10.5121 -10.4628 -10.3888 -10.2308 -10.1934 -10.1372 -10.0675
    -3.4630  -3.4015  -3.3493  -3.2601  -2.7032  -2.6579  -2.6214  -2.5404
    -1.9773  -1.9017  -1.8317  -1.7112  -1.3725  -1.2808  -1.1983  -1.1017
    -0.0509  -0.0154   0.0344   0.1107   0.2461   0.3273   0.4041   0.5159
     1.2390   1.2604   1.3111   1.3642   3.8762   4.0318   4.1826   4.3401
     4.5314   4.5641   4.6190   4.6801   5.1296   5.2561

          k = 0.1250 0.5052 0.0000 ( 35141 PWs)   bands (ev):

   -58.8694 -58.8514 -58.8001 -58.7501 -33.2144 -33.1949 -33.1436 -33.0951
   -33.0042 -32.9864 -32.9722 -32.9530 -32.9354 -32.9016 -32.8851 -32.8529
   -10.2871 -10.2681 -10.2208 -10.1590 -10.1172 -10.0923 -10.0422  -9.9818
    -3.6252  -3.5838  -3.5442  -3.4642  -2.9972  -2.9648  -2.9295  -2.8491
    -2.0958  -2.0140  -1.9440  -1.8306  -1.3207  -1.2584  -1.1977  -1.1200
    -0.0574   0.0190   0.0456   0.0743   0.1128   0.1546   0.1953   0.3044
     1.4251   1.4565   1.5075   1.5674   4.1025   4.1850   4.2559   4.3410
     4.6844   4.7331   4.7900   4.8801   5.4175   5.5123

          k = 0.1250 0.5774 0.0000 ( 35180 PWs)   bands (ev):

   -58.8679 -58.8500 -58.7986 -58.7486 -33.2265 -33.2069 -33.1557 -33.1072
   -33.0014 -32.9836 -32.9770 -32.9577 -32.9326 -32.9064 -32.8823 -32.8576
   -10.1913 -10.1770 -10.1305 -10.0837 -10.0700 -10.0526 -10.0080  -9.9511
    -3.6880  -3.6533  -3.6181  -3.5393  -3.1018  -3.0735  -3.0379  -2.9569
    -2.1561  -2.0742  -2.0038  -1.8917  -1.2715  -1.2398  -1.1934  -1.1255
    -0.1174   0.0003   0.0248   0.0640   0.0833   0.1261   0.1727   0.2487
     1.5179   1.5552   1.6075   1.6727   4.1798   4.2016   4.2460   4.3010
     4.7966   4.8551   4.9050   4.9794   5.5375   5.6335

          k = 0.1875 0.3248 0.0000 ( 35337 PWs)   bands (ev):

   -58.8803 -58.8623 -58.8110 -58.7610 -33.1140 -33.0946 -33.0433 -33.0256
   -33.0078 -32.9947 -32.9568 -32.9453 -32.9261 -32.9065 -32.8747 -32.8260
   -10.9192 -10.8786 -10.8263 -10.7428 -10.3996 -10.3448 -10.2824 -10.1994
    -3.2183  -3.1031  -3.0175  -2.8868  -2.1585  -2.1123  -2.0735  -2.0129
    -1.8661  -1.8157  -1.7539  -1.6754  -1.4821  -1.3658  -1.2440  -1.1143
    -0.1718  -0.1534  -0.1059  -0.0440   0.6809   0.7550   0.8233   0.9182
     1.1104   1.1262   1.1781   1.2344   3.5754   3.7644   3.9507   4.1487
     4.4443   4.4695   4.5199   4.5660   4.6889   4.8313

          k = 0.1875 0.3969 0.0000 ( 35241 PWs)   bands (ev):

   -58.8741 -58.8562 -58.8048 -58.7548 -33.1560 -33.1365 -33.0852 -33.0367
   -33.0135 -32.9957 -32.9762 -32.9569 -32.9447 -32.9056 -32.8944 -32.8568
   -10.5832 -10.5514 -10.5017 -10.4257 -10.2433 -10.2031 -10.1458 -10.0741
    -3.3024  -3.2255  -3.1636  -3.0643  -2.6122  -2.5940  -2.5613  -2.4973
    -1.8341  -1.7789  -1.7333  -1.6358  -1.4772  -1.3744  -1.2594  -1.1404
    -0.4889  -0.4635  -0.4139  -0.3458   0.4585   0.5101   0.5528   0.6378
     1.2114   1.2330   1.2869   1.3451   3.7319   3.9256   4.1279   4.3857
     4.5643   4.5803   4.6266   4.6794   4.8546   4.9916

          k = 0.1875 0.4691 0.0000 ( 35167 PWs)   bands (ev):

   -58.8694 -58.8514 -58.8001 -58.7501 -33.1865 -33.1670 -33.1157 -33.0672
   -33.0043 -33.0011 -32.9865 -32.9818 -32.9354 -32.9305 -32.8851 -32.8818
   -10.3002 -10.2790 -10.2315 -10.1673 -10.1114 -10.0845 -10.0331  -9.9716
    -3.3870  -3.3324  -3.2851  -3.1994  -3.0088  -2.9938  -2.9553  -2.8920
    -1.9241  -1.8379  -1.7773  -1.6903  -1.4229  -1.3131  -1.2193  -1.1079
    -0.6718  -0.6198  -0.5609  -0.4637   0.1612   0.2179   0.2660   0.3512
     1.4107   1.4318   1.4851   1.5392   3.9574   4.0870   4.2055   4.3419
     4.7268   4.7679   4.8192   4.9156   5.0780   5.1884

          k = 0.1875 0.5413 0.0000 ( 35162 PWs)   bands (ev):

   -58.8668 -58.8489 -58.7975 -58.7475 -33.2025 -33.1830 -33.1317 -33.0832
   -33.0151 -32.9992 -32.9957 -32.9814 -32.9444 -32.9304 -32.8957 -32.8801
   -10.1345 -10.1209 -10.0750 -10.0410 -10.0252 -10.0071  -9.9687  -9.9140
    -3.4219  -3.3854  -3.3517  -3.2667  -3.2248  -3.2101  -3.1680  -3.1033
    -2.0685  -1.9812  -1.9118  -1.8102  -1.2898  -1.2203  -1.1616  -1.0727
    -0.7164  -0.6421  -0.5778  -0.4749  -0.0501   0.0108   0.0649   0.1502
     1.5947   1.6225   1.6753   1.7351   4.0324   4.0704   4.1188   4.1836
     4.9154   4.9855   5.0447   5.1577   5.2080   5.2434

          k = 0.2500 0.4330 0.0000 ( 35195 PWs)   bands (ev):

   -58.8694 -58.8514 -58.8001 -58.7501 -33.1720 -33.1525 -33.1012 -33.0527
   -33.0160 -33.0043 -32.9967 -32.9865 -32.9454 -32.9354 -32.8967 -32.8851
   -10.3055 -10.2835 -10.2359 -10.1707 -10.1090 -10.0813 -10.0294  -9.9674
    -3.2783  -3.2143  -3.1604  -3.0769  -3.0148  -2.9993  -2.9601  -2.9097
    -1.7326  -1.7066  -1.6638  -1.6086  -1.4109  -1.3169  -1.2099  -1.0914
    -0.9928  -0.9710  -0.9199  -0.8654   0.2431   0.2554   0.3020   0.3865
     1.3942   1.4149   1.4692   1.5226   3.8963   4.0409   4.1761   4.3349
     4.7403   4.7728   4.8180   4.9218   4.9563   5.0935

          k = 0.2500 0.5052 0.0000 ( 35193 PWs)   bands (ev):

   -58.8662 -58.8483 -58.7969 -58.7469 -33.1768 -33.1572 -33.1059 -33.0574
   -33.0486 -33.0293 -32.9981 -32.9803 -32.9780 -32.9293 -32.9293 -32.8789
   -10.1063 -10.0927 -10.0473 -10.0175 -10.0012  -9.9807  -9.9449  -9.8916
    -3.3112  -3.3056  -3.2673  -3.2100  -3.1635  -3.1158  -3.0680  -2.9881
    -1.8971  -1.8103  -1.7544  -1.6983  -1.3468  -1.2919  -1.2503  -1.2020
    -1.1844  -1.1176  -1.0406  -0.9762  -0.0376  -0.0113   0.0409   0.1256
     1.6345   1.6547   1.7081   1.7606   3.9005   3.9514   4.0064   4.0830
     4.8915   4.9247   4.9792   4.9990   5.1600   5.2157

          k = 0.2500 0.5774 0.0000 ( 35190 PWs)   bands (ev):

   -58.8651 -58.8472 -58.7958 -58.7458 -33.1766 -33.1571 -33.1058 -33.0619
   -33.0573 -33.0426 -32.9959 -32.9912 -32.9781 -32.9426 -32.9271 -32.8768
   -10.0335 -10.0214  -9.9846  -9.9756  -9.9627  -9.9305  -9.9088  -9.8638
    -3.4143  -3.4058  -3.3678  -3.3089  -3.0768  -3.0476  -3.0119  -2.9378
    -2.0528  -1.9709  -1.9066  -1.8238  -1.3826  -1.3050  -1.2529  -1.1693
    -1.1247  -1.0684  -0.9958  -0.9426  -0.1585  -0.1435  -0.0871  -0.0110
     1.7616   1.7839   1.8368   1.8926   3.8271   3.8475   3.8961   3.9463
     4.9125   4.9577   4.9982   5.0354   5.3180   5.3642

          k = 0.3125 0.5413 0.0000 ( 35172 PWs)   bands (ev):

   -58.8645 -58.8466 -58.7952 -58.7452 -33.1556 -33.1360 -33.0903 -33.0847
   -33.0710 -33.0362 -33.0197 -32.9947 -32.9769 -32.9710 -32.9259 -32.8756
    -9.9985  -9.9858  -9.9613  -9.9493  -9.9363  -9.9066  -9.8828  -9.8448
    -3.4845  -3.4743  -3.4348  -3.3774  -2.8514  -2.8115  -2.7737  -2.6940
    -2.0422  -2.0343  -2.0172  -1.9503  -1.5643  -1.5535  -1.5301  -1.4897
    -1.0635  -1.0097  -0.9553  -0.8854  -0.2422  -0.2255  -0.1620  -0.0812
     1.8438   1.8623   1.9154   1.9680   3.7101   3.7322   3.7814   3.8307
     4.8541   4.8667   4.9068   4.9587   5.4126   5.4827

     the Fermi energy is     2.9605 ev

!    total energy              =   -1978.37016333 Ry
     total all-electron energy =    -38771.691008 Ry
     estimated scf accuracy    <          9.5E-09 Ry
     smearing contrib. (-TS)   =       0.00004538 Ry
     internal energy E=F+TS    =   -1978.37020871 Ry

     The total energy is F=E-TS. E is the sum of the following terms:
     one-electron contribution =  -17775.99136780 Ry
     hartree contribution      =    8909.60068121 Ry
     xc contribution           =    -119.24394879 Ry
     ewald contribution        =    8277.11642717 Ry
     one-center paw contrib.   =   -1269.85200049 Ry

     convergence has been achieved in  53 iterations

     Writing all to output data dir ./tmp/cleave2/cleave_dz002_dz0p4/mos2_cleave.save/ :
     XML data file, charge density, pseudopotentials, collected wavefunctions

     init_run     :    120.70s CPU    122.80s WALL (       1 calls)
     electrons    :  10494.85s CPU  10665.35s WALL (       1 calls)

     Called by init_run:
     wfcinit      :     73.32s CPU     73.98s WALL (       1 calls)
     potinit      :     43.88s CPU     44.29s WALL (       1 calls)
     hinit0       :      0.35s CPU      0.37s WALL (       1 calls)

     Called by electrons:
     c_bands      :   8716.90s CPU   8767.87s WALL (      54 calls)
     sum_band     :   1351.30s CPU   1406.89s WALL (      54 calls)
     v_of_rho     :    214.78s CPU    231.47s WALL (      54 calls)
     newd         :    163.20s CPU    210.70s WALL (      54 calls)
     PAW_pot      :     21.62s CPU     21.62s WALL (      54 calls)
     mix_rho      :     71.77s CPU     72.87s WALL (      54 calls)
     vdW_kernel   :     40.26s CPU     40.28s WALL (       1 calls)

     Called by c_bands:
     init_us_2    :     40.26s CPU     40.30s WALL (    3270 calls)
     init_us_2:cp :     40.26s CPU     40.29s WALL (    3270 calls)
     cegterg      :   8324.68s CPU   8375.26s WALL (    1620 calls)

     Called by *egterg:
     cdiaghg      :     12.21s CPU     12.22s WALL (    5016 calls)
     h_psi        :   4468.97s CPU   4488.74s WALL (    5076 calls)
     s_psi        :   1315.06s CPU   1315.49s WALL (    5076 calls)
     g_psi        :     18.99s CPU     19.01s WALL (    3426 calls)

     Called by h_psi:
     h_psi:calbec :   1705.12s CPU   1705.54s WALL (    5076 calls)
     vloc_psi     :   1439.18s CPU   1440.16s WALL (    5076 calls)
     add_vuspsi   :   1315.48s CPU   1315.84s WALL (    5076 calls)

     General routines
     calbec       :   2485.82s CPU   2486.50s WALL (    6696 calls)
     fft          :     67.10s CPU     67.13s WALL (    3401 calls)
     ffts         :     35.21s CPU     35.23s WALL (    6504 calls)
     fftw         :   1311.27s CPU   1311.99s WALL (  536878 calls)
     interpolate  :      1.57s CPU      1.57s WALL (      54 calls)

     Parallel routines

     PWSCF        :      2h56m CPU      2h59m WALL


   This run was terminated on:   5:26:30  10Jun2026            

=------------------------------------------------------------------------------=
   JOB DONE.
=------------------------------------------------------------------------------=
Note: The following floating-point exceptions are signalling: IEEE_UNDERFLOW_FLAG IEEE_DENORMAL
