Authorization required, but no authorization protocol specified

Authorization required, but no authorization protocol specified

Authorization required, but no authorization protocol specified

Authorization required, but no authorization protocol specified

Authorization required, but no authorization protocol specified

Authorization required, but no authorization protocol specified

Authorization required, but no authorization protocol specified

Authorization required, but no authorization protocol specified


     Program PWSCF v.7.3 starts on 12Jun2026 at 23:54:53 

     This program is part of the open-source Quantum ESPRESSO suite
     for quantum simulation of materials; please cite
         "P. Giannozzi et al., J. Phys.:Condens. Matter 21 395502 (2009);
         "P. Giannozzi et al., J. Phys.:Condens. Matter 29 465901 (2017);
         "P. Giannozzi et al., J. Chem. Phys. 152 154105 (2020);
          URL http://www.quantum-espresso.org", 
     in publications or presentations arising from this work. More details at
     http://www.quantum-espresso.org/quote

     Parallel version (MPI), running on     1 processors

     MPI processes distributed on     1 nodes
     37145 MiB available memory on the printing compute node when the environment starts

     Waiting for input...
     Reading input from standard input

     Current dimensions of program PWSCF are:
     Max number of different atomic species (ntypx) = 10
     Max number of k-points (npk) =  40000
     Max angular momentum in pseudopotentials (lmaxx) =  4
     file Mo.pbe-spn-kjpaw_psl.1.0.0.UPF: wavefunction(s)  4S 4D renormalized
     file S.pbe-n-kjpaw_psl.1.0.0.UPF: wavefunction(s)  3S 3P renormalized

     IMPORTANT: XC functional enforced from input :
     Exchange-correlation= VDW-DF2-B86R
                           (   1   4  26   0   2   0   0)
     Any further DFT definition will be discarded
     Please, verify this is what you really want


     Subspace diagonalization in iterative solution of the eigenvalue problem:
     a serial algorithm will be used


     G-vector sticks info
     --------------------
     sticks:   dense  smooth     PW     G-vecs:    dense   smooth      PW
     Sum        1573     769    223               797393   281171   43435

     Using Slab Decomposition



     bravais-lattice index     =            4
     lattice parameter (alat)  =       5.9715  a.u.
     unit-cell volume          =    2917.9067 (a.u.)^3
     number of atoms/cell      =           12
     number of atomic types    =            2
     number of electrons       =       104.00
     number of Kohn-Sham states=           62
     kinetic-energy cutoff     =      80.0000  Ry
     charge density cutoff     =     640.0000  Ry
     scf convergence threshold =      1.0E-08
     mixing beta               =       0.2000
     number of iterations used =            8  local-TF  mixing
     Exchange-correlation= VDW-DF2-B86R
                           (   1   4  26   0   2   0   0)

     celldm(1)=   5.971535  celldm(2)=   0.000000  celldm(3)=  15.822785
     celldm(4)=   0.000000  celldm(5)=   0.000000  celldm(6)=   0.000000

     crystal axes: (cart. coord. in units of alat)
               a(1) = (   1.000000   0.000000   0.000000 )  
               a(2) = (  -0.500000   0.866025   0.000000 )  
               a(3) = (   0.000000   0.000000  15.822785 )  

     reciprocal axes: (cart. coord. in units 2 pi/alat)
               b(1) = (  1.000000  0.577350 -0.000000 )  
               b(2) = (  0.000000  1.154701  0.000000 )  
               b(3) = (  0.000000 -0.000000  0.063200 )  


     PseudoPot. # 1 for Mo read from file:
     ./pseudo/Mo.pbe-spn-kjpaw_psl.1.0.0.UPF
     MD5 check sum: 4396e0c640fcce5c25f020efccf1ab12
     Pseudo is Projector augmented-wave + core cor, Zval = 14.0
     Generated using &quot;atomic&quot; code by A. Dal Corso  v.6.3
     Shape of augmentation charge: PSQ
     Using radial grid of 1229 points,  6 beta functions with: 
                l(1) =   0
                l(2) =   0
                l(3) =   1
                l(4) =   1
                l(5) =   2
                l(6) =   2
     Q(r) pseudized with 0 coefficients 


     PseudoPot. # 2 for S  read from file:
     ./pseudo/S.pbe-n-kjpaw_psl.1.0.0.UPF
     MD5 check sum: fb45dfebcf3e72a4e1bd4a866ec2e262
     Pseudo is Projector augmented-wave + core cor, Zval =  6.0
     Generated using &quot;atomic&quot; code by A. Dal Corso  v.6.3
     Shape of augmentation charge: PSQ
     Using radial grid of 1151 points,  6 beta functions with: 
                l(1) =   0
                l(2) =   0
                l(3) =   1
                l(4) =   1
                l(5) =   2
                l(6) =   2
     Q(r) pseudized with 0 coefficients 


     atomic species   valence    mass     pseudopotential
     Mo               14.00    95.96000     Mo( 1.00)
     S                 6.00    32.06000     S ( 1.00)

      6 Sym. Ops. (no inversion) found



   Cartesian axes

     site n.     atom                  positions (alat units)
         1        S      tau(   1) = (  -0.0000005   0.5773503  -0.9967195  )
         2        Mo     tau(   2) = (   0.0000000   0.0000000  -0.4993332  )
         3        S      tau(   3) = (  -0.0000005   0.5773503  -0.0017175  )
         4        S      tau(   4) = (   0.5000003   0.2886747   0.9835827  )
         5        Mo     tau(   5) = (  -0.0000005   0.5773503   1.4818950  )
         6        S      tau(   6) = (   0.5000003   0.2886747   1.9798512  )
         7        S      tau(   7) = (   0.0000000   0.0000000   2.9586848  )
         8        Mo     tau(   8) = (   0.5000003   0.2886747   3.4569999  )
         9        S      tau(   9) = (   0.0000000   0.0000000   3.9548385  )
        10        S      tau(  10) = (  -0.0000005   0.5773503   6.3448122  )
        11        Mo     tau(  11) = (   0.0000000   0.0000000   6.8424488  )
        12        S      tau(  12) = (  -0.0000005   0.5773503   7.3395830  )

     number of k points=    30  Methfessel-Paxton smearing, width (Ry)=  0.0200
                       cart. coord. in units 2pi/alat
        k(    1) = (   0.0000000   0.0000000   0.0000000), wk =   0.0078125
        k(    2) = (   0.0000000   0.0721688   0.0000000), wk =   0.0468750
        k(    3) = (   0.0000000   0.1443376   0.0000000), wk =   0.0468750
        k(    4) = (   0.0000000   0.2165064   0.0000000), wk =   0.0468750
        k(    5) = (   0.0000000   0.2886751   0.0000000), wk =   0.0468750
        k(    6) = (   0.0000000   0.3608439   0.0000000), wk =   0.0468750
        k(    7) = (   0.0000000   0.4330127   0.0000000), wk =   0.0468750
        k(    8) = (   0.0000000   0.5051815   0.0000000), wk =   0.0468750
        k(    9) = (   0.0000000  -0.5773503   0.0000000), wk =   0.0234375
        k(   10) = (   0.0625000   0.1082532   0.0000000), wk =   0.0468750
        k(   11) = (   0.0625000   0.1804220   0.0000000), wk =   0.0937500
        k(   12) = (   0.0625000   0.2525907   0.0000000), wk =   0.0937500
        k(   13) = (   0.0625000   0.3247595   0.0000000), wk =   0.0937500
        k(   14) = (   0.0625000   0.3969283   0.0000000), wk =   0.0937500
        k(   15) = (   0.0625000   0.4690971   0.0000000), wk =   0.0937500
        k(   16) = (   0.0625000   0.5412659   0.0000000), wk =   0.0937500
        k(   17) = (   0.1250000   0.2165064   0.0000000), wk =   0.0468750
        k(   18) = (   0.1250000   0.2886751   0.0000000), wk =   0.0937500
        k(   19) = (   0.1250000   0.3608439   0.0000000), wk =   0.0937500
        k(   20) = (   0.1250000   0.4330127   0.0000000), wk =   0.0937500
        k(   21) = (   0.1250000   0.5051815   0.0000000), wk =   0.0937500
        k(   22) = (   0.1250000   0.5773503   0.0000000), wk =   0.0468750
        k(   23) = (   0.1875000   0.3247595   0.0000000), wk =   0.0468750
        k(   24) = (   0.1875000   0.3969283   0.0000000), wk =   0.0937500
        k(   25) = (   0.1875000   0.4690971   0.0000000), wk =   0.0937500
        k(   26) = (   0.1875000   0.5412659   0.0000000), wk =   0.0937500
        k(   27) = (   0.2500000   0.4330127   0.0000000), wk =   0.0468750
        k(   28) = (   0.2500000   0.5051815   0.0000000), wk =   0.0937500
        k(   29) = (   0.2500000   0.5773503   0.0000000), wk =   0.0468750
        k(   30) = (   0.3125000   0.5412659   0.0000000), wk =   0.0468750

     Dense  grid:   797393 G-vectors     FFT dimensions: (  50,  50, 768)

     Smooth grid:   281171 G-vectors     FFT dimensions: (  36,  36, 540)

     Estimated max dynamical RAM per process >       3.90 GB

     Initial potential from superposition of free atoms

     starting charge     103.9962, renormalised to     104.0000

     negative rho (up, down):  1.274E-04 0.000E+00


     %%%%%%%%%%%%%%%%%%%%%%%%%%%%%%%%%%%%%%%%%%%%%%%%%%%%%%%%%%%%%%%%%%%%%%%%
     %                                                                      %
     % You are using vdW-DF, which was implemented by the Thonhauser group. %
     % Please cite the following two papers that made this development      %
     % possible and the two reviews that describe the various versions:     %
     %                                                                      %
     %   T. Thonhauser et al., PRL 115, 136402 (2015).                      %
     %   T. Thonhauser et al., PRB 76, 125112 (2007).                       %
     %   K. Berland et al., Rep. Prog. Phys. 78, 066501 (2015).             %
     %   D.C. Langreth et al., J. Phys.: Condens. Matter 21, 084203 (2009). %
     %                                                                      %
     % If you are calculating stress with vdW-DF, please also cite:         %
     %                                                                      %
     %   R. Sabatini et al., J. Phys.: Condens. Matter 24, 424209 (2012).   %
     %                                                                      %
     %%%%%%%%%%%%%%%%%%%%%%%%%%%%%%%%%%%%%%%%%%%%%%%%%%%%%%%%%%%%%%%%%%%%%%%%

     %%%%%%%%%%%%%%%%%%%%%%%%%%%%%%%%%%%%%%%%%%%%%%%%%%%%%%%%%%%%%%%%%%%%%%%%
     %                                                                      %
     %  vdW-DF NEWS:                                                        %
     %                                                                      %
     %  * vdW-DF3 is now available. DOI: 10.1021/acs.jctc.0c00471           %
     %    use with input_dft = 'vdW-DF3-opt1' or 'vdW-DF3-opt2'             %
     %                                                                      %
     %  * Unscreened and range-separated hybrid vdW-DF-cx functionals       %
     %    DOI: 10.1063/1.4986522 and 10.1088/1361-648X/ac2ad2               %
     %    use with input_dft = 'vdW-DF-cx0'    and 'vdW-DF-ahcx'            %
     %  * Unscreened and range-separated hybrid vdW-DF2-b86r functionals    %
     %    DOI: 10.1063/1.4986522 and DOI: 10.1103/PhysRevX.12.041003        %
     %    use with input_dft = 'vdW-DF2-br0' and 'vdW-DF2-ahbr'             %
     %                                                                      %
     %%%%%%%%%%%%%%%%%%%%%%%%%%%%%%%%%%%%%%%%%%%%%%%%%%%%%%%%%%%%%%%%%%%%%%%%


     Starting wfcs are   72 randomized atomic wfcs
     Checking if some PAW data can be deallocated... 

     total cpu time spent up to now is      124.1 secs

     Self-consistent Calculation

     iteration #  1     ecut=    80.00 Ry     beta= 0.20
     Davidson diagonalization with overlap
     ethr =  1.00E-02,  avg # of iterations =  2.2

     Threshold (ethr) on eigenvalues was too large:
     Diagonalizing with lowered threshold

     Davidson diagonalization with overlap
     ethr =  2.87E-04,  avg # of iterations =  3.7

     negative rho (up, down):  1.180E-05 0.000E+00

     total cpu time spent up to now is      601.9 secs

     total energy              =   -1978.45372667 Ry
     estimated scf accuracy    <       0.44926228 Ry

     iteration #  2     ecut=    80.00 Ry     beta= 0.20
     Davidson diagonalization with overlap
     ethr =  4.32E-04,  avg # of iterations =  1.0

     negative rho (up, down):  4.202E-07 0.000E+00

     total cpu time spent up to now is      781.5 secs

     total energy              =   -1978.27515857 Ry
     estimated scf accuracy    <       0.37078519 Ry

     iteration #  3     ecut=    80.00 Ry     beta= 0.20
     Davidson diagonalization with overlap
     ethr =  3.57E-04,  avg # of iterations =  2.0

     negative rho (up, down):  5.468E-08 0.000E+00

     total cpu time spent up to now is     1018.3 secs

     total energy              =   -1978.35480568 Ry
     estimated scf accuracy    <       0.04847746 Ry

     iteration #  4     ecut=    80.00 Ry     beta= 0.20
     Davidson diagonalization with overlap
     ethr =  4.66E-05,  avg # of iterations =  2.2

     negative rho (up, down):  4.879E-08 0.000E+00

     total cpu time spent up to now is     1248.5 secs

     total energy              =   -1978.35770212 Ry
     estimated scf accuracy    <       0.02064114 Ry

     iteration #  5     ecut=    80.00 Ry     beta= 0.20
     Davidson diagonalization with overlap
     ethr =  1.98E-05,  avg # of iterations =  3.0

     negative rho (up, down):  4.020E-08 0.000E+00

     total cpu time spent up to now is     1459.7 secs

     total energy              =   -1978.35931956 Ry
     estimated scf accuracy    <       0.00529674 Ry

     iteration #  6     ecut=    80.00 Ry     beta= 0.20
     Davidson diagonalization with overlap
     c_bands:  1 eigenvalues not converged
     ethr =  5.09E-06,  avg # of iterations =  5.5

     negative rho (up, down):  4.688E-07 0.000E+00

     total cpu time spent up to now is     1670.7 secs

     total energy              =   -1978.35769384 Ry
     estimated scf accuracy    <       0.00467720 Ry

     iteration #  7     ecut=    80.00 Ry     beta= 0.20
     Davidson diagonalization with overlap
     c_bands:  1 eigenvalues not converged
     c_bands:  1 eigenvalues not converged
     ethr =  4.50E-06,  avg # of iterations =  6.3

     negative rho (up, down):  1.836E-07 0.000E+00

     total cpu time spent up to now is     1949.5 secs

     total energy              =   -1978.35713360 Ry
     estimated scf accuracy    <       0.01487038 Ry

     iteration #  8     ecut=    80.00 Ry     beta= 0.20
     Davidson diagonalization with overlap
     ethr =  4.50E-06,  avg # of iterations =  3.5

     negative rho (up, down):  4.441E-07 0.000E+00

     total cpu time spent up to now is     2168.1 secs

     total energy              =   -1978.35713467 Ry
     estimated scf accuracy    <       0.00348860 Ry

     iteration #  9     ecut=    80.00 Ry     beta= 0.20
     Davidson diagonalization with overlap
     ethr =  3.35E-06,  avg # of iterations =  4.8

     negative rho (up, down):  2.459E-04 0.000E+00

     total cpu time spent up to now is     2407.7 secs

     total energy              =   -1978.35786178 Ry
     estimated scf accuracy    <       0.00373271 Ry

     iteration # 10     ecut=    80.00 Ry     beta= 0.20
     Davidson diagonalization with overlap
     ethr =  3.35E-06,  avg # of iterations =  1.3

     negative rho (up, down):  3.868E-03 0.000E+00

     total cpu time spent up to now is     2593.5 secs

     total energy              =   -1978.35702990 Ry
     estimated scf accuracy    <       0.00269654 Ry

     iteration # 11     ecut=    80.00 Ry     beta= 0.20
     Davidson diagonalization with overlap
     ethr =  2.59E-06,  avg # of iterations =  3.8

     negative rho (up, down):  3.339E-03 0.000E+00

     total cpu time spent up to now is     2819.2 secs

     total energy              =   -1978.35785775 Ry
     estimated scf accuracy    <       0.00107907 Ry

     iteration # 12     ecut=    80.00 Ry     beta= 0.20
     Davidson diagonalization with overlap
     ethr =  1.04E-06,  avg # of iterations =  5.6

     negative rho (up, down):  6.805E-06 0.000E+00

     total cpu time spent up to now is     3041.9 secs

     total energy              =   -1978.35724439 Ry
     estimated scf accuracy    <       0.00295895 Ry

     iteration # 13     ecut=    80.00 Ry     beta= 0.20
     Davidson diagonalization with overlap
     ethr =  1.04E-06,  avg # of iterations =  4.3

     negative rho (up, down):  2.391E-03 0.000E+00

     total cpu time spent up to now is     3277.3 secs

     total energy              =   -1978.35760289 Ry
     estimated scf accuracy    <       0.00044077 Ry

     iteration # 14     ecut=    80.00 Ry     beta= 0.20
     Davidson diagonalization with overlap
     ethr =  4.24E-07,  avg # of iterations =  2.0

     negative rho (up, down):  2.939E-03 0.000E+00

     total cpu time spent up to now is     3467.8 secs

     total energy              =   -1978.35758611 Ry
     estimated scf accuracy    <       0.00026093 Ry

     iteration # 15     ecut=    80.00 Ry     beta= 0.20
     Davidson diagonalization with overlap
     c_bands:  1 eigenvalues not converged
     c_bands:  1 eigenvalues not converged
     c_bands:  1 eigenvalues not converged
     ethr =  2.51E-07,  avg # of iterations =  7.5

     negative rho (up, down):  2.808E-03 0.000E+00

     total cpu time spent up to now is     3687.4 secs

     total energy              =   -1978.35762305 Ry
     estimated scf accuracy    <       0.00022704 Ry

     iteration # 16     ecut=    80.00 Ry     beta= 0.20
     Davidson diagonalization with overlap
     ethr =  2.18E-07,  avg # of iterations =  1.5

     negative rho (up, down):  2.057E-03 0.000E+00

     total cpu time spent up to now is     3870.8 secs

     total energy              =   -1978.35763214 Ry
     estimated scf accuracy    <       0.00013764 Ry

     iteration # 17     ecut=    80.00 Ry     beta= 0.20
     Davidson diagonalization with overlap
     ethr =  1.32E-07,  avg # of iterations =  2.6

     negative rho (up, down):  1.801E-03 0.000E+00

     total cpu time spent up to now is     4075.7 secs

     total energy              =   -1978.35765083 Ry
     estimated scf accuracy    <       0.00005193 Ry

     iteration # 18     ecut=    80.00 Ry     beta= 0.20
     Davidson diagonalization with overlap
     ethr =  4.99E-08,  avg # of iterations =  1.3

     negative rho (up, down):  2.565E-04 0.000E+00

     total cpu time spent up to now is     4265.2 secs

     total energy              =   -1978.35765174 Ry
     estimated scf accuracy    <       0.00004441 Ry

     iteration # 19     ecut=    80.00 Ry     beta= 0.20
     Davidson diagonalization with overlap
     ethr =  4.27E-08,  avg # of iterations =  2.5

     negative rho (up, down):  2.235E-04 0.000E+00

     total cpu time spent up to now is     4476.8 secs

     total energy              =   -1978.35765697 Ry
     estimated scf accuracy    <       0.00004193 Ry

     iteration # 20     ecut=    80.00 Ry     beta= 0.20
     Davidson diagonalization with overlap
     ethr =  4.03E-08,  avg # of iterations =  1.1

     negative rho (up, down):  1.699E-04 0.000E+00

     total cpu time spent up to now is     4661.4 secs

     total energy              =   -1978.35765551 Ry
     estimated scf accuracy    <       0.00003211 Ry

     iteration # 21     ecut=    80.00 Ry     beta= 0.20
     Davidson diagonalization with overlap
     ethr =  3.09E-08,  avg # of iterations =  2.2

     negative rho (up, down):  2.007E-04 0.000E+00

     total cpu time spent up to now is     4873.2 secs

     total energy              =   -1978.35765732 Ry
     estimated scf accuracy    <       0.00004011 Ry

     iteration # 22     ecut=    80.00 Ry     beta= 0.20
     Davidson diagonalization with overlap
     ethr =  3.09E-08,  avg # of iterations =  1.0

     negative rho (up, down):  4.736E-04 0.000E+00

     total cpu time spent up to now is     5052.8 secs

     total energy              =   -1978.35765288 Ry
     estimated scf accuracy    <       0.00003570 Ry

     iteration # 23     ecut=    80.00 Ry     beta= 0.20
     Davidson diagonalization with overlap
     ethr =  3.09E-08,  avg # of iterations =  1.2

     negative rho (up, down):  5.372E-04 0.000E+00

     total cpu time spent up to now is     5235.3 secs

     total energy              =   -1978.35765593 Ry
     estimated scf accuracy    <       0.00003066 Ry

     iteration # 24     ecut=    80.00 Ry     beta= 0.20
     Davidson diagonalization with overlap
     ethr =  2.95E-08,  avg # of iterations =  1.0

     negative rho (up, down):  5.409E-04 0.000E+00

     total cpu time spent up to now is     5414.5 secs

     total energy              =   -1978.35765322 Ry
     estimated scf accuracy    <       0.00003094 Ry

     iteration # 25     ecut=    80.00 Ry     beta= 0.20
     Davidson diagonalization with overlap
     ethr =  2.95E-08,  avg # of iterations =  1.1

     negative rho (up, down):  4.356E-04 0.000E+00

     total cpu time spent up to now is     5597.2 secs

     total energy              =   -1978.35765313 Ry
     estimated scf accuracy    <       0.00003666 Ry

     iteration # 26     ecut=    80.00 Ry     beta= 0.20
     Davidson diagonalization with overlap
     ethr =  2.95E-08,  avg # of iterations =  1.3

     negative rho (up, down):  3.072E-04 0.000E+00

     total cpu time spent up to now is     5782.2 secs

     total energy              =   -1978.35765514 Ry
     estimated scf accuracy    <       0.00002964 Ry

     iteration # 27     ecut=    80.00 Ry     beta= 0.20
     Davidson diagonalization with overlap
     ethr =  2.85E-08,  avg # of iterations =  1.0

     negative rho (up, down):  1.657E-04 0.000E+00

     total cpu time spent up to now is     5961.3 secs

     total energy              =   -1978.35765655 Ry
     estimated scf accuracy    <       0.00002749 Ry

     iteration # 28     ecut=    80.00 Ry     beta= 0.20
     Davidson diagonalization with overlap
     ethr =  2.64E-08,  avg # of iterations =  1.1

     negative rho (up, down):  2.235E-04 0.000E+00

     total cpu time spent up to now is     6144.2 secs

     total energy              =   -1978.35765520 Ry
     estimated scf accuracy    <       0.00002699 Ry

     iteration # 29     ecut=    80.00 Ry     beta= 0.20
     Davidson diagonalization with overlap
     ethr =  2.59E-08,  avg # of iterations =  1.0

     negative rho (up, down):  2.163E-04 0.000E+00

     total cpu time spent up to now is     6323.5 secs

     total energy              =   -1978.35765313 Ry
     estimated scf accuracy    <       0.00002634 Ry

     iteration # 30     ecut=    80.00 Ry     beta= 0.20
     Davidson diagonalization with overlap
     ethr =  2.53E-08,  avg # of iterations =  1.1

     negative rho (up, down):  9.758E-05 0.000E+00

     total cpu time spent up to now is     6505.2 secs

     total energy              =   -1978.35765384 Ry
     estimated scf accuracy    <       0.00002605 Ry

     iteration # 31     ecut=    80.00 Ry     beta= 0.20
     Davidson diagonalization with overlap
     ethr =  2.50E-08,  avg # of iterations =  1.0

     negative rho (up, down):  1.202E-04 0.000E+00

     total cpu time spent up to now is     6685.3 secs

     total energy              =   -1978.35765272 Ry
     estimated scf accuracy    <       0.00002402 Ry

     iteration # 32     ecut=    80.00 Ry     beta= 0.20
     Davidson diagonalization with overlap
     ethr =  2.31E-08,  avg # of iterations =  1.0

     negative rho (up, down):  6.962E-04 0.000E+00

     total cpu time spent up to now is     6865.4 secs

     total energy              =   -1978.35764863 Ry
     estimated scf accuracy    <       0.00002152 Ry

     iteration # 33     ecut=    80.00 Ry     beta= 0.20
     Davidson diagonalization with overlap
     ethr =  2.07E-08,  avg # of iterations =  1.1

     negative rho (up, down):  1.292E-03 0.000E+00

     total cpu time spent up to now is     7047.3 secs

     total energy              =   -1978.35765067 Ry
     estimated scf accuracy    <       0.00001688 Ry

     iteration # 34     ecut=    80.00 Ry     beta= 0.20
     Davidson diagonalization with overlap
     ethr =  1.62E-08,  avg # of iterations =  1.0

     negative rho (up, down):  1.147E-03 0.000E+00

     total cpu time spent up to now is     7227.4 secs

     total energy              =   -1978.35765103 Ry
     estimated scf accuracy    <       0.00001537 Ry

     iteration # 35     ecut=    80.00 Ry     beta= 0.20
     Davidson diagonalization with overlap
     ethr =  1.48E-08,  avg # of iterations =  1.1

     negative rho (up, down):  9.762E-04 0.000E+00

     total cpu time spent up to now is     7411.2 secs

     total energy              =   -1978.35764018 Ry
     estimated scf accuracy    <       0.00001381 Ry

     iteration # 36     ecut=    80.00 Ry     beta= 0.20
     Davidson diagonalization with overlap
     ethr =  1.33E-08,  avg # of iterations =  1.5

     negative rho (up, down):  5.658E-04 0.000E+00

     total cpu time spent up to now is     7600.9 secs

     total energy              =   -1978.35764278 Ry
     estimated scf accuracy    <       0.00001185 Ry

     iteration # 37     ecut=    80.00 Ry     beta= 0.20
     Davidson diagonalization with overlap
     ethr =  1.14E-08,  avg # of iterations =  1.2

     negative rho (up, down):  4.583E-04 0.000E+00

     total cpu time spent up to now is     7783.3 secs

     total energy              =   -1978.35764620 Ry
     estimated scf accuracy    <       0.00001046 Ry

     iteration # 38     ecut=    80.00 Ry     beta= 0.20
     Davidson diagonalization with overlap
     ethr =  1.01E-08,  avg # of iterations =  1.1

     negative rho (up, down):  3.853E-04 0.000E+00

     total cpu time spent up to now is     7965.5 secs

     total energy              =   -1978.35764601 Ry
     estimated scf accuracy    <       0.00000979 Ry

     iteration # 39     ecut=    80.00 Ry     beta= 0.20
     Davidson diagonalization with overlap
     ethr =  9.42E-09,  avg # of iterations =  1.1

     negative rho (up, down):  3.319E-04 0.000E+00

     total cpu time spent up to now is     8147.5 secs

     total energy              =   -1978.35764539 Ry
     estimated scf accuracy    <       0.00000920 Ry

     iteration # 40     ecut=    80.00 Ry     beta= 0.20
     Davidson diagonalization with overlap
     ethr =  8.85E-09,  avg # of iterations =  1.3

     negative rho (up, down):  3.297E-04 0.000E+00

     total cpu time spent up to now is     8333.0 secs

     total energy              =   -1978.35764510 Ry
     estimated scf accuracy    <       0.00000872 Ry

     iteration # 41     ecut=    80.00 Ry     beta= 0.20
     Davidson diagonalization with overlap
     ethr =  8.39E-09,  avg # of iterations =  1.0

     negative rho (up, down):  3.213E-04 0.000E+00

     total cpu time spent up to now is     8514.1 secs

     total energy              =   -1978.35764525 Ry
     estimated scf accuracy    <       0.00000856 Ry

     iteration # 42     ecut=    80.00 Ry     beta= 0.20
     Davidson diagonalization with overlap
     ethr =  8.23E-09,  avg # of iterations =  1.0

     negative rho (up, down):  3.146E-04 0.000E+00

     total cpu time spent up to now is     8693.3 secs

     total energy              =   -1978.35764531 Ry
     estimated scf accuracy    <       0.00000855 Ry

     iteration # 43     ecut=    80.00 Ry     beta= 0.20
     Davidson diagonalization with overlap
     ethr =  8.22E-09,  avg # of iterations =  1.0

     negative rho (up, down):  3.240E-04 0.000E+00

     total cpu time spent up to now is     8872.6 secs

     total energy              =   -1978.35764426 Ry
     estimated scf accuracy    <       0.00000851 Ry

     iteration # 44     ecut=    80.00 Ry     beta= 0.20
     Davidson diagonalization with overlap
     ethr =  8.19E-09,  avg # of iterations =  1.1

     negative rho (up, down):  2.779E-04 0.000E+00

     total cpu time spent up to now is     9054.3 secs

     total energy              =   -1978.35764401 Ry
     estimated scf accuracy    <       0.00000817 Ry

     iteration # 45     ecut=    80.00 Ry     beta= 0.20
     Davidson diagonalization with overlap
     ethr =  7.85E-09,  avg # of iterations =  1.1

     negative rho (up, down):  2.324E-04 0.000E+00

     total cpu time spent up to now is     9236.5 secs

     total energy              =   -1978.35764401 Ry
     estimated scf accuracy    <       0.00000803 Ry

     iteration # 46     ecut=    80.00 Ry     beta= 0.20
     Davidson diagonalization with overlap
     ethr =  7.72E-09,  avg # of iterations =  1.0

     negative rho (up, down):  1.884E-04 0.000E+00

     total cpu time spent up to now is     9416.0 secs

     total energy              =   -1978.35764441 Ry
     estimated scf accuracy    <       0.00000792 Ry

     iteration # 47     ecut=    80.00 Ry     beta= 0.20
     Davidson diagonalization with overlap
     ethr =  7.62E-09,  avg # of iterations =  1.0

     negative rho (up, down):  1.117E-04 0.000E+00

     total cpu time spent up to now is     9595.3 secs

     total energy              =   -1978.35764508 Ry
     estimated scf accuracy    <       0.00000774 Ry

     iteration # 48     ecut=    80.00 Ry     beta= 0.20
     Davidson diagonalization with overlap
     ethr =  7.44E-09,  avg # of iterations =  1.3

     negative rho (up, down):  7.153E-05 0.000E+00

     total cpu time spent up to now is     9781.9 secs

     total energy              =   -1978.35764597 Ry
     estimated scf accuracy    <       0.00000710 Ry

     iteration # 49     ecut=    80.00 Ry     beta= 0.20
     Davidson diagonalization with overlap
     ethr =  6.83E-09,  avg # of iterations =  1.0

     negative rho (up, down):  3.784E-05 0.000E+00

     total cpu time spent up to now is     9964.8 secs

     total energy              =   -1978.35764693 Ry
     estimated scf accuracy    <       0.00000698 Ry

     iteration # 50     ecut=    80.00 Ry     beta= 0.20
     Davidson diagonalization with overlap
     ethr =  6.71E-09,  avg # of iterations =  1.1

     negative rho (up, down):  3.355E-05 0.000E+00

     total cpu time spent up to now is    10148.2 secs

     total energy              =   -1978.35764640 Ry
     estimated scf accuracy    <       0.00000669 Ry

     iteration # 51     ecut=    80.00 Ry     beta= 0.20
     Davidson diagonalization with overlap
     ethr =  6.43E-09,  avg # of iterations =  1.7

     negative rho (up, down):  5.834E-05 0.000E+00

     total cpu time spent up to now is    10330.0 secs

     total energy              =   -1978.35764504 Ry
     estimated scf accuracy    <       0.00000631 Ry

     iteration # 52     ecut=    80.00 Ry     beta= 0.20
     Davidson diagonalization with overlap
     ethr =  6.06E-09,  avg # of iterations =  1.4

     negative rho (up, down):  1.017E-04 0.000E+00

     total cpu time spent up to now is    10517.2 secs

     total energy              =   -1978.35764368 Ry
     estimated scf accuracy    <       0.00000537 Ry

     iteration # 53     ecut=    80.00 Ry     beta= 0.20
     Davidson diagonalization with overlap
     ethr =  5.17E-09,  avg # of iterations =  1.1

     negative rho (up, down):  1.480E-04 0.000E+00

     total cpu time spent up to now is    10699.8 secs

     total energy              =   -1978.35764269 Ry
     estimated scf accuracy    <       0.00000438 Ry

     iteration # 54     ecut=    80.00 Ry     beta= 0.20
     Davidson diagonalization with overlap
     ethr =  4.21E-09,  avg # of iterations =  1.1

     negative rho (up, down):  1.636E-04 0.000E+00

     total cpu time spent up to now is    10881.8 secs

     total energy              =   -1978.35764204 Ry
     estimated scf accuracy    <       0.00000378 Ry

     iteration # 55     ecut=    80.00 Ry     beta= 0.20
     Davidson diagonalization with overlap
     ethr =  3.64E-09,  avg # of iterations =  1.1

     negative rho (up, down):  1.700E-04 0.000E+00

     total cpu time spent up to now is    11062.5 secs

     total energy              =   -1978.35764037 Ry
     estimated scf accuracy    <       0.00000330 Ry

     iteration # 56     ecut=    80.00 Ry     beta= 0.20
     Davidson diagonalization with overlap
     ethr =  3.17E-09,  avg # of iterations =  1.5

     negative rho (up, down):  2.644E-04 0.000E+00

     total cpu time spent up to now is    11251.4 secs

     total energy              =   -1978.35763871 Ry
     estimated scf accuracy    <       0.00000257 Ry

     iteration # 57     ecut=    80.00 Ry     beta= 0.20
     Davidson diagonalization with overlap
     ethr =  2.47E-09,  avg # of iterations =  2.1

     negative rho (up, down):  3.779E-04 0.000E+00

     total cpu time spent up to now is    11451.0 secs

     total energy              =   -1978.35763899 Ry
     estimated scf accuracy    <       0.00000164 Ry

     iteration # 58     ecut=    80.00 Ry     beta= 0.20
     Davidson diagonalization with overlap
     ethr =  1.57E-09,  avg # of iterations =  1.5

     negative rho (up, down):  1.951E-04 0.000E+00

     total cpu time spent up to now is    11639.4 secs

     total energy              =   -1978.35764079 Ry
     estimated scf accuracy    <       0.00000110 Ry

     iteration # 59     ecut=    80.00 Ry     beta= 0.20
     Davidson diagonalization with overlap
     ethr =  1.06E-09,  avg # of iterations =  2.5

     negative rho (up, down):  1.579E-04 0.000E+00

     total cpu time spent up to now is    11851.4 secs

     total energy              =   -1978.35764158 Ry
     estimated scf accuracy    <       0.00000026 Ry

     iteration # 60     ecut=    80.00 Ry     beta= 0.20
     Davidson diagonalization with overlap
     ethr =  2.50E-10,  avg # of iterations =  2.6

     negative rho (up, down):  1.525E-04 0.000E+00

     total cpu time spent up to now is    12064.0 secs

     total energy              =   -1978.35764172 Ry
     estimated scf accuracy    <       0.00000011 Ry

     iteration # 61     ecut=    80.00 Ry     beta= 0.20
     Davidson diagonalization with overlap
     ethr =  1.02E-10,  avg # of iterations =  1.6

     negative rho (up, down):  1.424E-04 0.000E+00

     total cpu time spent up to now is    12253.3 secs

     total energy              =   -1978.35764193 Ry
     estimated scf accuracy    <       0.00000009 Ry

     iteration # 62     ecut=    80.00 Ry     beta= 0.20
     Davidson diagonalization with overlap
     ethr =  8.56E-11,  avg # of iterations =  2.1

     negative rho (up, down):  1.427E-04 0.000E+00

     total cpu time spent up to now is    12459.3 secs

     total energy              =   -1978.35764195 Ry
     estimated scf accuracy    <       0.00000004 Ry

     iteration # 63     ecut=    80.00 Ry     beta= 0.20
     Davidson diagonalization with overlap
     ethr =  3.92E-11,  avg # of iterations =  2.3

     negative rho (up, down):  1.425E-04 0.000E+00

     total cpu time spent up to now is    12660.9 secs

     total energy              =   -1978.35764200 Ry
     estimated scf accuracy    <       0.00000003 Ry

     iteration # 64     ecut=    80.00 Ry     beta= 0.20
     Davidson diagonalization with overlap
     ethr =  2.84E-11,  avg # of iterations =  2.2

     negative rho (up, down):  1.432E-04 0.000E+00

     total cpu time spent up to now is    12867.1 secs

     total energy              =   -1978.35764199 Ry
     estimated scf accuracy    <       0.00000001 Ry

     iteration # 65     ecut=    80.00 Ry     beta= 0.20
     Davidson diagonalization with overlap
     ethr =  1.41E-11,  avg # of iterations =  2.0

     negative rho (up, down):  1.446E-04 0.000E+00

     total cpu time spent up to now is    13067.0 secs

     total energy              =   -1978.35764198 Ry
     estimated scf accuracy    <       0.00000001 Ry

     iteration # 66     ecut=    80.00 Ry     beta= 0.20
     Davidson diagonalization with overlap
     ethr =  1.04E-11,  avg # of iterations =  2.2

     negative rho (up, down):  1.475E-04 0.000E+00

     total cpu time spent up to now is    13272.4 secs

     End of self-consistent calculation

          k = 0.0000 0.0000 0.0000 ( 35507 PWs)   bands (ev):

   -58.8986 -58.8779 -58.8502 -58.8009 -33.0726 -33.0517 -33.0247 -32.9753
   -32.8352 -32.8352 -32.8158 -32.8158 -32.7867 -32.7867 -32.7386 -32.7386
   -12.2420 -12.1527 -12.1441 -12.0464 -11.0074 -10.8659 -10.8496 -10.7153
    -4.0399  -3.7059  -3.6784  -3.3539  -0.6211  -0.6211  -0.6098  -0.6098
    -0.6016  -0.5749  -0.5749  -0.5340  -0.5340   0.0530   0.0802   0.4932
     0.4933   0.5092   0.5093   0.5393   0.5393   0.5844   0.5845   0.8224
     1.6009   1.8355   2.1331   2.4605   4.7250   4.7250   4.7686   4.7686
     4.7767   4.7767   4.8346   4.8347   4.9390   4.9390

          k = 0.0000 0.0722 0.0000 ( 35493 PWs)   bands (ev):

   -58.8971 -58.8764 -58.8486 -58.7994 -33.0696 -33.0486 -33.0217 -32.9723
   -32.8508 -32.8388 -32.8313 -32.8193 -32.8022 -32.7902 -32.7541 -32.7421
   -12.1824 -12.0933 -12.0848 -11.9873 -10.9798 -10.8410 -10.8243 -10.6921
    -3.9711  -3.6384  -3.6092  -3.2859  -0.7582  -0.7441  -0.7376  -0.7105
    -0.6680  -0.5589  -0.5473  -0.5127  -0.4715  -0.2070  -0.1982   0.1782
     0.3961   0.4126   0.4425   0.4881   0.5989   0.7065   0.7093   1.0631
     1.6026   1.8159   2.0985   2.3806   4.6500   4.6782   4.6969   4.7512
     4.7846   4.8103   4.8454   4.8636   4.8672   4.8928

          k = 0.0000 0.1443 0.0000 ( 35435 PWs)   bands (ev):

   -58.8927 -58.8719 -58.8442 -58.7949 -33.0609 -33.0399 -33.0130 -32.9636
   -32.8948 -32.8754 -32.8488 -32.8463 -32.8294 -32.8002 -32.7982 -32.7521
   -12.0085 -11.9202 -11.9120 -11.8151 -10.8993 -10.7685 -10.7507 -10.6248
    -3.7793  -3.4526  -3.4184  -3.1008  -1.1096  -1.0902  -1.0655  -1.0518
    -1.0085  -0.6660  -0.6299  -0.3797  -0.3671  -0.3371  -0.3336  -0.2914
     0.1448   0.1626   0.1921   0.2387   0.6591   0.8420   0.8714   1.2131
     1.5703   1.7264   1.9444   2.1234   4.3700   4.4184   4.4610   4.5188
     4.5484   4.5938   4.6668   4.6673   4.7214   4.7446

          k = 0.0000 0.2165 0.0000 ( 35345 PWs)   bands (ev):

   -58.8860 -58.8653 -58.8375 -58.7883 -33.0480 -33.0269 -33.0001 -32.9602
   -32.9506 -32.9409 -32.9117 -32.8638 -32.8637 -32.8444 -32.8152 -32.7671
   -11.7350 -11.6488 -11.6409 -11.5456 -10.7729 -10.6551 -10.6357 -10.5199
    -3.5195  -3.2118  -3.1710  -2.8743  -1.5463  -1.5126  -1.4992  -1.4680
    -1.3940  -1.1532  -1.0941  -0.8820  -0.1817  -0.1610  -0.1360  -0.1051
    -0.0921  -0.0860  -0.0557  -0.0149   0.5721   0.7956   0.8154   1.1314
     1.4208   1.5055   1.6226   1.7145   3.9908   4.1243   4.1807   4.4158
     4.4466   4.5208   4.5300   4.5735   4.5981   4.6149

          k = 0.0000 0.2887 0.0000 ( 35323 PWs)   bands (ev):

   -58.8782 -58.8574 -58.8297 -58.7804 -33.0365 -33.0326 -33.0172 -33.0116
   -32.9880 -32.9847 -32.9401 -32.9352 -32.8814 -32.8620 -32.8329 -32.7848
   -11.3875 -11.3057 -11.2981 -11.2062 -10.6134 -10.5129 -10.4917 -10.3890
    -3.3197  -3.0695  -3.0334  -2.8091  -1.9452  -1.8710  -1.8255  -1.8122
    -1.7100  -1.6445  -1.5371  -1.4211  -0.5098  -0.4888  -0.4609  -0.4117
     0.2182   0.2372   0.2674   0.3152   0.3568   0.5992   0.6015   0.8889
     1.1415   1.1864   1.2395   1.3047   3.8544   4.0566   4.1031   4.2585
     4.3279   4.3399   4.4146   4.4223   4.7924   5.0172

          k = 0.0000 0.3608 0.0000 ( 35299 PWs)   bands (ev):

   -58.8703 -58.8495 -58.8218 -58.7726 -33.1119 -33.0927 -33.0634 -33.0172
   -33.0155 -32.9962 -32.9693 -32.9198 -32.8990 -32.8796 -32.8504 -32.8023
   -11.0044 -10.9303 -10.9227 -10.8369 -10.4399 -10.3598 -10.3370 -10.2495
    -3.3568  -3.2028  -3.1886  -3.0601  -2.3096  -2.1866  -2.1119  -2.0205
    -1.9511  -1.9084  -1.8222  -1.7262  -0.7982  -0.7763  -0.7486  -0.6987
     0.1214   0.3612   0.3620   0.5374   0.5653   0.5922   0.6147   0.6468
     0.9211   0.9660   1.0108   1.0745   3.9687   4.1551   4.1796   4.2108
     4.2117   4.2269   4.3012   4.5076   5.1215   5.3494

          k = 0.0000 0.4330 0.0000 ( 35224 PWs)   bands (ev):

   -58.8636 -58.8429 -58.8151 -58.7659 -33.1751 -33.1560 -33.1266 -33.0788
   -33.0041 -32.9831 -32.9562 -32.9138 -32.9067 -32.8944 -32.8652 -32.8172
   -10.6405 -10.5780 -10.5701 -10.4937 -10.2784 -10.2198 -10.1966 -10.1240
    -3.5898  -3.4984  -3.4924  -3.4089  -2.6477  -2.5370  -2.5074  -2.4118
    -2.0632  -1.9595  -1.9377  -1.8076  -1.0189  -0.9964  -0.9689  -0.9185
    -0.0539   0.1733   0.1765   0.3996   0.7913   0.8323   0.8560   0.9197
     0.9408   1.0070   1.0463   1.1276   4.1495   4.1890   4.2082   4.2281
     4.2713   4.4007   4.4203   4.6477   5.4274   5.6318

          k = 0.0000 0.5052 0.0000 ( 35152 PWs)   bands (ev):

   -58.8591 -58.8384 -58.8107 -58.7614 -33.2170 -33.1980 -33.1685 -33.1208
   -32.9954 -32.9743 -32.9475 -32.9237 -32.9043 -32.8979 -32.8751 -32.8271
   -10.3683 -10.3192 -10.3104 -10.2455 -10.1602 -10.1201 -10.0984 -10.0367
    -3.8182  -3.7520  -3.7441  -3.6758  -2.8850  -2.8003  -2.7749  -2.6924
    -2.1663  -2.0575  -2.0445  -1.9202  -1.1567  -1.1337  -1.1064  -1.0556
    -0.1493   0.0658   0.0677   0.2689   0.9450   0.9982   1.0196   1.0916
     1.1292   1.2059   1.2304   1.3156   4.1981   4.2249   4.2484   4.3025
     4.5180   4.6288   4.6432   4.7826   5.6165   5.7925

          k = 0.0000-0.5774 0.0000 ( 35026 PWs)   bands (ev):

   -58.8576 -58.8368 -58.8091 -58.7598 -33.2317 -33.2126 -33.1832 -33.1355
   -32.9923 -32.9712 -32.9444 -32.9271 -32.9077 -32.8948 -32.8786 -32.8305
   -10.2647 -10.2228 -10.2131 -10.1550 -10.1158 -10.0838 -10.0637 -10.0056
    -3.9102  -3.8496  -3.8402  -3.7751  -2.9701  -2.8964  -2.8697  -2.7914
    -2.2144  -2.1063  -2.0937  -1.9726  -1.2034  -1.1803  -1.1530  -1.1022
    -0.1779   0.0319   0.0325   0.2249   0.9949   1.0529   1.0735   1.1489
     1.2455   1.3124   1.3275   1.4028   4.2267   4.2494   4.2750   4.3260
     4.6718   4.7364   4.7519   4.8293   5.6751   5.8348

          k = 0.0625 0.1083 0.0000 ( 35467 PWs)   bands (ev):

   -58.8941 -58.8734 -58.8456 -58.7964 -33.0637 -33.0428 -33.0159 -32.9664
   -32.8801 -32.8607 -32.8460 -32.8316 -32.8266 -32.7974 -32.7835 -32.7493
   -12.0656 -11.9770 -11.9687 -11.8716 -10.9257 -10.7923 -10.7748 -10.6469
    -3.8403  -3.5112  -3.4786  -3.1586  -0.9989  -0.9822  -0.9569  -0.9482
    -0.9042  -0.5259  -0.4969  -0.4400  -0.4280  -0.3938  -0.3525  -0.1723
     0.1811   0.1981   0.2272   0.2732   0.6958   0.8543   0.8815   1.2169
     1.5887   1.7616   2.0058   2.2118   4.4942   4.5176   4.5293   4.5518
     4.5550   4.6245   4.6408   4.7144   4.7375   4.8063

          k = 0.0625 0.1804 0.0000 ( 35370 PWs)   bands (ev):

   -58.8886 -58.8678 -58.8401 -58.7908 -33.0529 -33.0319 -33.0050 -32.9556
   -32.9336 -32.9143 -32.8851 -32.8597 -32.8403 -32.8371 -32.8112 -32.7631
   -11.8417 -11.7546 -11.7466 -11.6506 -10.8221 -10.6991 -10.6803 -10.5605
    -3.6104  -3.2925  -3.2537  -2.9451  -1.3830  -1.3604  -1.3393  -1.3033
    -1.2447  -0.9362  -0.8865  -0.6308  -0.2243  -0.2104  -0.1920  -0.1704
    -0.1673  -0.1467  -0.1258  -0.0922   0.7470   0.9324   0.9636   1.2571
     1.5009   1.6050   1.7668   1.8752   4.1005   4.2012   4.2477   4.4031
     4.4641   4.4791   4.5263   4.5821   4.6250   4.6882

          k = 0.0625 0.2526 0.0000 ( 35362 PWs)   bands (ev):

   -58.8813 -58.8606 -58.8328 -58.7836 -33.0388 -33.0177 -33.0028 -32.9909
   -32.9835 -32.9543 -32.9414 -32.9063 -32.8777 -32.8583 -32.8291 -32.7810
   -11.5307 -11.4468 -11.4391 -11.3455 -10.6785 -10.5707 -10.5502 -10.4420
    -3.3669  -3.0838  -3.0421  -2.7761  -1.7755  -1.7222  -1.7214  -1.6838
    -1.5742  -1.3919  -1.3163  -1.1541  -0.5623  -0.5416  -0.5106  -0.4599
     0.0438   0.0616   0.0910   0.1377   0.6447   0.8378   0.8505   1.1053
     1.2843   1.3287   1.4022   1.4644   3.8341   4.0093   4.0520   4.2558
     4.3795   4.4106   4.4401   4.4865   4.5946   4.6166

          k = 0.0625 0.3248 0.0000 ( 35310 PWs)   bands (ev):

   -58.8734 -58.8527 -58.8250 -58.7757 -33.0768 -33.0576 -33.0283 -33.0234
   -33.0023 -32.9805 -32.9755 -32.9260 -32.8970 -32.8776 -32.8485 -32.8004
   -11.1638 -11.0859 -11.0784 -10.9896 -10.5106 -10.4217 -10.3994 -10.3053
    -3.2778  -3.0785  -3.0543  -2.8861  -2.1134  -2.0197  -1.8988  -1.8791
    -1.8761  -1.8169  -1.6940  -1.6523  -0.8676  -0.8339  -0.8025  -0.7413
     0.2777   0.3047   0.3237   0.3763   0.4337   0.6124   0.6162   0.8395
     1.0515   1.0820   1.1187   1.1755   3.7945   3.9887   4.0147   4.1712
     4.3108   4.3407   4.3874   4.5048   4.8513   5.0724

          k = 0.0625 0.3969 0.0000 ( 35243 PWs)   bands (ev):

   -58.8662 -58.8454 -58.8177 -58.7684 -33.1445 -33.1254 -33.0960 -33.0482
   -33.0092 -32.9881 -32.9613 -32.9149 -32.9117 -32.8955 -32.8663 -32.8183
   -10.7871 -10.7190 -10.7113 -10.6303 -10.3408 -10.2729 -10.2496 -10.1707
    -3.4324  -3.3154  -3.3077  -3.2067  -2.4824  -2.3699  -2.3358  -2.2429
    -1.9913  -1.8974  -1.8707  -1.7390  -1.0668  -1.0278  -0.9993  -0.9372
     0.1689   0.3484   0.3602   0.4229   0.4524   0.4825   0.5069   0.5969
     1.0611   1.0873   1.1186   1.1719   3.9254   4.0785   4.0917   4.2023
     4.3548   4.3991   4.4324   4.5930   5.1893   5.3887

          k = 0.0625 0.4691 0.0000 ( 35169 PWs)   bands (ev):

   -58.8606 -58.8398 -58.8121 -58.7629 -33.1958 -33.1767 -33.1473 -33.0996
   -32.9982 -32.9771 -32.9503 -32.9285 -32.9091 -32.9008 -32.8799 -32.8319
   -10.4639 -10.4088 -10.4005 -10.3305 -10.1977 -10.1504 -10.1276 -10.0619
    -3.6702  -3.5939  -3.5872  -3.5130  -2.7987  -2.7129  -2.6923  -2.6110
    -2.0939  -1.9810  -1.9720  -1.8423  -1.1743  -1.1406  -1.1184  -1.0606
    -0.0229   0.1638   0.1646   0.3432   0.5461   0.5922   0.6096   0.6839
     1.2346   1.2680   1.2952   1.3548   4.1158   4.1940   4.2075   4.2798
     4.4909   4.5603   4.5832   4.7236   5.5006   5.6621

          k = 0.0625 0.5413 0.0000 ( 35128 PWs)   bands (ev):

   -58.8576 -58.8368 -58.8091 -58.7598 -33.2234 -33.2044 -33.1749 -33.1272
   -32.9923 -32.9712 -32.9444 -32.9358 -32.9164 -32.8948 -32.8873 -32.8392
   -10.2705 -10.2271 -10.2177 -10.1586 -10.1134 -10.0805 -10.0598 -10.0014
    -3.8302  -3.7687  -3.7591  -3.6934  -2.9773  -2.9085  -2.8873  -2.8116
    -2.1832  -2.0708  -2.0614  -1.9383  -1.2176  -1.1915  -1.1730  -1.1191
    -0.1279   0.0600   0.0625   0.2364   0.6362   0.6948   0.7075   0.7821
     1.3885   1.4333   1.4551   1.5208   4.2266   4.2527   4.2709   4.3229
     4.6665   4.7347   4.7518   4.8404   5.7217   5.8423

          k = 0.1250 0.2165 0.0000 ( 35331 PWs)   bands (ev):

   -58.8824 -58.8617 -58.8339 -58.7847 -33.0409 -33.0199 -32.9930 -32.9888
   -32.9695 -32.9435 -32.9403 -32.8923 -32.8785 -32.8591 -32.8300 -32.7819
   -11.5798 -11.4953 -11.4875 -11.3935 -10.7008 -10.5904 -10.5702 -10.4601
    -3.3861  -3.0919  -3.0489  -2.7683  -1.7036  -1.6695  -1.6628  -1.6165
    -1.4784  -1.2298  -1.1610  -0.9670  -0.7008  -0.6850  -0.6480  -0.6008
    -0.0357  -0.0182   0.0102   0.0567   0.8299   0.9952   1.0195   1.2359
     1.3513   1.3862   1.4783   1.5335   3.8217   3.9852   4.0223   4.2162
     4.3743   4.4049   4.4372   4.4577   4.4641   4.5216

          k = 0.1250 0.2887 0.0000 ( 35357 PWs)   bands (ev):

   -58.8751 -58.8544 -58.8267 -58.7774 -33.0521 -33.0329 -33.0267 -33.0057
   -33.0036 -32.9788 -32.9557 -32.9293 -32.9018 -32.8824 -32.8533 -32.8052
   -11.2477 -11.1680 -11.1605 -11.0703 -10.5473 -10.4536 -10.4317 -10.3341
    -3.2293  -2.9967  -2.9647  -2.7622  -1.9562  -1.8994  -1.8396  -1.8064
    -1.7036  -1.6335  -1.5359  -1.4707  -1.1313  -1.0791  -1.0338  -0.9226
     0.0673   0.0940   0.1148   0.1681   0.7567   0.9006   0.9029   1.0751
     1.1584   1.1681   1.1987   1.2495   3.6603   3.8628   3.8905   4.0914
     4.3702   4.4089   4.4142   4.4795   4.6048   4.6256

          k = 0.1250 0.3608 0.0000 ( 35341 PWs)   bands (ev):

   -58.8679 -58.8471 -58.8194 -58.7701 -33.1143 -33.0952 -33.0659 -33.0180
   -33.0125 -32.9914 -32.9646 -32.9255 -32.9151 -32.9061 -32.8770 -32.8289
   -10.8832 -10.8116 -10.8041 -10.7204 -10.3798 -10.3057 -10.2825 -10.1991
    -3.2767  -3.1284  -3.1171  -2.9927  -2.2823  -2.1914  -2.1558  -2.0905
    -1.8979  -1.8174  -1.8023  -1.6752  -1.3264  -1.2302  -1.1741  -1.0546
     0.0092   0.0465   0.0614   0.1202   0.5357   0.6531   0.6592   0.7978
     1.1136   1.1369   1.1606   1.2127   3.6951   3.9194   3.9376   4.1589
     4.4409   4.4700   4.4939   4.5791   4.8449   5.0531

          k = 0.1250 0.4330 0.0000 ( 35215 PWs)   bands (ev):

   -58.8617 -58.8410 -58.8132 -58.7640 -33.1665 -33.1474 -33.1180 -33.0702
   -33.0004 -32.9793 -32.9525 -32.9457 -32.9263 -32.9030 -32.8971 -32.8491
   -10.5393 -10.4795 -10.4716 -10.3977 -10.2232 -10.1698 -10.1464 -10.0769
    -3.4573  -3.3614  -3.3559  -3.2689  -2.6949  -2.6296  -2.6183  -2.5499
    -1.9692  -1.8551  -1.8445  -1.7208  -1.3564  -1.2570  -1.2168  -1.1111
    -0.0455   0.0167   0.0257   0.1016   0.2603   0.3698   0.3785   0.5053
     1.2525   1.2767   1.3022   1.3546   3.9013   4.1101   4.1220   4.3281
     4.5492   4.5710   4.6066   4.6684   5.1538   5.3172

          k = 0.1250 0.5052 0.0000 ( 35141 PWs)   bands (ev):

   -58.8576 -58.8368 -58.8091 -58.7598 -33.2010 -33.1820 -33.1526 -33.1048
   -32.9923 -32.9712 -32.9592 -32.9444 -32.9398 -32.9106 -32.8949 -32.8626
   -10.2842 -10.2376 -10.2287 -10.1672 -10.1077 -10.0725 -10.0507  -9.9913
    -3.6205  -3.5524  -3.5430  -3.4735  -2.9902  -2.9373  -2.9273  -2.8586
    -2.0879  -1.9641  -1.9634  -1.8399  -1.3085  -1.2302  -1.2093  -1.1293
    -0.0493   0.0368   0.0670   0.0881   0.1331   0.1444   0.1795   0.2938
     1.4394   1.4734   1.4987   1.5579   4.1199   4.2196   4.2372   4.3320
     4.6997   4.7570   4.7752   4.8695   5.4272   5.5417

          k = 0.1250 0.5774 0.0000 ( 35180 PWs)   bands (ev):

   -58.8561 -58.8354 -58.8076 -58.7584 -33.2131 -33.1941 -33.1646 -33.1169
   -32.9895 -32.9684 -32.9639 -32.9446 -32.9416 -32.9154 -32.8920 -32.8674
   -10.1876 -10.1481 -10.1382 -10.0862 -10.0621 -10.0369 -10.0166  -9.9606
    -3.6838  -3.6255  -3.6129  -3.5487  -3.0955  -3.0460  -3.0356  -2.9665
    -2.1480  -2.0268  -2.0223  -1.9010  -1.2617  -1.2102  -1.2024  -1.1350
    -0.1055   0.0272   0.0562   0.0619   0.0958   0.1119   0.1636   0.2382
     1.5317   1.5741   1.5983   1.6632   4.1940   4.2211   4.2373   4.2915
     4.8110   4.8840   4.8971   4.9700   5.5390   5.6558

          k = 0.1875 0.3248 0.0000 ( 35337 PWs)   bands (ev):

   -58.8685 -58.8477 -58.8200 -58.7707 -33.1008 -33.0816 -33.0523 -33.0137
   -33.0044 -32.9926 -32.9658 -32.9323 -32.9163 -32.9129 -32.8837 -32.8357
   -10.9165 -10.8438 -10.8364 -10.7518 -10.3930 -10.3168 -10.2936 -10.2087
    -3.2105  -3.0463  -3.0330  -2.8957  -2.1537  -2.0844  -2.0523  -2.0196
    -1.8525  -1.7757  -1.7710  -1.6800  -1.4679  -1.3601  -1.2726  -1.1244
    -0.1647  -0.1270  -0.1140  -0.0536   0.7002   0.7942   0.7963   0.9076
     1.1195   1.1472   1.1694   1.2248   3.6071   3.8564   3.8716   4.1326
     4.4647   4.4966   4.5031   4.5610   4.7002   4.7533

          k = 0.1875 0.3969 0.0000 ( 35241 PWs)   bands (ev):

   -58.8623 -58.8416 -58.8138 -58.7646 -33.1427 -33.1236 -33.0942 -33.0464
   -33.0016 -32.9805 -32.9631 -32.9537 -32.9438 -32.9146 -32.9042 -32.8666
   -10.5807 -10.5183 -10.5107 -10.4347 -10.2359 -10.1789 -10.1552 -10.0834
    -3.2963  -3.1795  -3.1749  -3.0729  -2.6018  -2.5688  -2.5623  -2.5069
    -1.8335  -1.7555  -1.6889  -1.6356  -1.4658  -1.3734  -1.2843  -1.1501
    -0.4830  -0.4347  -0.4220  -0.3552   0.4715   0.5396   0.5440   0.6282
     1.2224   1.2514   1.2780   1.3355   3.7605   4.0371   4.0405   4.3610
     4.5761   4.5984   4.6170   4.6698   4.8797   5.0606

          k = 0.1875 0.4691 0.0000 ( 35167 PWs)   bands (ev):

   -58.8576 -58.8368 -58.8091 -58.7598 -33.1732 -33.1541 -33.1247 -33.0769
   -32.9924 -32.9880 -32.9713 -32.9687 -32.9445 -32.9395 -32.8949 -32.8915
   -10.2975 -10.2480 -10.2395 -10.1757 -10.1021 -10.0644 -10.0417  -9.9811
    -3.3824  -3.2956  -3.2883  -3.2082  -2.9986  -2.9640  -2.9638  -2.9016
    -1.9181  -1.7941  -1.7804  -1.6963  -1.4075  -1.2814  -1.2428  -1.1175
    -0.6675  -0.5830  -0.5738  -0.4732   0.1710   0.2516   0.2567   0.3417
     1.4234   1.4485   1.4763   1.5296   3.9777   4.1555   4.1614   4.3305
     4.7411   4.7973   4.8055   4.9044   5.0888   5.2066

          k = 0.1875 0.5413 0.0000 ( 35162 PWs)   bands (ev):

   -58.8550 -58.8343 -58.8065 -58.7573 -33.1892 -33.1701 -33.1407 -33.0929
   -33.0020 -32.9874 -32.9827 -32.9662 -32.9534 -32.9394 -32.9055 -32.8899
   -10.1306 -10.0923 -10.0823 -10.0382 -10.0157  -9.9986  -9.9774  -9.9235
    -3.4198  -3.3600  -3.3406  -3.2757  -3.2148  -3.1813  -3.1766  -3.1129
    -2.0612  -1.9317  -1.9294  -1.8184  -1.2797  -1.1808  -1.1757  -1.0822
    -0.7117  -0.6017  -0.5924  -0.4841  -0.0374   0.0407   0.0544   0.1409
     1.6077   1.6402   1.6665   1.7255   4.0466   4.0912   4.1100   4.1742
     4.9284   5.0250   5.0558   5.1472   5.2000   5.3042

          k = 0.2500 0.4330 0.0000 ( 35195 PWs)   bands (ev):

   -58.8576 -58.8368 -58.8091 -58.7598 -33.1587 -33.1396 -33.1102 -33.0624
   -33.0030 -32.9924 -32.9836 -32.9713 -32.9544 -32.9445 -32.9065 -32.8949
   -10.3028 -10.2522 -10.2439 -10.1792 -10.0998 -10.0611 -10.0380  -9.9769
    -3.2738  -3.1728  -3.1673  -3.0840  -2.9995  -2.9784  -2.9689  -2.9193
    -1.7366  -1.6901  -1.6110  -1.6064  -1.3983  -1.3052  -1.2337  -1.1011
    -0.9828  -0.9471  -0.9278  -0.8750   0.2407   0.2928   0.3020   0.3770
     1.4067   1.4308   1.4604   1.5129   3.9176   4.1221   4.1252   4.3218
     4.7518   4.8075   4.8154   4.9113   4.9602   5.1020

          k = 0.2500 0.5052 0.0000 ( 35193 PWs)   bands (ev):

   -58.8544 -58.8337 -58.8059 -58.7567 -33.1634 -33.1443 -33.1149 -33.0672
   -33.0355 -33.0162 -32.9870 -32.9862 -32.9651 -32.9390 -32.9383 -32.8887
   -10.1025 -10.0641 -10.0543 -10.0137  -9.9892  -9.9760  -9.9536  -9.9011
    -3.3069  -3.2754  -3.2707  -3.2190  -3.1548  -3.0803  -3.0772  -2.9974
    -1.8905  -1.7652  -1.7627  -1.7047  -1.3419  -1.2762  -1.2075  -1.2037
    -1.1492  -1.1475  -1.0549  -0.9853  -0.0365   0.0298   0.0319   0.1161
     1.6474   1.6709   1.6992   1.7510   3.9144   3.9776   3.9946   4.0736
     4.8961   4.9669   4.9899   5.0490   5.1800   5.2579

          k = 0.2500 0.5774 0.0000 ( 35190 PWs)   bands (ev):

   -58.8533 -58.8325 -58.8048 -58.7556 -33.1632 -33.1442 -33.1148 -33.0670
   -33.0488 -33.0295 -33.0002 -32.9840 -32.9629 -32.9523 -32.9361 -32.8865
   -10.0276  -9.9958  -9.9856  -9.9694  -9.9447  -9.9394  -9.9181  -9.8734
    -3.4063  -3.3762  -3.3747  -3.3186  -3.0704  -3.0196  -3.0102  -2.9473
    -2.0452  -1.9282  -1.9195  -1.8317  -1.3794  -1.2740  -1.2384  -1.1779
    -1.1016  -1.0553  -1.0082  -0.9518  -0.1567  -0.1059  -0.0961  -0.0205
     1.7740   1.8012   1.8280   1.8830   3.8420   3.8629   3.8874   3.9366
     4.9225   4.9847   5.0264   5.0546   5.3389   5.3794

          k = 0.3125 0.5413 0.0000 ( 35172 PWs)   bands (ev):

   -58.8527 -58.8319 -58.8042 -58.7550 -33.1422 -33.1231 -33.0937 -33.0772
   -33.0579 -33.0459 -33.0287 -32.9829 -32.9807 -32.9617 -32.9349 -32.8854
    -9.9910  -9.9622  -9.9544  -9.9440  -9.9248  -9.9155  -9.8923  -9.8545
    -3.4742  -3.4463  -3.4437  -3.3870  -2.8465  -2.7813  -2.7730  -2.7034
    -2.0369  -2.0254  -1.9888  -1.9591  -1.5568  -1.5282  -1.5224  -1.4987
    -1.0518  -0.9819  -0.9640  -0.8946  -0.2448  -0.1844  -0.1708  -0.0908
     1.8560   1.8795   1.9065   1.9583   3.7260   3.7457   3.7726   3.8210
     4.8593   4.8907   4.9491   4.9646   5.4338   5.5052

     the Fermi energy is     2.9702 ev

!    total energy              =   -1978.35764186 Ry
     total all-electron energy =    -38771.678487 Ry
     estimated scf accuracy    <          8.5E-09 Ry
     smearing contrib. (-TS)   =       0.00003313 Ry
     internal energy E=F+TS    =   -1978.35767499 Ry

     The total energy is F=E-TS. E is the sum of the following terms:
     one-electron contribution =  -12607.58815125 Ry
     hartree contribution      =    6325.39949321 Ry
     xc contribution           =    -119.22546523 Ry
     ewald contribution        =    5692.90930780 Ry
     one-center paw contrib.   =   -1269.85285952 Ry

     convergence has been achieved in  66 iterations

     Writing all to output data dir ./tmp/cleave2/cleave_dz021_dz4p5/mos2_cleave.save/ :
     XML data file, charge density, pseudopotentials, collected wavefunctions

     init_run     :    121.85s CPU    124.02s WALL (       1 calls)
     electrons    :  12931.84s CPU  13148.29s WALL (       1 calls)

     Called by init_run:
     wfcinit      :     74.19s CPU     74.92s WALL (       1 calls)
     potinit      :     44.09s CPU     44.50s WALL (       1 calls)
     hinit0       :      0.34s CPU      0.37s WALL (       1 calls)

     Called by electrons:
     c_bands      :  10686.78s CPU  10751.26s WALL (      67 calls)
     sum_band     :   1711.77s CPU   1782.13s WALL (      67 calls)
     v_of_rho     :    256.73s CPU    278.11s WALL (      67 calls)
     newd         :    203.77s CPU    263.94s WALL (      67 calls)
     PAW_pot      :     26.93s CPU     26.94s WALL (      67 calls)
     mix_rho      :     90.35s CPU     91.76s WALL (      67 calls)
     vdW_kernel   :     40.45s CPU     40.45s WALL (       1 calls)

     Called by c_bands:
     init_us_2    :     50.51s CPU     50.56s WALL (    4050 calls)
     init_us_2:cp :     50.50s CPU     50.56s WALL (    4050 calls)
     cegterg      :  10196.94s CPU  10260.87s WALL (    2010 calls)

     Called by *egterg:
     cdiaghg      :     14.81s CPU     14.82s WALL (    5907 calls)
     h_psi        :   5526.61s CPU   5551.52s WALL (    5967 calls)
     s_psi        :   1622.00s CPU   1622.48s WALL (    5967 calls)
     g_psi        :     23.37s CPU     23.38s WALL (    3927 calls)

     Called by h_psi:
     h_psi:calbec :   2108.52s CPU   2109.01s WALL (    5967 calls)
     vloc_psi     :   1784.92s CPU   1786.12s WALL (    5967 calls)
     add_vuspsi   :   1622.04s CPU   1622.46s WALL (    5967 calls)

     General routines
     calbec       :   3095.36s CPU   3096.13s WALL (    7977 calls)
     fft          :     82.79s CPU     82.82s WALL (    4220 calls)
     ffts         :     44.35s CPU     44.36s WALL (    8129 calls)
     fftw         :   1628.07s CPU   1628.93s WALL (  658796 calls)
     interpolate  :      1.96s CPU      1.96s WALL (      67 calls)

     Parallel routines

     PWSCF        :      3h37m CPU      3h41m WALL


   This run was terminated on:   3:36: 5  13Jun2026            

=------------------------------------------------------------------------------=
   JOB DONE.
=------------------------------------------------------------------------------=
Note: The following floating-point exceptions are signalling: IEEE_UNDERFLOW_FLAG IEEE_DENORMAL
