Authorization required, but no authorization protocol specified

Authorization required, but no authorization protocol specified

Authorization required, but no authorization protocol specified

Authorization required, but no authorization protocol specified

Authorization required, but no authorization protocol specified

Authorization required, but no authorization protocol specified

Authorization required, but no authorization protocol specified

Authorization required, but no authorization protocol specified


     Program PWSCF v.7.3 starts on 14Jun2026 at  3:57:34 

     This program is part of the open-source Quantum ESPRESSO suite
     for quantum simulation of materials; please cite
         "P. Giannozzi et al., J. Phys.:Condens. Matter 21 395502 (2009);
         "P. Giannozzi et al., J. Phys.:Condens. Matter 29 465901 (2017);
         "P. Giannozzi et al., J. Chem. Phys. 152 154105 (2020);
          URL http://www.quantum-espresso.org", 
     in publications or presentations arising from this work. More details at
     http://www.quantum-espresso.org/quote

     Parallel version (MPI), running on     1 processors

     MPI processes distributed on     1 nodes
     7879 MiB available memory on the printing compute node when the environment starts

     Waiting for input...
     Reading input from standard input

     Current dimensions of program PWSCF are:
     Max number of different atomic species (ntypx) = 10
     Max number of k-points (npk) =  40000
     Max angular momentum in pseudopotentials (lmaxx) =  4
     file Mo.pbe-spn-kjpaw_psl.1.0.0.UPF: wavefunction(s)  4S 4D renormalized
     file S.pbe-n-kjpaw_psl.1.0.0.UPF: wavefunction(s)  3S 3P renormalized

     IMPORTANT: XC functional enforced from input :
     Exchange-correlation= VDW-DF2-B86R
                           (   1   4  26   0   2   0   0)
     Any further DFT definition will be discarded
     Please, verify this is what you really want


     Subspace diagonalization in iterative solution of the eigenvalue problem:
     a serial algorithm will be used


     G-vector sticks info
     --------------------
     sticks:   dense  smooth     PW     G-vecs:    dense   smooth      PW
     Sum        1573     769    223               797393   281171   43435

     Using Slab Decomposition



     bravais-lattice index     =            4
     lattice parameter (alat)  =       5.9715  a.u.
     unit-cell volume          =    2917.9067 (a.u.)^3
     number of atoms/cell      =           12
     number of atomic types    =            2
     number of electrons       =       104.00
     number of Kohn-Sham states=           62
     kinetic-energy cutoff     =      80.0000  Ry
     charge density cutoff     =     640.0000  Ry
     scf convergence threshold =      1.0E-08
     mixing beta               =       0.2000
     number of iterations used =            8  local-TF  mixing
     Exchange-correlation= VDW-DF2-B86R
                           (   1   4  26   0   2   0   0)

     celldm(1)=   5.971535  celldm(2)=   0.000000  celldm(3)=  15.822785
     celldm(4)=   0.000000  celldm(5)=   0.000000  celldm(6)=   0.000000

     crystal axes: (cart. coord. in units of alat)
               a(1) = (   1.000000   0.000000   0.000000 )  
               a(2) = (  -0.500000   0.866025   0.000000 )  
               a(3) = (   0.000000   0.000000  15.822785 )  

     reciprocal axes: (cart. coord. in units 2 pi/alat)
               b(1) = (  1.000000  0.577350 -0.000000 )  
               b(2) = (  0.000000  1.154701  0.000000 )  
               b(3) = (  0.000000 -0.000000  0.063200 )  


     PseudoPot. # 1 for Mo read from file:
     ./pseudo/Mo.pbe-spn-kjpaw_psl.1.0.0.UPF
     MD5 check sum: 4396e0c640fcce5c25f020efccf1ab12
     Pseudo is Projector augmented-wave + core cor, Zval = 14.0
     Generated using &quot;atomic&quot; code by A. Dal Corso  v.6.3
     Shape of augmentation charge: PSQ
     Using radial grid of 1229 points,  6 beta functions with: 
                l(1) =   0
                l(2) =   0
                l(3) =   1
                l(4) =   1
                l(5) =   2
                l(6) =   2
     Q(r) pseudized with 0 coefficients 


     PseudoPot. # 2 for S  read from file:
     ./pseudo/S.pbe-n-kjpaw_psl.1.0.0.UPF
     MD5 check sum: fb45dfebcf3e72a4e1bd4a866ec2e262
     Pseudo is Projector augmented-wave + core cor, Zval =  6.0
     Generated using &quot;atomic&quot; code by A. Dal Corso  v.6.3
     Shape of augmentation charge: PSQ
     Using radial grid of 1151 points,  6 beta functions with: 
                l(1) =   0
                l(2) =   0
                l(3) =   1
                l(4) =   1
                l(5) =   2
                l(6) =   2
     Q(r) pseudized with 0 coefficients 


     atomic species   valence    mass     pseudopotential
     Mo               14.00    95.96000     Mo( 1.00)
     S                 6.00    32.06000     S ( 1.00)

      6 Sym. Ops. (no inversion) found



   Cartesian axes

     site n.     atom                  positions (alat units)
         1        S      tau(   1) = (  -0.0000005   0.5773503  -0.9967195  )
         2        Mo     tau(   2) = (   0.0000000   0.0000000  -0.4993332  )
         3        S      tau(   3) = (  -0.0000005   0.5773503  -0.0017175  )
         4        S      tau(   4) = (   0.5000003   0.2886747   0.9835827  )
         5        Mo     tau(   5) = (  -0.0000005   0.5773503   1.4818950  )
         6        S      tau(   6) = (   0.5000003   0.2886747   1.9798512  )
         7        S      tau(   7) = (   0.0000000   0.0000000   2.9586848  )
         8        Mo     tau(   8) = (   0.5000003   0.2886747   3.4569999  )
         9        S      tau(   9) = (   0.0000000   0.0000000   3.9548385  )
        10        S      tau(  10) = (  -0.0000005   0.5773503   7.4524072  )
        11        Mo     tau(  11) = (   0.0000000   0.0000000   7.9500438  )
        12        S      tau(  12) = (  -0.0000005   0.5773503   8.4471779  )

     number of k points=    30  Methfessel-Paxton smearing, width (Ry)=  0.0200
                       cart. coord. in units 2pi/alat
        k(    1) = (   0.0000000   0.0000000   0.0000000), wk =   0.0078125
        k(    2) = (   0.0000000   0.0721688   0.0000000), wk =   0.0468750
        k(    3) = (   0.0000000   0.1443376   0.0000000), wk =   0.0468750
        k(    4) = (   0.0000000   0.2165064   0.0000000), wk =   0.0468750
        k(    5) = (   0.0000000   0.2886751   0.0000000), wk =   0.0468750
        k(    6) = (   0.0000000   0.3608439   0.0000000), wk =   0.0468750
        k(    7) = (   0.0000000   0.4330127   0.0000000), wk =   0.0468750
        k(    8) = (   0.0000000   0.5051815   0.0000000), wk =   0.0468750
        k(    9) = (   0.0000000  -0.5773503   0.0000000), wk =   0.0234375
        k(   10) = (   0.0625000   0.1082532   0.0000000), wk =   0.0468750
        k(   11) = (   0.0625000   0.1804220   0.0000000), wk =   0.0937500
        k(   12) = (   0.0625000   0.2525907   0.0000000), wk =   0.0937500
        k(   13) = (   0.0625000   0.3247595   0.0000000), wk =   0.0937500
        k(   14) = (   0.0625000   0.3969283   0.0000000), wk =   0.0937500
        k(   15) = (   0.0625000   0.4690971   0.0000000), wk =   0.0937500
        k(   16) = (   0.0625000   0.5412659   0.0000000), wk =   0.0937500
        k(   17) = (   0.1250000   0.2165064   0.0000000), wk =   0.0468750
        k(   18) = (   0.1250000   0.2886751   0.0000000), wk =   0.0937500
        k(   19) = (   0.1250000   0.3608439   0.0000000), wk =   0.0937500
        k(   20) = (   0.1250000   0.4330127   0.0000000), wk =   0.0937500
        k(   21) = (   0.1250000   0.5051815   0.0000000), wk =   0.0937500
        k(   22) = (   0.1250000   0.5773503   0.0000000), wk =   0.0468750
        k(   23) = (   0.1875000   0.3247595   0.0000000), wk =   0.0468750
        k(   24) = (   0.1875000   0.3969283   0.0000000), wk =   0.0937500
        k(   25) = (   0.1875000   0.4690971   0.0000000), wk =   0.0937500
        k(   26) = (   0.1875000   0.5412659   0.0000000), wk =   0.0937500
        k(   27) = (   0.2500000   0.4330127   0.0000000), wk =   0.0468750
        k(   28) = (   0.2500000   0.5051815   0.0000000), wk =   0.0937500
        k(   29) = (   0.2500000   0.5773503   0.0000000), wk =   0.0468750
        k(   30) = (   0.3125000   0.5412659   0.0000000), wk =   0.0468750

     Dense  grid:   797393 G-vectors     FFT dimensions: (  50,  50, 768)

     Smooth grid:   281171 G-vectors     FFT dimensions: (  36,  36, 540)

     Estimated max dynamical RAM per process >       3.90 GB

     Initial potential from superposition of free atoms

     starting charge     103.9962, renormalised to     104.0000

     negative rho (up, down):  1.227E-04 0.000E+00


     %%%%%%%%%%%%%%%%%%%%%%%%%%%%%%%%%%%%%%%%%%%%%%%%%%%%%%%%%%%%%%%%%%%%%%%%
     %                                                                      %
     % You are using vdW-DF, which was implemented by the Thonhauser group. %
     % Please cite the following two papers that made this development      %
     % possible and the two reviews that describe the various versions:     %
     %                                                                      %
     %   T. Thonhauser et al., PRL 115, 136402 (2015).                      %
     %   T. Thonhauser et al., PRB 76, 125112 (2007).                       %
     %   K. Berland et al., Rep. Prog. Phys. 78, 066501 (2015).             %
     %   D.C. Langreth et al., J. Phys.: Condens. Matter 21, 084203 (2009). %
     %                                                                      %
     % If you are calculating stress with vdW-DF, please also cite:         %
     %                                                                      %
     %   R. Sabatini et al., J. Phys.: Condens. Matter 24, 424209 (2012).   %
     %                                                                      %
     %%%%%%%%%%%%%%%%%%%%%%%%%%%%%%%%%%%%%%%%%%%%%%%%%%%%%%%%%%%%%%%%%%%%%%%%

     %%%%%%%%%%%%%%%%%%%%%%%%%%%%%%%%%%%%%%%%%%%%%%%%%%%%%%%%%%%%%%%%%%%%%%%%
     %                                                                      %
     %  vdW-DF NEWS:                                                        %
     %                                                                      %
     %  * vdW-DF3 is now available. DOI: 10.1021/acs.jctc.0c00471           %
     %    use with input_dft = 'vdW-DF3-opt1' or 'vdW-DF3-opt2'             %
     %                                                                      %
     %  * Unscreened and range-separated hybrid vdW-DF-cx functionals       %
     %    DOI: 10.1063/1.4986522 and 10.1088/1361-648X/ac2ad2               %
     %    use with input_dft = 'vdW-DF-cx0'    and 'vdW-DF-ahcx'            %
     %  * Unscreened and range-separated hybrid vdW-DF2-b86r functionals    %
     %    DOI: 10.1063/1.4986522 and DOI: 10.1103/PhysRevX.12.041003        %
     %    use with input_dft = 'vdW-DF2-br0' and 'vdW-DF2-ahbr'             %
     %                                                                      %
     %%%%%%%%%%%%%%%%%%%%%%%%%%%%%%%%%%%%%%%%%%%%%%%%%%%%%%%%%%%%%%%%%%%%%%%%


     Starting wfcs are   72 randomized atomic wfcs
     Checking if some PAW data can be deallocated... 

     total cpu time spent up to now is      124.4 secs

     Self-consistent Calculation

     iteration #  1     ecut=    80.00 Ry     beta= 0.20
     Davidson diagonalization with overlap
     ethr =  1.00E-02,  avg # of iterations =  2.3

     Threshold (ethr) on eigenvalues was too large:
     Diagonalizing with lowered threshold

     Davidson diagonalization with overlap
     ethr =  2.87E-04,  avg # of iterations =  3.7

     negative rho (up, down):  8.649E-06 0.000E+00

     total cpu time spent up to now is      603.1 secs

     total energy              =   -1978.45342520 Ry
     estimated scf accuracy    <       0.44885109 Ry

     iteration #  2     ecut=    80.00 Ry     beta= 0.20
     Davidson diagonalization with overlap
     ethr =  4.32E-04,  avg # of iterations =  1.0

     negative rho (up, down):  3.126E-07 0.000E+00

     total cpu time spent up to now is      782.9 secs

     total energy              =   -1978.27506540 Ry
     estimated scf accuracy    <       0.37153125 Ry

     iteration #  3     ecut=    80.00 Ry     beta= 0.20
     Davidson diagonalization with overlap
     ethr =  3.57E-04,  avg # of iterations =  2.0

     negative rho (up, down):  5.364E-08 0.000E+00

     total cpu time spent up to now is     1020.4 secs

     total energy              =   -1978.35427148 Ry
     estimated scf accuracy    <       0.04947922 Ry

     iteration #  4     ecut=    80.00 Ry     beta= 0.20
     Davidson diagonalization with overlap
     ethr =  4.76E-05,  avg # of iterations =  2.2

     total cpu time spent up to now is     1251.0 secs

     total energy              =   -1978.35710939 Ry
     estimated scf accuracy    <       0.02174062 Ry

     iteration #  5     ecut=    80.00 Ry     beta= 0.20
     Davidson diagonalization with overlap
     ethr =  2.09E-05,  avg # of iterations =  2.9

     total cpu time spent up to now is     1461.3 secs

     total energy              =   -1978.35875466 Ry
     estimated scf accuracy    <       0.00594065 Ry

     iteration #  6     ecut=    80.00 Ry     beta= 0.20
     Davidson diagonalization with overlap
     ethr =  5.71E-06,  avg # of iterations =  4.6

     negative rho (up, down):  1.192E-07 0.000E+00

     total cpu time spent up to now is     1667.9 secs

     total energy              =   -1978.35712838 Ry
     estimated scf accuracy    <       0.00528144 Ry

     iteration #  7     ecut=    80.00 Ry     beta= 0.20
     Davidson diagonalization with overlap
     c_bands:  1 eigenvalues not converged
     c_bands:  1 eigenvalues not converged
     ethr =  5.08E-06,  avg # of iterations =  6.3

     total cpu time spent up to now is     1947.8 secs

     total energy              =   -1978.35647575 Ry
     estimated scf accuracy    <       0.01763407 Ry

     iteration #  8     ecut=    80.00 Ry     beta= 0.20
     Davidson diagonalization with overlap
     c_bands:  1 eigenvalues not converged
     c_bands:  1 eigenvalues not converged
     ethr =  5.08E-06,  avg # of iterations =  3.7

     negative rho (up, down):  1.228E-07 0.000E+00

     total cpu time spent up to now is     2164.3 secs

     total energy              =   -1978.35619792 Ry
     estimated scf accuracy    <       0.00445894 Ry

     iteration #  9     ecut=    80.00 Ry     beta= 0.20
     Davidson diagonalization with overlap
     ethr =  4.29E-06,  avg # of iterations =  4.4

     negative rho (up, down):  9.109E-04 0.000E+00

     total cpu time spent up to now is     2405.6 secs

     total energy              =   -1978.35699876 Ry
     estimated scf accuracy    <       0.00543847 Ry

     iteration # 10     ecut=    80.00 Ry     beta= 0.20
     Davidson diagonalization with overlap
     ethr =  4.29E-06,  avg # of iterations =  1.9

     negative rho (up, down):  3.558E-03 0.000E+00

     total cpu time spent up to now is     2602.1 secs

     total energy              =   -1978.35666953 Ry
     estimated scf accuracy    <       0.00315711 Ry

     iteration # 11     ecut=    80.00 Ry     beta= 0.20
     Davidson diagonalization with overlap
     ethr =  3.04E-06,  avg # of iterations =  3.7

     negative rho (up, down):  3.120E-03 0.000E+00

     total cpu time spent up to now is     2809.7 secs

     total energy              =   -1978.35700290 Ry
     estimated scf accuracy    <       0.00043461 Ry

     iteration # 12     ecut=    80.00 Ry     beta= 0.20
     Davidson diagonalization with overlap
     ethr =  4.18E-07,  avg # of iterations =  9.1

     negative rho (up, down):  8.697E-04 0.000E+00

     total cpu time spent up to now is     3052.2 secs

     total energy              =   -1978.35705667 Ry
     estimated scf accuracy    <       0.00048074 Ry

     iteration # 13     ecut=    80.00 Ry     beta= 0.20
     Davidson diagonalization with overlap
     ethr =  4.18E-07,  avg # of iterations =  1.8

     negative rho (up, down):  4.159E-03 0.000E+00

     total cpu time spent up to now is     3248.5 secs

     total energy              =   -1978.35701733 Ry
     estimated scf accuracy    <       0.00038098 Ry

     iteration # 14     ecut=    80.00 Ry     beta= 0.20
     Davidson diagonalization with overlap
     ethr =  3.66E-07,  avg # of iterations =  1.2

     negative rho (up, down):  4.571E-03 0.000E+00

     total cpu time spent up to now is     3433.3 secs

     total energy              =   -1978.35699409 Ry
     estimated scf accuracy    <       0.00033256 Ry

     iteration # 15     ecut=    80.00 Ry     beta= 0.20
     Davidson diagonalization with overlap
     ethr =  3.20E-07,  avg # of iterations =  2.3

     negative rho (up, down):  2.212E-03 0.000E+00

     total cpu time spent up to now is     3627.7 secs

     total energy              =   -1978.35701666 Ry
     estimated scf accuracy    <       0.00020015 Ry

     iteration # 16     ecut=    80.00 Ry     beta= 0.20
     Davidson diagonalization with overlap
     ethr =  1.92E-07,  avg # of iterations =  5.1

     negative rho (up, down):  3.119E-03 0.000E+00

     total cpu time spent up to now is     3870.9 secs

     total energy              =   -1978.35694154 Ry
     estimated scf accuracy    <       0.00067666 Ry

     iteration # 17     ecut=    80.00 Ry     beta= 0.20
     Davidson diagonalization with overlap
     ethr =  1.92E-07,  avg # of iterations =  2.8

     negative rho (up, down):  2.829E-03 0.000E+00

     total cpu time spent up to now is     4091.1 secs

     total energy              =   -1978.35700030 Ry
     estimated scf accuracy    <       0.00011484 Ry

     iteration # 18     ecut=    80.00 Ry     beta= 0.20
     Davidson diagonalization with overlap
     ethr =  1.10E-07,  avg # of iterations =  2.2

     negative rho (up, down):  1.307E-03 0.000E+00

     total cpu time spent up to now is     4291.6 secs

     total energy              =   -1978.35702181 Ry
     estimated scf accuracy    <       0.00007168 Ry

     iteration # 19     ecut=    80.00 Ry     beta= 0.20
     Davidson diagonalization with overlap
     ethr =  6.89E-08,  avg # of iterations =  2.8

     negative rho (up, down):  1.117E-03 0.000E+00

     total cpu time spent up to now is     4496.7 secs

     total energy              =   -1978.35702625 Ry
     estimated scf accuracy    <       0.00004069 Ry

     iteration # 20     ecut=    80.00 Ry     beta= 0.20
     Davidson diagonalization with overlap
     ethr =  3.91E-08,  avg # of iterations =  5.0

     negative rho (up, down):  8.926E-04 0.000E+00

     total cpu time spent up to now is     4709.7 secs

     total energy              =   -1978.35702013 Ry
     estimated scf accuracy    <       0.00005185 Ry

     iteration # 21     ecut=    80.00 Ry     beta= 0.20
     Davidson diagonalization with overlap
     ethr =  3.91E-08,  avg # of iterations =  1.8

     negative rho (up, down):  7.692E-04 0.000E+00

     total cpu time spent up to now is     4903.9 secs

     total energy              =   -1978.35702330 Ry
     estimated scf accuracy    <       0.00002657 Ry

     iteration # 22     ecut=    80.00 Ry     beta= 0.20
     Davidson diagonalization with overlap
     ethr =  2.55E-08,  avg # of iterations =  2.1

     negative rho (up, down):  6.450E-04 0.000E+00

     total cpu time spent up to now is     5110.1 secs

     total energy              =   -1978.35702736 Ry
     estimated scf accuracy    <       0.00002041 Ry

     iteration # 23     ecut=    80.00 Ry     beta= 0.20
     Davidson diagonalization with overlap
     ethr =  1.96E-08,  avg # of iterations =  1.2

     negative rho (up, down):  3.948E-04 0.000E+00

     total cpu time spent up to now is     5292.9 secs

     total energy              =   -1978.35702644 Ry
     estimated scf accuracy    <       0.00001737 Ry

     iteration # 24     ecut=    80.00 Ry     beta= 0.20
     Davidson diagonalization with overlap
     ethr =  1.67E-08,  avg # of iterations =  1.9

     negative rho (up, down):  2.103E-04 0.000E+00

     total cpu time spent up to now is     5492.0 secs

     total energy              =   -1978.35702705 Ry
     estimated scf accuracy    <       0.00001441 Ry

     iteration # 25     ecut=    80.00 Ry     beta= 0.20
     Davidson diagonalization with overlap
     ethr =  1.39E-08,  avg # of iterations =  1.4

     negative rho (up, down):  1.545E-04 0.000E+00

     total cpu time spent up to now is     5678.9 secs

     total energy              =   -1978.35702762 Ry
     estimated scf accuracy    <       0.00001496 Ry

     iteration # 26     ecut=    80.00 Ry     beta= 0.20
     Davidson diagonalization with overlap
     ethr =  1.39E-08,  avg # of iterations =  1.0

     negative rho (up, down):  2.382E-04 0.000E+00

     total cpu time spent up to now is     5858.7 secs

     total energy              =   -1978.35702846 Ry
     estimated scf accuracy    <       0.00001414 Ry

     iteration # 27     ecut=    80.00 Ry     beta= 0.20
     Davidson diagonalization with overlap
     ethr =  1.36E-08,  avg # of iterations =  1.1

     negative rho (up, down):  2.162E-04 0.000E+00

     total cpu time spent up to now is     6041.8 secs

     total energy              =   -1978.35702842 Ry
     estimated scf accuracy    <       0.00001318 Ry

     iteration # 28     ecut=    80.00 Ry     beta= 0.20
     Davidson diagonalization with overlap
     ethr =  1.27E-08,  avg # of iterations =  1.0

     negative rho (up, down):  2.360E-04 0.000E+00

     total cpu time spent up to now is     6221.6 secs

     total energy              =   -1978.35702861 Ry
     estimated scf accuracy    <       0.00001295 Ry

     iteration # 29     ecut=    80.00 Ry     beta= 0.20
     Davidson diagonalization with overlap
     ethr =  1.25E-08,  avg # of iterations =  1.0

     negative rho (up, down):  6.676E-04 0.000E+00

     total cpu time spent up to now is     6405.5 secs

     total energy              =   -1978.35702435 Ry
     estimated scf accuracy    <       0.00001252 Ry

     iteration # 30     ecut=    80.00 Ry     beta= 0.20
     Davidson diagonalization with overlap
     ethr =  1.20E-08,  avg # of iterations =  1.3

     negative rho (up, down):  6.002E-04 0.000E+00

     total cpu time spent up to now is     6591.5 secs

     total energy              =   -1978.35702379 Ry
     estimated scf accuracy    <       0.00001076 Ry

     iteration # 31     ecut=    80.00 Ry     beta= 0.20
     Davidson diagonalization with overlap
     ethr =  1.03E-08,  avg # of iterations =  1.0

     negative rho (up, down):  5.706E-04 0.000E+00

     total cpu time spent up to now is     6771.5 secs

     total energy              =   -1978.35702214 Ry
     estimated scf accuracy    <       0.00001019 Ry

     iteration # 32     ecut=    80.00 Ry     beta= 0.20
     Davidson diagonalization with overlap
     ethr =  9.80E-09,  avg # of iterations =  1.2

     negative rho (up, down):  4.879E-04 0.000E+00

     total cpu time spent up to now is     6954.8 secs

     total energy              =   -1978.35702233 Ry
     estimated scf accuracy    <       0.00000949 Ry

     iteration # 33     ecut=    80.00 Ry     beta= 0.20
     Davidson diagonalization with overlap
     ethr =  9.12E-09,  avg # of iterations =  1.0

     negative rho (up, down):  1.490E-04 0.000E+00

     total cpu time spent up to now is     7135.7 secs

     total energy              =   -1978.35702520 Ry
     estimated scf accuracy    <       0.00000902 Ry

     iteration # 34     ecut=    80.00 Ry     beta= 0.20
     Davidson diagonalization with overlap
     ethr =  8.67E-09,  avg # of iterations =  1.5

     negative rho (up, down):  4.887E-05 0.000E+00

     total cpu time spent up to now is     7325.7 secs

     total energy              =   -1978.35702887 Ry
     estimated scf accuracy    <       0.00000836 Ry

     iteration # 35     ecut=    80.00 Ry     beta= 0.20
     Davidson diagonalization with overlap
     ethr =  8.04E-09,  avg # of iterations =  1.2

     negative rho (up, down):  7.798E-05 0.000E+00

     total cpu time spent up to now is     7509.7 secs

     total energy              =   -1978.35702781 Ry
     estimated scf accuracy    <       0.00000775 Ry

     iteration # 36     ecut=    80.00 Ry     beta= 0.20
     Davidson diagonalization with overlap
     ethr =  7.46E-09,  avg # of iterations =  1.0

     negative rho (up, down):  1.470E-04 0.000E+00

     total cpu time spent up to now is     7691.9 secs

     total energy              =   -1978.35702617 Ry
     estimated scf accuracy    <       0.00000729 Ry

     iteration # 37     ecut=    80.00 Ry     beta= 0.20
     Davidson diagonalization with overlap
     ethr =  7.01E-09,  avg # of iterations =  1.3

     negative rho (up, down):  2.710E-04 0.000E+00

     total cpu time spent up to now is     7877.2 secs

     total energy              =   -1978.35702359 Ry
     estimated scf accuracy    <       0.00000659 Ry

     iteration # 38     ecut=    80.00 Ry     beta= 0.20
     Davidson diagonalization with overlap
     ethr =  6.34E-09,  avg # of iterations =  1.4

     negative rho (up, down):  3.946E-04 0.000E+00

     total cpu time spent up to now is     8064.6 secs

     total energy              =   -1978.35702028 Ry
     estimated scf accuracy    <       0.00000586 Ry

     iteration # 39     ecut=    80.00 Ry     beta= 0.20
     Davidson diagonalization with overlap
     ethr =  5.63E-09,  avg # of iterations =  1.1

     negative rho (up, down):  3.849E-04 0.000E+00

     total cpu time spent up to now is     8247.6 secs

     total energy              =   -1978.35702045 Ry
     estimated scf accuracy    <       0.00000538 Ry

     iteration # 40     ecut=    80.00 Ry     beta= 0.20
     Davidson diagonalization with overlap
     ethr =  5.17E-09,  avg # of iterations =  1.1

     negative rho (up, down):  5.502E-04 0.000E+00

     total cpu time spent up to now is     8430.1 secs

     total energy              =   -1978.35701766 Ry
     estimated scf accuracy    <       0.00000495 Ry

     iteration # 41     ecut=    80.00 Ry     beta= 0.20
     Davidson diagonalization with overlap
     ethr =  4.76E-09,  avg # of iterations =  1.4

     negative rho (up, down):  4.886E-04 0.000E+00

     total cpu time spent up to now is     8618.0 secs

     total energy              =   -1978.35701579 Ry
     estimated scf accuracy    <       0.00000415 Ry

     iteration # 42     ecut=    80.00 Ry     beta= 0.20
     Davidson diagonalization with overlap
     ethr =  3.99E-09,  avg # of iterations =  1.5

     negative rho (up, down):  4.877E-04 0.000E+00

     total cpu time spent up to now is     8807.3 secs

     total energy              =   -1978.35701682 Ry
     estimated scf accuracy    <       0.00000372 Ry

     iteration # 43     ecut=    80.00 Ry     beta= 0.20
     Davidson diagonalization with overlap
     ethr =  3.58E-09,  avg # of iterations =  1.1

     negative rho (up, down):  2.644E-04 0.000E+00

     total cpu time spent up to now is     8989.8 secs

     total energy              =   -1978.35701722 Ry
     estimated scf accuracy    <       0.00000341 Ry

     iteration # 44     ecut=    80.00 Ry     beta= 0.20
     Davidson diagonalization with overlap
     ethr =  3.28E-09,  avg # of iterations =  1.5

     negative rho (up, down):  1.351E-04 0.000E+00

     total cpu time spent up to now is     9178.1 secs

     total energy              =   -1978.35701678 Ry
     estimated scf accuracy    <       0.00000282 Ry

     iteration # 45     ecut=    80.00 Ry     beta= 0.20
     Davidson diagonalization with overlap
     ethr =  2.71E-09,  avg # of iterations =  2.1

     negative rho (up, down):  1.730E-04 0.000E+00

     total cpu time spent up to now is     9379.3 secs

     total energy              =   -1978.35701874 Ry
     estimated scf accuracy    <       0.00000251 Ry

     iteration # 46     ecut=    80.00 Ry     beta= 0.20
     Davidson diagonalization with overlap
     ethr =  2.41E-09,  avg # of iterations =  1.4

     negative rho (up, down):  1.942E-04 0.000E+00

     total cpu time spent up to now is     9567.2 secs

     total energy              =   -1978.35701917 Ry
     estimated scf accuracy    <       0.00000202 Ry

     iteration # 47     ecut=    80.00 Ry     beta= 0.20
     Davidson diagonalization with overlap
     ethr =  1.94E-09,  avg # of iterations =  1.1

     negative rho (up, down):  1.608E-04 0.000E+00

     total cpu time spent up to now is     9749.6 secs

     total energy              =   -1978.35701817 Ry
     estimated scf accuracy    <       0.00000192 Ry

     iteration # 48     ecut=    80.00 Ry     beta= 0.20
     Davidson diagonalization with overlap
     ethr =  1.84E-09,  avg # of iterations =  1.4

     negative rho (up, down):  1.876E-04 0.000E+00

     total cpu time spent up to now is     9938.5 secs

     total energy              =   -1978.35701852 Ry
     estimated scf accuracy    <       0.00000179 Ry

     iteration # 49     ecut=    80.00 Ry     beta= 0.20
     Davidson diagonalization with overlap
     ethr =  1.72E-09,  avg # of iterations =  1.1

     negative rho (up, down):  1.792E-04 0.000E+00

     total cpu time spent up to now is    10120.4 secs

     total energy              =   -1978.35701866 Ry
     estimated scf accuracy    <       0.00000164 Ry

     iteration # 50     ecut=    80.00 Ry     beta= 0.20
     Davidson diagonalization with overlap
     ethr =  1.58E-09,  avg # of iterations =  1.0

     negative rho (up, down):  2.401E-04 0.000E+00

     total cpu time spent up to now is    10301.1 secs

     total energy              =   -1978.35701682 Ry
     estimated scf accuracy    <       0.00000155 Ry

     iteration # 51     ecut=    80.00 Ry     beta= 0.20
     Davidson diagonalization with overlap
     ethr =  1.49E-09,  avg # of iterations =  1.1

     negative rho (up, down):  4.144E-04 0.000E+00

     total cpu time spent up to now is    10485.1 secs

     total energy              =   -1978.35701433 Ry
     estimated scf accuracy    <       0.00000132 Ry

     iteration # 52     ecut=    80.00 Ry     beta= 0.20
     Davidson diagonalization with overlap
     ethr =  1.27E-09,  avg # of iterations =  1.6

     negative rho (up, down):  4.535E-04 0.000E+00

     total cpu time spent up to now is    10677.2 secs

     total energy              =   -1978.35701373 Ry
     estimated scf accuracy    <       0.00000111 Ry

     iteration # 53     ecut=    80.00 Ry     beta= 0.20
     Davidson diagonalization with overlap
     ethr =  1.07E-09,  avg # of iterations =  1.4

     negative rho (up, down):  5.366E-04 0.000E+00

     total cpu time spent up to now is    10865.9 secs

     total energy              =   -1978.35701416 Ry
     estimated scf accuracy    <       0.00000094 Ry

     iteration # 54     ecut=    80.00 Ry     beta= 0.20
     Davidson diagonalization with overlap
     ethr =  9.08E-10,  avg # of iterations =  1.3

     negative rho (up, down):  3.064E-04 0.000E+00

     total cpu time spent up to now is    11053.7 secs

     total energy              =   -1978.35701519 Ry
     estimated scf accuracy    <       0.00000062 Ry

     iteration # 55     ecut=    80.00 Ry     beta= 0.20
     Davidson diagonalization with overlap
     ethr =  5.98E-10,  avg # of iterations =  2.2

     negative rho (up, down):  2.879E-04 0.000E+00

     total cpu time spent up to now is    11258.6 secs

     total energy              =   -1978.35701581 Ry
     estimated scf accuracy    <       0.00000021 Ry

     iteration # 56     ecut=    80.00 Ry     beta= 0.20
     Davidson diagonalization with overlap
     ethr =  2.04E-10,  avg # of iterations =  2.3

     negative rho (up, down):  2.404E-04 0.000E+00

     total cpu time spent up to now is    11461.5 secs

     total energy              =   -1978.35701682 Ry
     estimated scf accuracy    <       0.00000012 Ry

     iteration # 57     ecut=    80.00 Ry     beta= 0.20
     Davidson diagonalization with overlap
     ethr =  1.12E-10,  avg # of iterations =  2.1

     negative rho (up, down):  2.100E-04 0.000E+00

     total cpu time spent up to now is    11663.0 secs

     total energy              =   -1978.35701798 Ry
     estimated scf accuracy    <       0.00000006 Ry

     iteration # 58     ecut=    80.00 Ry     beta= 0.20
     Davidson diagonalization with overlap
     ethr =  6.11E-11,  avg # of iterations =  2.1

     negative rho (up, down):  2.044E-04 0.000E+00

     total cpu time spent up to now is    11867.3 secs

     total energy              =   -1978.35701799 Ry
     estimated scf accuracy    <       0.00000004 Ry

     iteration # 59     ecut=    80.00 Ry     beta= 0.20
     Davidson diagonalization with overlap
     ethr =  4.14E-11,  avg # of iterations =  2.1

     negative rho (up, down):  1.880E-04 0.000E+00

     total cpu time spent up to now is    12066.7 secs

     total energy              =   -1978.35701836 Ry
     estimated scf accuracy    <       0.00000003 Ry

     iteration # 60     ecut=    80.00 Ry     beta= 0.20
     Davidson diagonalization with overlap
     ethr =  2.85E-11,  avg # of iterations =  2.2

     negative rho (up, down):  1.762E-04 0.000E+00

     total cpu time spent up to now is    12271.6 secs

     total energy              =   -1978.35701850 Ry
     estimated scf accuracy    <       0.00000002 Ry

     iteration # 61     ecut=    80.00 Ry     beta= 0.20
     Davidson diagonalization with overlap
     ethr =  1.80E-11,  avg # of iterations =  1.6

     negative rho (up, down):  1.571E-04 0.000E+00

     total cpu time spent up to now is    12463.5 secs

     total energy              =   -1978.35701869 Ry
     estimated scf accuracy    <       0.00000001 Ry

     iteration # 62     ecut=    80.00 Ry     beta= 0.20
     Davidson diagonalization with overlap
     ethr =  1.35E-11,  avg # of iterations =  2.2

     negative rho (up, down):  1.419E-04 0.000E+00

     total cpu time spent up to now is    12665.6 secs

     End of self-consistent calculation

          k = 0.0000 0.0000 0.0000 ( 35507 PWs)   bands (ev):

   -58.8990 -58.8646 -58.8503 -58.8007 -33.0729 -33.0384 -33.0249 -32.9751
   -32.8356 -32.8356 -32.8025 -32.8025 -32.7869 -32.7869 -32.7384 -32.7384
   -12.2423 -12.1443 -12.1394 -12.0464 -11.0077 -10.8526 -10.8497 -10.7154
    -4.0401  -3.7059  -3.6651  -3.3540  -0.6214  -0.6214  -0.6017  -0.5965
    -0.5965  -0.5752  -0.5752  -0.5338  -0.5338   0.0532   0.0938   0.4929
     0.4929   0.5225   0.5225   0.5390   0.5391   0.5846   0.5846   0.8225
     1.6010   1.8493   2.1331   2.4603   4.7246   4.7246   4.7764   4.7765
     4.7818   4.7819   4.8346   4.8347   4.9389   4.9392

          k = 0.0000 0.0722 0.0000 ( 35493 PWs)   bands (ev):

   -58.8974 -58.8631 -58.8488 -58.7992 -33.0699 -33.0353 -33.0219 -32.9721
   -32.8511 -32.8391 -32.8181 -32.8061 -32.8024 -32.7904 -32.7539 -32.7419
   -12.1827 -12.0850 -12.0800 -11.9873 -10.9801 -10.8277 -10.8244 -10.6922
    -3.9712  -3.6385  -3.5959  -3.2860  -0.7585  -0.7377  -0.7308  -0.7107
    -0.6679  -0.5592  -0.5340  -0.5130  -0.4713  -0.1983  -0.1933   0.1780
     0.3957   0.4259   0.4422   0.4883   0.5986   0.7067   0.7226   1.0631
     1.6028   1.8297   2.0985   2.3805   4.6498   4.6916   4.6967   4.7514
     4.7848   4.8109   4.8453   4.8637   4.8722   4.8929

          k = 0.0000 0.1443 0.0000 ( 35435 PWs)   bands (ev):

   -58.8930 -58.8587 -58.8443 -58.7948 -33.0612 -33.0267 -33.0132 -32.9634
   -32.8952 -32.8622 -32.8491 -32.8465 -32.8161 -32.8004 -32.7980 -32.7520
   -12.0087 -11.9121 -11.9069 -11.8151 -10.8995 -10.7552 -10.7508 -10.6249
    -3.7795  -3.4527  -3.4051  -3.1009  -1.1099  -1.0769  -1.0657  -1.0520
    -1.0084  -0.6525  -0.6300  -0.3801  -0.3538  -0.3372  -0.3338  -0.2912
     0.1444   0.1759   0.1918   0.2389   0.6589   0.8420   0.8849   1.2131
     1.5704   1.7400   1.9444   2.1233   4.3708   4.4330   4.4610   4.5190
     4.5618   4.5939   4.6666   4.6667   4.7214   4.7439

          k = 0.0000 0.2165 0.0000 ( 35345 PWs)   bands (ev):

   -58.8863 -58.8520 -58.8377 -58.7881 -33.0483 -33.0137 -33.0002 -32.9605
   -32.9504 -32.9276 -32.9119 -32.8641 -32.8635 -32.8311 -32.8154 -32.7670
   -11.7353 -11.6411 -11.6355 -11.5457 -10.7732 -10.6418 -10.6359 -10.5199
    -3.5197  -3.2119  -3.1577  -2.8744  -1.5466  -1.4994  -1.4993  -1.4680
    -1.3940  -1.1398  -1.0942  -0.8821  -0.1820  -0.1477  -0.1362  -0.1054
    -0.0860  -0.0788  -0.0559  -0.0148   0.5719   0.7956   0.8288   1.1314
     1.4207   1.5189   1.6225   1.7144   3.9911   4.1390   4.1808   4.4162
     4.4463   4.5298   4.5340   4.5741   4.6149   4.7647

          k = 0.0000 0.2887 0.0000 ( 35323 PWs)   bands (ev):

   -58.8785 -58.8441 -58.8298 -58.7802 -33.0368 -33.0329 -33.0040 -32.9983
   -32.9882 -32.9849 -32.9399 -32.9350 -32.8817 -32.8487 -32.8330 -32.7846
   -11.3878 -11.2983 -11.2924 -11.2062 -10.6137 -10.4996 -10.4918 -10.3890
    -3.3199  -3.0696  -3.0200  -2.8092  -1.9454  -1.8711  -1.8124  -1.8122
    -1.7100  -1.6312  -1.5372  -1.4212  -0.5101  -0.4755  -0.4612  -0.4116
     0.2179   0.2505   0.2672   0.3153   0.3566   0.5993   0.6146   0.8888
     1.1413   1.1997   1.2393   1.3048   3.8546   4.0711   4.1032   4.2582
     4.3397   4.3412   4.4148   4.4223   4.7929   5.0224

          k = 0.0000 0.3608 0.0000 ( 35299 PWs)   bands (ev):

   -58.8706 -58.8363 -58.8220 -58.7724 -33.1122 -33.0794 -33.0636 -33.0175
   -33.0153 -32.9829 -32.9695 -32.9196 -32.8993 -32.8663 -32.8506 -32.8022
   -11.0047 -10.9229 -10.9170 -10.8369 -10.4402 -10.3465 -10.3372 -10.2495
    -3.3570  -3.2029  -3.1753  -3.0602  -2.3098  -2.1868  -2.0985  -2.0206
    -1.9513  -1.8952  -1.8223  -1.7262  -0.7985  -0.7630  -0.7489  -0.6986
     0.1212   0.3616   0.3748   0.5370   0.5786   0.5920   0.6146   0.6468
     0.9208   0.9793   1.0106   1.0745   3.9687   4.1548   4.1937   4.2108
     4.2250   4.2267   4.3013   4.5077   5.1219   5.3506

          k = 0.0000 0.4330 0.0000 ( 35224 PWs)   bands (ev):

   -58.8639 -58.8296 -58.8153 -58.7657 -33.1754 -33.1427 -33.1268 -33.0787
   -33.0045 -32.9698 -32.9564 -32.9141 -32.9065 -32.8811 -32.8654 -32.8170
   -10.6408 -10.5703 -10.5647 -10.4937 -10.2787 -10.2066 -10.1968 -10.1239
    -3.5901  -3.4985  -3.4791  -3.4089  -2.6479  -2.5371  -2.4941  -2.4118
    -2.0635  -1.9463  -1.9378  -1.8076  -1.0193  -0.9831  -0.9692  -0.9184
    -0.0542   0.1731   0.1897   0.3996   0.7910   0.8456   0.8558   0.9197
     0.9405   1.0203   1.0462   1.1276   4.1491   4.2023   4.2080   4.2280
     4.2715   4.4144   4.4203   4.6477   5.4277   5.6322

          k = 0.0000 0.5052 0.0000 ( 35152 PWs)   bands (ev):

   -58.8595 -58.8251 -58.8108 -58.7612 -33.2173 -33.1847 -33.1687 -33.1206
   -32.9957 -32.9610 -32.9477 -32.9240 -32.8977 -32.8910 -32.8753 -32.8269
   -10.3686 -10.3106 -10.3059 -10.2455 -10.1605 -10.1069 -10.0986 -10.0366
    -3.8185  -3.7522  -3.7308  -3.6757  -2.8853  -2.8005  -2.7616  -2.6923
    -2.1667  -2.0446  -2.0443  -1.9202  -1.1570  -1.1204  -1.1066  -1.0555
    -0.1495   0.0657   0.0808   0.2688   0.9447   1.0114   1.0194   1.0916
     1.1290   1.2191   1.2303   1.3156   4.1978   4.2381   4.2482   4.3026
     4.5179   4.6423   4.6432   4.7826   5.6166   5.7930

          k = 0.0000-0.5774 0.0000 ( 35026 PWs)   bands (ev):

   -58.8579 -58.8235 -58.8093 -58.7596 -33.2320 -33.1994 -33.1834 -33.1353
   -32.9926 -32.9579 -32.9446 -32.9274 -32.8946 -32.8945 -32.8788 -32.8303
   -10.2650 -10.2133 -10.2095 -10.1550 -10.1161 -10.0705 -10.0639 -10.0055
    -3.9105  -3.8498  -3.8269  -3.7750  -2.9703  -2.8966  -2.8564  -2.7913
    -2.2147  -2.0938  -2.0931  -1.9726  -1.2037  -1.1670  -1.1532  -1.1020
    -0.1781   0.0317   0.0456   0.2248   0.9945   1.0662   1.0733   1.1489
     1.2452   1.3257   1.3274   1.4028   4.2263   4.2627   4.2748   4.3261
     4.6716   4.7498   4.7517   4.8295   5.6753   5.8353

          k = 0.0625 0.1083 0.0000 ( 35467 PWs)   bands (ev):

   -58.8944 -58.8601 -58.8458 -58.7962 -33.0641 -33.0295 -33.0160 -32.9662
   -32.8805 -32.8475 -32.8463 -32.8318 -32.8133 -32.7976 -32.7833 -32.7492
   -12.0659 -11.9689 -11.9637 -11.8716 -10.9260 -10.7790 -10.7750 -10.6470
    -3.8405  -3.5112  -3.4653  -3.1587  -0.9992  -0.9689  -0.9571  -0.9484
    -0.9041  -0.5124  -0.4970  -0.4403  -0.4147  -0.3941  -0.3523  -0.1724
     0.1808   0.2114   0.2270   0.2733   0.6955   0.8543   0.8950   1.2170
     1.5888   1.7752   2.0057   2.2117   4.4949   4.5210   4.5405   4.5549
     4.5651   4.6247   4.6406   4.7144   4.7372   4.8058

          k = 0.0625 0.1804 0.0000 ( 35370 PWs)   bands (ev):

   -58.8889 -58.8545 -58.8402 -58.7906 -33.0532 -33.0186 -33.0052 -32.9554
   -32.9339 -32.9010 -32.8853 -32.8601 -32.8369 -32.8270 -32.8113 -32.7629
   -11.8420 -11.7468 -11.7413 -11.6506 -10.8224 -10.6859 -10.6805 -10.5606
    -3.6106  -3.2926  -3.2404  -2.9452  -1.3834  -1.3470  -1.3396  -1.3032
    -1.2448  -0.9228  -0.8866  -0.6309  -0.2246  -0.1971  -0.1924  -0.1706
    -0.1540  -0.1468  -0.1258  -0.0920   0.7467   0.9324   0.9770   1.2571
     1.5009   1.6184   1.7667   1.8751   4.1009   4.2160   4.2478   4.4035
     4.4642   4.4927   4.5261   4.5819   4.6248   4.6880

          k = 0.0625 0.2526 0.0000 ( 35362 PWs)   bands (ev):

   -58.8816 -58.8473 -58.8330 -58.7834 -33.0391 -33.0044 -33.0031 -32.9910
   -32.9703 -32.9545 -32.9412 -32.9061 -32.8780 -32.8450 -32.8293 -32.7809
   -11.5310 -11.4392 -11.4335 -11.3455 -10.6788 -10.5574 -10.5503 -10.4420
    -3.3671  -3.0839  -3.0288  -2.7762  -1.7757  -1.7224  -1.7081  -1.6838
    -1.5742  -1.3785  -1.3164  -1.1542  -0.5627  -0.5283  -0.5108  -0.4598
     0.0434   0.0749   0.0907   0.1378   0.6445   0.8378   0.8638   1.1052
     1.2841   1.3420   1.4020   1.4644   3.8342   4.0238   4.0521   4.2558
     4.3794   4.4240   4.4403   4.4867   4.5952   4.6305

          k = 0.0625 0.3248 0.0000 ( 35310 PWs)   bands (ev):

   -58.8738 -58.8394 -58.8251 -58.7755 -33.0771 -33.0444 -33.0285 -33.0237
   -32.9890 -32.9803 -32.9757 -32.9258 -32.8974 -32.8644 -32.8487 -32.8002
   -11.1641 -11.0786 -11.0726 -10.9896 -10.5109 -10.4084 -10.3996 -10.3054
    -3.2780  -3.0786  -3.0410  -2.8862  -2.1136  -2.0199  -1.8992  -1.8658
    -1.8628  -1.8168  -1.6942  -1.6523  -0.8679  -0.8206  -0.8027  -0.7413
     0.2774   0.3180   0.3234   0.3764   0.4334   0.6161   0.6257   0.8395
     1.0512   1.0952   1.1185   1.1756   3.7945   4.0027   4.0146   4.1712
     4.3106   4.3542   4.3874   4.5050   4.8529   4.9422

          k = 0.0625 0.3969 0.0000 ( 35243 PWs)   bands (ev):

   -58.8665 -58.8321 -58.8179 -58.7682 -33.1448 -33.1121 -33.0962 -33.0480
   -33.0095 -32.9748 -32.9614 -32.9152 -32.9115 -32.8822 -32.8665 -32.8181
   -10.7874 -10.7115 -10.7057 -10.6303 -10.3411 -10.2596 -10.2498 -10.1707
    -3.4327  -3.3155  -3.2944  -3.2067  -2.4826  -2.3701  -2.3225  -2.2428
    -1.9916  -1.8842  -1.8709  -1.7390  -1.0671  -1.0145  -0.9995  -0.9372
     0.1686   0.3482   0.3733   0.4226   0.4657   0.4823   0.5070   0.5968
     1.0607   1.1006   1.1184   1.1721   3.9253   4.0916   4.0921   4.2022
     4.3546   4.4126   4.4325   4.5931   5.1897   5.3885

          k = 0.0625 0.4691 0.0000 ( 35169 PWs)   bands (ev):

   -58.8609 -58.8266 -58.8123 -58.7627 -33.1961 -33.1635 -33.1475 -33.0994
   -32.9986 -32.9638 -32.9505 -32.9288 -32.9006 -32.8958 -32.8801 -32.8317
   -10.4642 -10.4007 -10.3955 -10.3305 -10.1981 -10.1371 -10.1279 -10.0619
    -3.6704  -3.5941  -3.5739  -3.5129  -2.7990  -2.7131  -2.6790  -2.6110
    -2.0942  -1.9722  -1.9677  -1.8423  -1.1747  -1.1274  -1.1186  -1.0604
    -0.0232   0.1636   0.1777   0.3431   0.5458   0.6055   0.6095   0.6839
     1.2342   1.2813   1.2951   1.3549   4.1156   4.2073   4.2074   4.2798
     4.4907   4.5738   4.5832   4.7236   5.5007   5.6628

          k = 0.0625 0.5413 0.0000 ( 35128 PWs)   bands (ev):

   -58.8579 -58.8235 -58.8093 -58.7596 -33.2237 -33.1911 -33.1751 -33.1270
   -32.9926 -32.9579 -32.9446 -32.9361 -32.9032 -32.8947 -32.8874 -32.8390
   -10.2708 -10.2179 -10.2139 -10.1586 -10.1137 -10.0672 -10.0600 -10.0013
    -3.8305  -3.7689  -3.7458  -3.6933  -2.9776  -2.9087  -2.8740  -2.8115
    -2.1835  -2.0615  -2.0576  -1.9383  -1.2179  -1.1782  -1.1733  -1.1190
    -0.1282   0.0623   0.0731   0.2364   0.6358   0.7073   0.7080   0.7822
     1.3881   1.4466   1.4549   1.5209   4.2263   4.2660   4.2707   4.3230
     4.6663   4.7480   4.7517   4.8405   5.7224   5.8444

          k = 0.1250 0.2165 0.0000 ( 35331 PWs)   bands (ev):

   -58.8827 -58.8484 -58.8341 -58.7845 -33.0412 -33.0066 -32.9932 -32.9891
   -32.9562 -32.9434 -32.9405 -32.8921 -32.8789 -32.8459 -32.8302 -32.7817
   -11.5801 -11.4877 -11.4820 -11.3935 -10.7011 -10.5772 -10.5703 -10.4601
    -3.3863  -3.0920  -3.0355  -2.7684  -1.7040  -1.6630  -1.6562  -1.6164
    -1.4785  -1.2164  -1.1611  -0.9671  -0.7011  -0.6717  -0.6483  -0.6007
    -0.0360  -0.0049   0.0099   0.0569   0.8297   0.9951   1.0328   1.2358
     1.3512   1.3995   1.4781   1.5335   3.8219   3.9997   4.0222   4.2162
     4.3748   4.4051   4.4506   4.4579   4.4775   4.5218

          k = 0.1250 0.2887 0.0000 ( 35357 PWs)   bands (ev):

   -58.8755 -58.8411 -58.8268 -58.7772 -33.0524 -33.0270 -33.0196 -33.0038
   -32.9924 -32.9790 -32.9555 -32.9291 -32.9021 -32.8692 -32.8535 -32.8050
   -11.2480 -11.1607 -11.1548 -11.0703 -10.5476 -10.4404 -10.4319 -10.3342
    -3.2295  -2.9968  -2.9513  -2.7623  -1.9565  -1.8995  -1.8263  -1.8066
    -1.7035  -1.6202  -1.5361  -1.4707  -1.1315  -1.0658  -1.0339  -0.9227
     0.0669   0.1073   0.1146   0.1683   0.7564   0.9006   0.9160   1.0749
     1.1581   1.1813   1.1985   1.2497   3.6603   3.8769   3.8905   4.0914
     4.3700   4.4140   4.4227   4.4800   4.6051   4.6394

          k = 0.1250 0.3608 0.0000 ( 35341 PWs)   bands (ev):

   -58.8682 -58.8339 -58.8196 -58.7700 -33.1147 -33.0819 -33.0660 -33.0178
   -33.0128 -32.9781 -32.9648 -32.9258 -32.9149 -32.8929 -32.8771 -32.8287
   -10.8835 -10.8043 -10.7983 -10.7204 -10.3801 -10.2925 -10.2827 -10.1992
    -3.2769  -3.1286  -3.1038  -2.9927  -2.2826  -2.1916  -2.1425  -2.0905
    -1.8982  -1.8042  -1.8025  -1.6753  -1.3267  -1.2169  -1.1742  -1.0547
     0.0089   0.0598   0.0612   0.1203   0.5354   0.6590   0.6663   0.7977
     1.1132   1.1502   1.1603   1.2129   3.6950   3.9332   3.9375   4.1589
     4.4407   4.4834   4.4939   4.5793   4.8452   5.0529

          k = 0.1250 0.4330 0.0000 ( 35215 PWs)   bands (ev):

   -58.8620 -58.8277 -58.8134 -58.7638 -33.1668 -33.1341 -33.1182 -33.0700
   -33.0007 -32.9660 -32.9527 -32.9460 -32.9131 -32.9028 -32.8973 -32.8489
   -10.5396 -10.4718 -10.4662 -10.3977 -10.2236 -10.1565 -10.1466 -10.0768
    -3.4575  -3.3616  -3.3426  -3.2689  -2.6952  -2.6298  -2.6050  -2.5498
    -1.9695  -1.8552  -1.8313  -1.7209  -1.3567  -1.2438  -1.2169  -1.1112
    -0.0458   0.0255   0.0299   0.1016   0.2599   0.3783   0.3830   0.5053
     1.2521   1.2900   1.3020   1.3547   3.9012   4.1220   4.1237   4.3280
     4.5490   4.5844   4.6065   4.6685   5.1541   5.3171

          k = 0.1250 0.5052 0.0000 ( 35141 PWs)   bands (ev):

   -58.8579 -58.8235 -58.8093 -58.7596 -33.2013 -33.1687 -33.1527 -33.1046
   -32.9927 -32.9595 -32.9579 -32.9446 -32.9266 -32.9108 -32.8947 -32.8624
   -10.2845 -10.2290 -10.2244 -10.1672 -10.1080 -10.0592 -10.0509  -9.9912
    -3.6207  -3.5526  -3.5296  -3.4734  -2.9905  -2.9375  -2.9140  -2.8585
    -2.0881  -1.9636  -1.9509  -1.8399  -1.3088  -1.2169  -1.2095  -1.1293
    -0.0496   0.0364   0.0803   0.0879   0.1329   0.1576   0.1795   0.2938
     1.4390   1.4867   1.4985   1.5580   4.1197   4.2330   4.2371   4.3320
     4.6995   4.7704   4.7751   4.8696   5.4275   5.5415

          k = 0.1250 0.5774 0.0000 ( 35180 PWs)   bands (ev):

   -58.8564 -58.8221 -58.8078 -58.7582 -33.2134 -33.1808 -33.1648 -33.1167
   -32.9898 -32.9642 -32.9551 -32.9418 -32.9313 -32.9156 -32.8918 -32.8672
   -10.1880 -10.1384 -10.1348 -10.0863 -10.0623 -10.0236 -10.0168  -9.9605
    -3.6840  -3.6257  -3.5996  -3.5486  -3.0958  -3.0462  -3.0223  -2.9664
    -2.1482  -2.0225  -2.0136  -1.9010  -1.2621  -1.2026  -1.1969  -1.1349
    -0.1058   0.0269   0.0616   0.0694   0.1091   0.1117   0.1636   0.2382
     1.5314   1.5874   1.5981   1.6633   4.1937   4.2344   4.2371   4.2916
     4.8108   4.8969   4.8974   4.9701   5.5393   5.6560

          k = 0.1875 0.3248 0.0000 ( 35337 PWs)   bands (ev):

   -58.8688 -58.8345 -58.8202 -58.7706 -33.1011 -33.0683 -33.0525 -33.0140
   -33.0042 -32.9793 -32.9660 -32.9326 -32.9161 -32.8996 -32.8839 -32.8355
   -10.9168 -10.8366 -10.8306 -10.7518 -10.3933 -10.3035 -10.2938 -10.2087
    -3.2107  -3.0465  -3.0196  -2.8958  -2.1539  -2.0846  -2.0390  -2.0197
    -1.8526  -1.7711  -1.7625  -1.6802  -1.4680  -1.3468  -1.2728  -1.1245
    -0.1651  -0.1143  -0.1137  -0.0534   0.6999   0.7960   0.8074   0.9076
     1.1191   1.1605   1.1692   1.2249   3.6071   3.8704   3.8715   4.1326
     4.4644   4.5030   4.5101   4.5612   4.7002   4.9223

          k = 0.1875 0.3969 0.0000 ( 35241 PWs)   bands (ev):

   -58.8626 -58.8283 -58.8140 -58.7644 -33.1430 -33.1103 -33.0944 -33.0462
   -33.0019 -32.9672 -32.9634 -32.9539 -32.9305 -32.9147 -32.9040 -32.8664
   -10.5810 -10.5109 -10.5051 -10.4346 -10.2362 -10.1657 -10.1554 -10.0834
    -3.2965  -3.1797  -3.1616  -3.0729  -2.6021  -2.5690  -2.5490  -2.5067
    -1.8337  -1.7556  -1.6757  -1.6359  -1.4658  -1.3601  -1.2844  -1.1502
    -0.4833  -0.4223  -0.4214  -0.3551   0.4711   0.5394   0.5571   0.6283
     1.2221   1.2646   1.2778   1.3356   3.7604   4.0379   4.0534   4.3611
     4.5758   4.6117   4.6168   4.6699   4.8799   5.0607

          k = 0.1875 0.4691 0.0000 ( 35167 PWs)   bands (ev):

   -58.8579 -58.8236 -58.8093 -58.7596 -33.1735 -33.1408 -33.1249 -33.0767
   -32.9927 -32.9884 -32.9580 -32.9554 -32.9446 -32.9397 -32.8947 -32.8913
   -10.2978 -10.2398 -10.2347 -10.1757 -10.1024 -10.0512 -10.0419  -9.9810
    -3.3827  -3.2958  -3.2749  -3.2082  -2.9989  -2.9640  -2.9507  -2.9015
    -1.9184  -1.7943  -1.7672  -1.6964  -1.4077  -1.2681  -1.2430  -1.1175
    -0.6678  -0.5739  -0.5697  -0.4732   0.1706   0.2564   0.2647   0.3418
     1.4230   1.4618   1.4761   1.5297   3.9776   4.1613   4.1690   4.3305
     4.7409   4.8054   4.8107   4.9045   5.0888   5.2065

          k = 0.1875 0.5413 0.0000 ( 35162 PWs)   bands (ev):

   -58.8553 -58.8210 -58.8067 -58.7571 -33.1895 -33.1568 -33.1409 -33.0927
   -33.0023 -32.9877 -32.9694 -32.9536 -32.9529 -32.9396 -32.9053 -32.8897
   -10.1309 -10.0826 -10.0790 -10.0384 -10.0158  -9.9854  -9.9776  -9.9234
    -3.4201  -3.3602  -3.3273  -3.2756  -3.2151  -3.1769  -3.1680  -3.1127
    -2.0615  -1.9296  -1.9185  -1.8184  -1.2800  -1.1758  -1.1675  -1.0822
    -0.7120  -0.5926  -0.5885  -0.4841  -0.0377   0.0538   0.0542   0.1409
     1.6073   1.6535   1.6663   1.7256   4.0463   4.1045   4.1098   4.1743
     4.9282   5.0249   5.0691   5.1473   5.1999   5.3042

          k = 0.2500 0.4330 0.0000 ( 35195 PWs)   bands (ev):

   -58.8579 -58.8236 -58.8093 -58.7596 -33.1590 -33.1263 -33.1104 -33.0622
   -33.0033 -32.9927 -32.9704 -32.9580 -32.9546 -32.9446 -32.9063 -32.8947
   -10.3032 -10.2442 -10.2390 -10.1792 -10.1001 -10.0478 -10.0382  -9.9768
    -3.2741  -3.1730  -3.1540  -3.0841  -2.9998  -2.9691  -2.9651  -2.9191
    -1.7369  -1.6902  -1.6067  -1.5978  -1.3984  -1.2920  -1.2338  -1.1012
    -0.9831  -0.9338  -0.9280  -0.8749   0.2402   0.2925   0.3151   0.3772
     1.4064   1.4441   1.4601   1.5131   3.9175   4.1222   4.1385   4.3217
     4.7515   4.8074   4.8288   4.9114   4.9602   5.1022

          k = 0.2500 0.5052 0.0000 ( 35193 PWs)   bands (ev):

   -58.8547 -58.8204 -58.8061 -58.7565 -33.1637 -33.1311 -33.1151 -33.0670
   -33.0358 -33.0030 -32.9872 -32.9865 -32.9518 -32.9389 -32.9385 -32.8885
   -10.1028 -10.0546 -10.0508 -10.0140  -9.9893  -9.9627  -9.9538  -9.9010
    -3.3072  -3.2756  -3.2574  -3.2189  -3.1551  -3.0774  -3.0670  -2.9974
    -1.8908  -1.7629  -1.7520  -1.7048  -1.3421  -1.2764  -1.2039  -1.1942
    -1.1476  -1.1360  -1.0549  -0.9854  -0.0370   0.0317   0.0429   0.1162
     1.6471   1.6842   1.6990   1.7511   3.9142   3.9910   3.9944   4.0737
     4.8959   4.9669   4.9898   5.0624   5.1802   5.2594

          k = 0.2500 0.5774 0.0000 ( 35190 PWs)   bands (ev):

   -58.8536 -58.8193 -58.8050 -58.7554 -33.1636 -33.1309 -33.1150 -33.0668
   -33.0491 -33.0162 -33.0004 -32.9843 -32.9521 -32.9496 -32.9363 -32.8863
   -10.0279  -9.9859  -9.9826  -9.9698  -9.9395  -9.9314  -9.9181  -9.8733
    -3.4067  -3.3764  -3.3614  -3.3184  -3.0707  -3.0199  -2.9969  -2.9472
    -2.0455  -1.9196  -1.9149  -1.8317  -1.3797  -1.2742  -1.2251  -1.1780
    -1.1019  -1.0420  -1.0082  -0.9519  -0.1572  -0.0964  -0.0928  -0.0204
     1.7737   1.8145   1.8278   1.8831   3.8417   3.8762   3.8871   3.9368
     4.9223   4.9845   5.0265   5.0680   5.3394   5.3804

          k = 0.3125 0.5413 0.0000 ( 35172 PWs)   bands (ev):

   -58.8530 -58.8187 -58.8044 -58.7548 -33.1425 -33.1099 -33.0939 -33.0775
   -33.0458 -33.0446 -33.0289 -32.9832 -32.9805 -32.9484 -32.9351 -32.8852
    -9.9914  -9.9548  -9.9489  -9.9443  -9.9157  -9.9115  -9.8923  -9.8543
    -3.4745  -3.4439  -3.4329  -3.3868  -2.8468  -2.7816  -2.7597  -2.7033
    -2.0372  -2.0256  -1.9755  -1.9590  -1.5571  -1.5286  -1.5093  -1.4986
    -1.0521  -0.9686  -0.9642  -0.8946  -0.2453  -0.1714  -0.1710  -0.0906
     1.8557   1.8928   1.9063   1.9585   3.7257   3.7590   3.7724   3.8212
     4.8591   4.8906   4.9492   4.9781   5.4342   5.5064

     the Fermi energy is     2.9705 ev

!    total energy              =   -1978.35701876 Ry
     total all-electron energy =    -38771.677864 Ry
     estimated scf accuracy    <          7.7E-09 Ry
     smearing contrib. (-TS)   =       0.00003294 Ry
     internal energy E=F+TS    =   -1978.35705170 Ry

     The total energy is F=E-TS. E is the sum of the following terms:
     one-electron contribution =   -9854.79203801 Ry
     hartree contribution      =    4949.01220766 Ry
     xc contribution           =    -119.22523891 Ry
     ewald contribution        =    4316.50092341 Ry
     one-center paw contrib.   =   -1269.85290585 Ry

     convergence has been achieved in  62 iterations

     Writing all to output data dir ./tmp/cleave2/cleave_dz028_dz8p0/mos2_cleave.save/ :
     XML data file, charge density, pseudopotentials, collected wavefunctions

     init_run     :    122.10s CPU    124.32s WALL (       1 calls)
     electrons    :  12327.57s CPU  12541.22s WALL (       1 calls)

     Called by init_run:
     wfcinit      :     74.25s CPU     74.98s WALL (       1 calls)
     potinit      :     44.15s CPU     44.57s WALL (       1 calls)
     hinit0       :      0.35s CPU      0.37s WALL (       1 calls)

     Called by electrons:
     c_bands      :  10219.17s CPU  10280.46s WALL (      63 calls)
     sum_band     :   1604.68s CPU   1674.97s WALL (      63 calls)
     v_of_rho     :    245.34s CPU    266.62s WALL (      63 calls)
     newd         :    192.92s CPU    253.73s WALL (      63 calls)
     PAW_pot      :     25.46s CPU     25.47s WALL (      63 calls)
     mix_rho      :     84.81s CPU     86.17s WALL (      63 calls)
     vdW_kernel   :     40.50s CPU     40.51s WALL (       1 calls)

     Called by c_bands:
     init_us_2    :     47.44s CPU     47.49s WALL (    3810 calls)
     init_us_2:cp :     47.43s CPU     47.48s WALL (    3810 calls)
     cegterg      :   9758.79s CPU   9819.57s WALL (    1890 calls)

     Called by *egterg:
     cdiaghg      :     14.46s CPU     14.47s WALL (    5843 calls)
     h_psi        :   5226.89s CPU   5250.47s WALL (    5903 calls)
     s_psi        :   1531.97s CPU   1532.39s WALL (    5903 calls)
     g_psi        :     22.10s CPU     22.11s WALL (    3983 calls)

     Called by h_psi:
     h_psi:calbec :   1990.01s CPU   1990.51s WALL (    5903 calls)
     vloc_psi     :   1694.09s CPU   1695.25s WALL (    5903 calls)
     add_vuspsi   :   1532.14s CPU   1532.52s WALL (    5903 calls)

     General routines
     calbec       :   2913.62s CPU   2914.42s WALL (    7793 calls)
     fft          :     77.60s CPU     77.63s WALL (    3968 calls)
     ffts         :     41.63s CPU     41.65s WALL (    7629 calls)
     fftw         :   1543.73s CPU   1544.59s WALL (  621646 calls)
     interpolate  :      1.86s CPU      1.87s WALL (      63 calls)

     Parallel routines

     PWSCF        :      3h27m CPU      3h31m WALL


   This run was terminated on:   7:28:40  14Jun2026            

=------------------------------------------------------------------------------=
   JOB DONE.
=------------------------------------------------------------------------------=
Note: The following floating-point exceptions are signalling: IEEE_UNDERFLOW_FLAG IEEE_DENORMAL
