Authorization required, but no authorization protocol specified

Authorization required, but no authorization protocol specified

Authorization required, but no authorization protocol specified

Authorization required, but no authorization protocol specified

Authorization required, but no authorization protocol specified

Authorization required, but no authorization protocol specified

Authorization required, but no authorization protocol specified

Authorization required, but no authorization protocol specified


     Program PWSCF v.7.3 starts on 13Jun2026 at  8:22:30 

     This program is part of the open-source Quantum ESPRESSO suite
     for quantum simulation of materials; please cite
         "P. Giannozzi et al., J. Phys.:Condens. Matter 21 395502 (2009);
         "P. Giannozzi et al., J. Phys.:Condens. Matter 29 465901 (2017);
         "P. Giannozzi et al., J. Chem. Phys. 152 154105 (2020);
          URL http://www.quantum-espresso.org", 
     in publications or presentations arising from this work. More details at
     http://www.quantum-espresso.org/quote

     Parallel version (MPI), running on     1 processors

     MPI processes distributed on     1 nodes
     7665 MiB available memory on the printing compute node when the environment starts

     Waiting for input...
     Reading input from standard input

     Current dimensions of program PWSCF are:
     Max number of different atomic species (ntypx) = 10
     Max number of k-points (npk) =  40000
     Max angular momentum in pseudopotentials (lmaxx) =  4
     file Mo.pbe-spn-kjpaw_psl.1.0.0.UPF: wavefunction(s)  4S 4D renormalized
     file S.pbe-n-kjpaw_psl.1.0.0.UPF: wavefunction(s)  3S 3P renormalized

     IMPORTANT: XC functional enforced from input :
     Exchange-correlation= VDW-DF2-B86R
                           (   1   4  26   0   2   0   0)
     Any further DFT definition will be discarded
     Please, verify this is what you really want


     Subspace diagonalization in iterative solution of the eigenvalue problem:
     a serial algorithm will be used


     G-vector sticks info
     --------------------
     sticks:   dense  smooth     PW     G-vecs:    dense   smooth      PW
     Sum        1573     769    223               797393   281171   43435

     Using Slab Decomposition



     bravais-lattice index     =            4
     lattice parameter (alat)  =       5.9715  a.u.
     unit-cell volume          =    2917.9067 (a.u.)^3
     number of atoms/cell      =           12
     number of atomic types    =            2
     number of electrons       =       104.00
     number of Kohn-Sham states=           62
     kinetic-energy cutoff     =      80.0000  Ry
     charge density cutoff     =     640.0000  Ry
     scf convergence threshold =      1.0E-08
     mixing beta               =       0.2000
     number of iterations used =            8  local-TF  mixing
     Exchange-correlation= VDW-DF2-B86R
                           (   1   4  26   0   2   0   0)

     celldm(1)=   5.971535  celldm(2)=   0.000000  celldm(3)=  15.822785
     celldm(4)=   0.000000  celldm(5)=   0.000000  celldm(6)=   0.000000

     crystal axes: (cart. coord. in units of alat)
               a(1) = (   1.000000   0.000000   0.000000 )  
               a(2) = (  -0.500000   0.866025   0.000000 )  
               a(3) = (   0.000000   0.000000  15.822785 )  

     reciprocal axes: (cart. coord. in units 2 pi/alat)
               b(1) = (  1.000000  0.577350 -0.000000 )  
               b(2) = (  0.000000  1.154701  0.000000 )  
               b(3) = (  0.000000 -0.000000  0.063200 )  


     PseudoPot. # 1 for Mo read from file:
     ./pseudo/Mo.pbe-spn-kjpaw_psl.1.0.0.UPF
     MD5 check sum: 4396e0c640fcce5c25f020efccf1ab12
     Pseudo is Projector augmented-wave + core cor, Zval = 14.0
     Generated using &quot;atomic&quot; code by A. Dal Corso  v.6.3
     Shape of augmentation charge: PSQ
     Using radial grid of 1229 points,  6 beta functions with: 
                l(1) =   0
                l(2) =   0
                l(3) =   1
                l(4) =   1
                l(5) =   2
                l(6) =   2
     Q(r) pseudized with 0 coefficients 


     PseudoPot. # 2 for S  read from file:
     ./pseudo/S.pbe-n-kjpaw_psl.1.0.0.UPF
     MD5 check sum: fb45dfebcf3e72a4e1bd4a866ec2e262
     Pseudo is Projector augmented-wave + core cor, Zval =  6.0
     Generated using &quot;atomic&quot; code by A. Dal Corso  v.6.3
     Shape of augmentation charge: PSQ
     Using radial grid of 1151 points,  6 beta functions with: 
                l(1) =   0
                l(2) =   0
                l(3) =   1
                l(4) =   1
                l(5) =   2
                l(6) =   2
     Q(r) pseudized with 0 coefficients 


     atomic species   valence    mass     pseudopotential
     Mo               14.00    95.96000     Mo( 1.00)
     S                 6.00    32.06000     S ( 1.00)

      6 Sym. Ops. (no inversion) found



   Cartesian axes

     site n.     atom                  positions (alat units)
         1        S      tau(   1) = (  -0.0000005   0.5773503  -0.9967195  )
         2        Mo     tau(   2) = (   0.0000000   0.0000000  -0.4993332  )
         3        S      tau(   3) = (  -0.0000005   0.5773503  -0.0017175  )
         4        S      tau(   4) = (   0.5000003   0.2886747   0.9835827  )
         5        Mo     tau(   5) = (  -0.0000005   0.5773503   1.4818950  )
         6        S      tau(   6) = (   0.5000003   0.2886747   1.9798512  )
         7        S      tau(   7) = (   0.0000000   0.0000000   2.9586848  )
         8        Mo     tau(   8) = (   0.5000003   0.2886747   3.4569999  )
         9        S      tau(   9) = (   0.0000000   0.0000000   3.9548385  )
        10        S      tau(  10) = (  -0.0000005   0.5773503   6.6612679  )
        11        Mo     tau(  11) = (   0.0000000   0.0000000   7.1589045  )
        12        S      tau(  12) = (  -0.0000005   0.5773503   7.6560387  )

     number of k points=    30  Methfessel-Paxton smearing, width (Ry)=  0.0200
                       cart. coord. in units 2pi/alat
        k(    1) = (   0.0000000   0.0000000   0.0000000), wk =   0.0078125
        k(    2) = (   0.0000000   0.0721688   0.0000000), wk =   0.0468750
        k(    3) = (   0.0000000   0.1443376   0.0000000), wk =   0.0468750
        k(    4) = (   0.0000000   0.2165064   0.0000000), wk =   0.0468750
        k(    5) = (   0.0000000   0.2886751   0.0000000), wk =   0.0468750
        k(    6) = (   0.0000000   0.3608439   0.0000000), wk =   0.0468750
        k(    7) = (   0.0000000   0.4330127   0.0000000), wk =   0.0468750
        k(    8) = (   0.0000000   0.5051815   0.0000000), wk =   0.0468750
        k(    9) = (   0.0000000  -0.5773503   0.0000000), wk =   0.0234375
        k(   10) = (   0.0625000   0.1082532   0.0000000), wk =   0.0468750
        k(   11) = (   0.0625000   0.1804220   0.0000000), wk =   0.0937500
        k(   12) = (   0.0625000   0.2525907   0.0000000), wk =   0.0937500
        k(   13) = (   0.0625000   0.3247595   0.0000000), wk =   0.0937500
        k(   14) = (   0.0625000   0.3969283   0.0000000), wk =   0.0937500
        k(   15) = (   0.0625000   0.4690971   0.0000000), wk =   0.0937500
        k(   16) = (   0.0625000   0.5412659   0.0000000), wk =   0.0937500
        k(   17) = (   0.1250000   0.2165064   0.0000000), wk =   0.0468750
        k(   18) = (   0.1250000   0.2886751   0.0000000), wk =   0.0937500
        k(   19) = (   0.1250000   0.3608439   0.0000000), wk =   0.0937500
        k(   20) = (   0.1250000   0.4330127   0.0000000), wk =   0.0937500
        k(   21) = (   0.1250000   0.5051815   0.0000000), wk =   0.0937500
        k(   22) = (   0.1250000   0.5773503   0.0000000), wk =   0.0468750
        k(   23) = (   0.1875000   0.3247595   0.0000000), wk =   0.0468750
        k(   24) = (   0.1875000   0.3969283   0.0000000), wk =   0.0937500
        k(   25) = (   0.1875000   0.4690971   0.0000000), wk =   0.0937500
        k(   26) = (   0.1875000   0.5412659   0.0000000), wk =   0.0937500
        k(   27) = (   0.2500000   0.4330127   0.0000000), wk =   0.0468750
        k(   28) = (   0.2500000   0.5051815   0.0000000), wk =   0.0937500
        k(   29) = (   0.2500000   0.5773503   0.0000000), wk =   0.0468750
        k(   30) = (   0.3125000   0.5412659   0.0000000), wk =   0.0468750

     Dense  grid:   797393 G-vectors     FFT dimensions: (  50,  50, 768)

     Smooth grid:   281171 G-vectors     FFT dimensions: (  36,  36, 540)

     Estimated max dynamical RAM per process >       3.90 GB

     Initial potential from superposition of free atoms

     starting charge     103.9962, renormalised to     104.0000

     negative rho (up, down):  1.280E-04 0.000E+00


     %%%%%%%%%%%%%%%%%%%%%%%%%%%%%%%%%%%%%%%%%%%%%%%%%%%%%%%%%%%%%%%%%%%%%%%%
     %                                                                      %
     % You are using vdW-DF, which was implemented by the Thonhauser group. %
     % Please cite the following two papers that made this development      %
     % possible and the two reviews that describe the various versions:     %
     %                                                                      %
     %   T. Thonhauser et al., PRL 115, 136402 (2015).                      %
     %   T. Thonhauser et al., PRB 76, 125112 (2007).                       %
     %   K. Berland et al., Rep. Prog. Phys. 78, 066501 (2015).             %
     %   D.C. Langreth et al., J. Phys.: Condens. Matter 21, 084203 (2009). %
     %                                                                      %
     % If you are calculating stress with vdW-DF, please also cite:         %
     %                                                                      %
     %   R. Sabatini et al., J. Phys.: Condens. Matter 24, 424209 (2012).   %
     %                                                                      %
     %%%%%%%%%%%%%%%%%%%%%%%%%%%%%%%%%%%%%%%%%%%%%%%%%%%%%%%%%%%%%%%%%%%%%%%%

     %%%%%%%%%%%%%%%%%%%%%%%%%%%%%%%%%%%%%%%%%%%%%%%%%%%%%%%%%%%%%%%%%%%%%%%%
     %                                                                      %
     %  vdW-DF NEWS:                                                        %
     %                                                                      %
     %  * vdW-DF3 is now available. DOI: 10.1021/acs.jctc.0c00471           %
     %    use with input_dft = 'vdW-DF3-opt1' or 'vdW-DF3-opt2'             %
     %                                                                      %
     %  * Unscreened and range-separated hybrid vdW-DF-cx functionals       %
     %    DOI: 10.1063/1.4986522 and 10.1088/1361-648X/ac2ad2               %
     %    use with input_dft = 'vdW-DF-cx0'    and 'vdW-DF-ahcx'            %
     %  * Unscreened and range-separated hybrid vdW-DF2-b86r functionals    %
     %    DOI: 10.1063/1.4986522 and DOI: 10.1103/PhysRevX.12.041003        %
     %    use with input_dft = 'vdW-DF2-br0' and 'vdW-DF2-ahbr'             %
     %                                                                      %
     %%%%%%%%%%%%%%%%%%%%%%%%%%%%%%%%%%%%%%%%%%%%%%%%%%%%%%%%%%%%%%%%%%%%%%%%


     Starting wfcs are   72 randomized atomic wfcs
     Checking if some PAW data can be deallocated... 

     total cpu time spent up to now is      124.7 secs

     Self-consistent Calculation

     iteration #  1     ecut=    80.00 Ry     beta= 0.20
     Davidson diagonalization with overlap
     ethr =  1.00E-02,  avg # of iterations =  2.3

     Threshold (ethr) on eigenvalues was too large:
     Diagonalizing with lowered threshold

     Davidson diagonalization with overlap
     ethr =  2.87E-04,  avg # of iterations =  3.6

     negative rho (up, down):  2.603E-05 0.000E+00

     total cpu time spent up to now is      603.5 secs

     total energy              =   -1978.45387747 Ry
     estimated scf accuracy    <       0.44909034 Ry

     iteration #  2     ecut=    80.00 Ry     beta= 0.20
     Davidson diagonalization with overlap
     ethr =  4.32E-04,  avg # of iterations =  1.0

     negative rho (up, down):  8.279E-06 0.000E+00

     total cpu time spent up to now is      784.5 secs

     total energy              =   -1978.27520674 Ry
     estimated scf accuracy    <       0.37201284 Ry

     iteration #  3     ecut=    80.00 Ry     beta= 0.20
     Davidson diagonalization with overlap
     ethr =  3.58E-04,  avg # of iterations =  2.0

     negative rho (up, down):  4.152E-07 0.000E+00

     total cpu time spent up to now is     1019.2 secs

     total energy              =   -1978.35452241 Ry
     estimated scf accuracy    <       0.04930624 Ry

     iteration #  4     ecut=    80.00 Ry     beta= 0.20
     Davidson diagonalization with overlap
     ethr =  4.74E-05,  avg # of iterations =  2.2

     negative rho (up, down):  2.069E-08 0.000E+00

     total cpu time spent up to now is     1250.6 secs

     total energy              =   -1978.35730815 Ry
     estimated scf accuracy    <       0.02165017 Ry

     iteration #  5     ecut=    80.00 Ry     beta= 0.20
     Davidson diagonalization with overlap
     ethr =  2.08E-05,  avg # of iterations =  3.0

     negative rho (up, down):  1.566E-08 0.000E+00

     total cpu time spent up to now is     1460.7 secs

     total energy              =   -1978.35903039 Ry
     estimated scf accuracy    <       0.00560516 Ry

     iteration #  6     ecut=    80.00 Ry     beta= 0.20
     Davidson diagonalization with overlap
     ethr =  5.39E-06,  avg # of iterations =  4.8

     negative rho (up, down):  3.265E-07 0.000E+00

     total cpu time spent up to now is     1669.6 secs

     total energy              =   -1978.35745242 Ry
     estimated scf accuracy    <       0.00496074 Ry

     iteration #  7     ecut=    80.00 Ry     beta= 0.20
     Davidson diagonalization with overlap
     c_bands:  1 eigenvalues not converged
     ethr =  4.77E-06,  avg # of iterations =  5.0

     negative rho (up, down):  1.716E-08 0.000E+00

     total cpu time spent up to now is     1952.8 secs

     total energy              =   -1978.35672951 Ry
     estimated scf accuracy    <       0.01735341 Ry

     iteration #  8     ecut=    80.00 Ry     beta= 0.20
     Davidson diagonalization with overlap
     ethr =  4.77E-06,  avg # of iterations =  3.9

     negative rho (up, down):  2.298E-07 0.000E+00

     total cpu time spent up to now is     2177.2 secs

     total energy              =   -1978.35681243 Ry
     estimated scf accuracy    <       0.00389120 Ry

     iteration #  9     ecut=    80.00 Ry     beta= 0.20
     Davidson diagonalization with overlap
     ethr =  3.74E-06,  avg # of iterations =  4.2

     negative rho (up, down):  6.916E-05 0.000E+00

     total cpu time spent up to now is     2404.6 secs

     total energy              =   -1978.35750102 Ry
     estimated scf accuracy    <       0.00212010 Ry

     iteration # 10     ecut=    80.00 Ry     beta= 0.20
     Davidson diagonalization with overlap
     ethr =  2.04E-06,  avg # of iterations =  2.3

     negative rho (up, down):  4.757E-03 0.000E+00

     total cpu time spent up to now is     2607.1 secs

     total energy              =   -1978.35714794 Ry
     estimated scf accuracy    <       0.00205857 Ry

     iteration # 11     ecut=    80.00 Ry     beta= 0.20
     Davidson diagonalization with overlap
     c_bands:  1 eigenvalues not converged
     c_bands:  1 eigenvalues not converged
     ethr =  1.98E-06,  avg # of iterations =  5.4

     negative rho (up, down):  4.801E-03 0.000E+00

     total cpu time spent up to now is     2813.6 secs

     total energy              =   -1978.35731136 Ry
     estimated scf accuracy    <       0.00051617 Ry

     iteration # 12     ecut=    80.00 Ry     beta= 0.20
     Davidson diagonalization with overlap
     c_bands:  1 eigenvalues not converged
     ethr =  4.96E-07,  avg # of iterations =  7.0

     negative rho (up, down):  1.751E-03 0.000E+00

     total cpu time spent up to now is     3050.4 secs

     total energy              =   -1978.35733799 Ry
     estimated scf accuracy    <       0.00110287 Ry

     iteration # 13     ecut=    80.00 Ry     beta= 0.20
     Davidson diagonalization with overlap
     ethr =  4.96E-07,  avg # of iterations =  2.7

     negative rho (up, down):  3.893E-03 0.000E+00

     total cpu time spent up to now is     3256.5 secs

     total energy              =   -1978.35737900 Ry
     estimated scf accuracy    <       0.00041594 Ry

     iteration # 14     ecut=    80.00 Ry     beta= 0.20
     Davidson diagonalization with overlap
     ethr =  4.00E-07,  avg # of iterations =  2.2

     negative rho (up, down):  3.351E-03 0.000E+00

     total cpu time spent up to now is     3460.1 secs

     total energy              =   -1978.35726835 Ry
     estimated scf accuracy    <       0.00068111 Ry

     iteration # 15     ecut=    80.00 Ry     beta= 0.20
     Davidson diagonalization with overlap
     c_bands:  1 eigenvalues not converged
     ethr =  4.00E-07,  avg # of iterations =  3.6

     negative rho (up, down):  2.597E-03 0.000E+00

     total cpu time spent up to now is     3681.0 secs

     total energy              =   -1978.35733478 Ry
     estimated scf accuracy    <       0.00021575 Ry

     iteration # 16     ecut=    80.00 Ry     beta= 0.20
     Davidson diagonalization with overlap
     c_bands:  1 eigenvalues not converged
     ethr =  2.07E-07,  avg # of iterations =  5.7

     negative rho (up, down):  1.694E-03 0.000E+00

     total cpu time spent up to now is     3908.6 secs

     total energy              =   -1978.35735005 Ry
     estimated scf accuracy    <       0.00031152 Ry

     iteration # 17     ecut=    80.00 Ry     beta= 0.20
     Davidson diagonalization with overlap
     ethr =  2.07E-07,  avg # of iterations =  1.6

     negative rho (up, down):  8.615E-04 0.000E+00

     total cpu time spent up to now is     4092.8 secs

     total energy              =   -1978.35734526 Ry
     estimated scf accuracy    <       0.00015578 Ry

     iteration # 18     ecut=    80.00 Ry     beta= 0.20
     Davidson diagonalization with overlap
     ethr =  1.50E-07,  avg # of iterations =  2.7

     negative rho (up, down):  6.662E-04 0.000E+00

     total cpu time spent up to now is     4300.5 secs

     total energy              =   -1978.35736553 Ry
     estimated scf accuracy    <       0.00003913 Ry

     iteration # 19     ecut=    80.00 Ry     beta= 0.20
     Davidson diagonalization with overlap
     ethr =  3.76E-08,  avg # of iterations =  2.5

     negative rho (up, down):  4.624E-04 0.000E+00

     total cpu time spent up to now is     4516.9 secs

     total energy              =   -1978.35735474 Ry
     estimated scf accuracy    <       0.00007207 Ry

     iteration # 20     ecut=    80.00 Ry     beta= 0.20
     Davidson diagonalization with overlap
     ethr =  3.76E-08,  avg # of iterations =  3.3

     negative rho (up, down):  4.414E-04 0.000E+00

     total cpu time spent up to now is     4741.1 secs

     total energy              =   -1978.35736856 Ry
     estimated scf accuracy    <       0.00003181 Ry

     iteration # 21     ecut=    80.00 Ry     beta= 0.20
     Davidson diagonalization with overlap
     ethr =  3.06E-08,  avg # of iterations =  1.2

     negative rho (up, down):  4.042E-04 0.000E+00

     total cpu time spent up to now is     4925.0 secs

     total energy              =   -1978.35736799 Ry
     estimated scf accuracy    <       0.00002469 Ry

     iteration # 22     ecut=    80.00 Ry     beta= 0.20
     Davidson diagonalization with overlap
     ethr =  2.37E-08,  avg # of iterations =  2.3

     negative rho (up, down):  4.123E-04 0.000E+00

     total cpu time spent up to now is     5125.9 secs

     total energy              =   -1978.35736705 Ry
     estimated scf accuracy    <       0.00002686 Ry

     iteration # 23     ecut=    80.00 Ry     beta= 0.20
     Davidson diagonalization with overlap
     ethr =  2.37E-08,  avg # of iterations =  1.1

     negative rho (up, down):  4.376E-04 0.000E+00

     total cpu time spent up to now is     5307.3 secs

     total energy              =   -1978.35736546 Ry
     estimated scf accuracy    <       0.00002412 Ry

     iteration # 24     ecut=    80.00 Ry     beta= 0.20
     Davidson diagonalization with overlap
     ethr =  2.32E-08,  avg # of iterations =  1.0

     negative rho (up, down):  4.269E-04 0.000E+00

     total cpu time spent up to now is     5486.6 secs

     total energy              =   -1978.35736900 Ry
     estimated scf accuracy    <       0.00002409 Ry

     iteration # 25     ecut=    80.00 Ry     beta= 0.20
     Davidson diagonalization with overlap
     ethr =  2.32E-08,  avg # of iterations =  1.0

     negative rho (up, down):  3.447E-04 0.000E+00

     total cpu time spent up to now is     5667.5 secs

     total energy              =   -1978.35736386 Ry
     estimated scf accuracy    <       0.00002560 Ry

     iteration # 26     ecut=    80.00 Ry     beta= 0.20
     Davidson diagonalization with overlap
     ethr =  2.32E-08,  avg # of iterations =  1.2

     negative rho (up, down):  3.880E-04 0.000E+00

     total cpu time spent up to now is     5851.8 secs

     total energy              =   -1978.35736547 Ry
     estimated scf accuracy    <       0.00002427 Ry

     iteration # 27     ecut=    80.00 Ry     beta= 0.20
     Davidson diagonalization with overlap
     ethr =  2.32E-08,  avg # of iterations =  1.0

     negative rho (up, down):  3.516E-04 0.000E+00

     total cpu time spent up to now is     6031.3 secs

     total energy              =   -1978.35736419 Ry
     estimated scf accuracy    <       0.00002436 Ry

     iteration # 28     ecut=    80.00 Ry     beta= 0.20
     Davidson diagonalization with overlap
     ethr =  2.32E-08,  avg # of iterations =  1.0

     negative rho (up, down):  3.248E-04 0.000E+00

     total cpu time spent up to now is     6210.9 secs

     total energy              =   -1978.35736022 Ry
     estimated scf accuracy    <       0.00002481 Ry

     iteration # 29     ecut=    80.00 Ry     beta= 0.20
     Davidson diagonalization with overlap
     ethr =  2.32E-08,  avg # of iterations =  1.2

     negative rho (up, down):  3.163E-04 0.000E+00

     total cpu time spent up to now is     6394.5 secs

     total energy              =   -1978.35736596 Ry
     estimated scf accuracy    <       0.00002226 Ry

     iteration # 30     ecut=    80.00 Ry     beta= 0.20
     Davidson diagonalization with overlap
     ethr =  2.14E-08,  avg # of iterations =  2.1

     negative rho (up, down):  3.137E-04 0.000E+00

     total cpu time spent up to now is     6603.7 secs

     total energy              =   -1978.35736535 Ry
     estimated scf accuracy    <       0.00003153 Ry

     iteration # 31     ecut=    80.00 Ry     beta= 0.20
     Davidson diagonalization with overlap
     ethr =  2.14E-08,  avg # of iterations =  1.2

     negative rho (up, down):  4.154E-04 0.000E+00

     total cpu time spent up to now is     6787.4 secs

     total energy              =   -1978.35735339 Ry
     estimated scf accuracy    <       0.00003621 Ry

     iteration # 32     ecut=    80.00 Ry     beta= 0.20
     Davidson diagonalization with overlap
     ethr =  2.14E-08,  avg # of iterations =  2.0

     negative rho (up, down):  2.736E-04 0.000E+00

     total cpu time spent up to now is     6983.4 secs

     total energy              =   -1978.35735631 Ry
     estimated scf accuracy    <       0.00001958 Ry

     iteration # 33     ecut=    80.00 Ry     beta= 0.20
     Davidson diagonalization with overlap
     ethr =  1.88E-08,  avg # of iterations =  1.0

     negative rho (up, down):  2.348E-04 0.000E+00

     total cpu time spent up to now is     7162.8 secs

     total energy              =   -1978.35735660 Ry
     estimated scf accuracy    <       0.00001774 Ry

     iteration # 34     ecut=    80.00 Ry     beta= 0.20
     Davidson diagonalization with overlap
     ethr =  1.71E-08,  avg # of iterations =  1.0

     negative rho (up, down):  4.535E-04 0.000E+00

     total cpu time spent up to now is     7347.0 secs

     total energy              =   -1978.35735859 Ry
     estimated scf accuracy    <       0.00001658 Ry

     iteration # 35     ecut=    80.00 Ry     beta= 0.20
     Davidson diagonalization with overlap
     ethr =  1.59E-08,  avg # of iterations =  1.2

     negative rho (up, down):  7.589E-04 0.000E+00

     total cpu time spent up to now is     7531.1 secs

     total energy              =   -1978.35735812 Ry
     estimated scf accuracy    <       0.00001630 Ry

     iteration # 36     ecut=    80.00 Ry     beta= 0.20
     Davidson diagonalization with overlap
     ethr =  1.57E-08,  avg # of iterations =  1.5

     negative rho (up, down):  3.486E-04 0.000E+00

     total cpu time spent up to now is     7720.3 secs

     total energy              =   -1978.35735496 Ry
     estimated scf accuracy    <       0.00001736 Ry

     iteration # 37     ecut=    80.00 Ry     beta= 0.20
     Davidson diagonalization with overlap
     ethr =  1.57E-08,  avg # of iterations =  1.7

     negative rho (up, down):  3.764E-04 0.000E+00

     total cpu time spent up to now is     7913.3 secs

     total energy              =   -1978.35735862 Ry
     estimated scf accuracy    <       0.00001128 Ry

     iteration # 38     ecut=    80.00 Ry     beta= 0.20
     Davidson diagonalization with overlap
     ethr =  1.08E-08,  avg # of iterations =  1.3

     negative rho (up, down):  4.153E-04 0.000E+00

     total cpu time spent up to now is     8099.2 secs

     total energy              =   -1978.35736156 Ry
     estimated scf accuracy    <       0.00001084 Ry

     iteration # 39     ecut=    80.00 Ry     beta= 0.20
     Davidson diagonalization with overlap
     ethr =  1.04E-08,  avg # of iterations =  1.3

     negative rho (up, down):  3.819E-04 0.000E+00

     total cpu time spent up to now is     8284.7 secs

     total energy              =   -1978.35735842 Ry
     estimated scf accuracy    <       0.00000889 Ry

     iteration # 40     ecut=    80.00 Ry     beta= 0.20
     Davidson diagonalization with overlap
     ethr =  8.55E-09,  avg # of iterations =  1.4

     negative rho (up, down):  4.040E-04 0.000E+00

     total cpu time spent up to now is     8471.3 secs

     total energy              =   -1978.35735852 Ry
     estimated scf accuracy    <       0.00000881 Ry

     iteration # 41     ecut=    80.00 Ry     beta= 0.20
     Davidson diagonalization with overlap
     ethr =  8.47E-09,  avg # of iterations =  1.0

     negative rho (up, down):  2.731E-04 0.000E+00

     total cpu time spent up to now is     8650.5 secs

     total energy              =   -1978.35735929 Ry
     estimated scf accuracy    <       0.00000884 Ry

     iteration # 42     ecut=    80.00 Ry     beta= 0.20
     Davidson diagonalization with overlap
     ethr =  8.47E-09,  avg # of iterations =  1.0

     negative rho (up, down):  5.323E-04 0.000E+00

     total cpu time spent up to now is     8831.8 secs

     total energy              =   -1978.35736002 Ry
     estimated scf accuracy    <       0.00000928 Ry

     iteration # 43     ecut=    80.00 Ry     beta= 0.20
     Davidson diagonalization with overlap
     ethr =  8.47E-09,  avg # of iterations =  1.4

     negative rho (up, down):  4.546E-04 0.000E+00

     total cpu time spent up to now is     9018.7 secs

     total energy              =   -1978.35735734 Ry
     estimated scf accuracy    <       0.00000934 Ry

     iteration # 44     ecut=    80.00 Ry     beta= 0.20
     Davidson diagonalization with overlap
     ethr =  8.47E-09,  avg # of iterations =  1.2

     negative rho (up, down):  4.508E-04 0.000E+00

     total cpu time spent up to now is     9203.1 secs

     total energy              =   -1978.35735788 Ry
     estimated scf accuracy    <       0.00000952 Ry

     iteration # 45     ecut=    80.00 Ry     beta= 0.20
     Davidson diagonalization with overlap
     ethr =  8.47E-09,  avg # of iterations =  1.0

     negative rho (up, down):  3.895E-04 0.000E+00

     total cpu time spent up to now is     9382.9 secs

     total energy              =   -1978.35735928 Ry
     estimated scf accuracy    <       0.00001020 Ry

     iteration # 46     ecut=    80.00 Ry     beta= 0.20
     Davidson diagonalization with overlap
     ethr =  8.47E-09,  avg # of iterations =  1.1

     negative rho (up, down):  4.732E-04 0.000E+00

     total cpu time spent up to now is     9565.7 secs

     total energy              =   -1978.35735361 Ry
     estimated scf accuracy    <       0.00000960 Ry

     iteration # 47     ecut=    80.00 Ry     beta= 0.20
     Davidson diagonalization with overlap
     ethr =  8.47E-09,  avg # of iterations =  1.4

     negative rho (up, down):  4.701E-04 0.000E+00

     total cpu time spent up to now is     9752.8 secs

     total energy              =   -1978.35735691 Ry
     estimated scf accuracy    <       0.00001224 Ry

     iteration # 48     ecut=    80.00 Ry     beta= 0.20
     Davidson diagonalization with overlap
     ethr =  8.47E-09,  avg # of iterations =  1.6

     negative rho (up, down):  4.982E-04 0.000E+00

     total cpu time spent up to now is     9944.2 secs

     total energy              =   -1978.35735603 Ry
     estimated scf accuracy    <       0.00000949 Ry

     iteration # 49     ecut=    80.00 Ry     beta= 0.20
     Davidson diagonalization with overlap
     ethr =  8.47E-09,  avg # of iterations =  1.1

     negative rho (up, down):  3.647E-04 0.000E+00

     total cpu time spent up to now is    10126.2 secs

     total energy              =   -1978.35735708 Ry
     estimated scf accuracy    <       0.00001028 Ry

     iteration # 50     ecut=    80.00 Ry     beta= 0.20
     Davidson diagonalization with overlap
     ethr =  8.47E-09,  avg # of iterations =  1.4

     negative rho (up, down):  3.532E-04 0.000E+00

     total cpu time spent up to now is    10313.1 secs

     total energy              =   -1978.35736082 Ry
     estimated scf accuracy    <       0.00000972 Ry

     iteration # 51     ecut=    80.00 Ry     beta= 0.20
     Davidson diagonalization with overlap
     ethr =  8.47E-09,  avg # of iterations =  1.2

     negative rho (up, down):  5.252E-04 0.000E+00

     total cpu time spent up to now is    10495.5 secs

     total energy              =   -1978.35735924 Ry
     estimated scf accuracy    <       0.00000901 Ry

     iteration # 52     ecut=    80.00 Ry     beta= 0.20
     Davidson diagonalization with overlap
     ethr =  8.47E-09,  avg # of iterations =  1.0

     negative rho (up, down):  4.455E-04 0.000E+00

     total cpu time spent up to now is    10676.5 secs

     total energy              =   -1978.35735944 Ry
     estimated scf accuracy    <       0.00000892 Ry

     iteration # 53     ecut=    80.00 Ry     beta= 0.20
     Davidson diagonalization with overlap
     ethr =  8.47E-09,  avg # of iterations =  1.0

     negative rho (up, down):  4.657E-04 0.000E+00

     total cpu time spent up to now is    10856.2 secs

     total energy              =   -1978.35735138 Ry
     estimated scf accuracy    <       0.00000873 Ry

     iteration # 54     ecut=    80.00 Ry     beta= 0.20
     Davidson diagonalization with overlap
     ethr =  8.39E-09,  avg # of iterations =  1.5

     negative rho (up, down):  4.366E-04 0.000E+00

     total cpu time spent up to now is    11045.5 secs

     total energy              =   -1978.35735282 Ry
     estimated scf accuracy    <       0.00000935 Ry

     iteration # 55     ecut=    80.00 Ry     beta= 0.20
     Davidson diagonalization with overlap
     ethr =  8.39E-09,  avg # of iterations =  1.0

     negative rho (up, down):  3.623E-04 0.000E+00

     total cpu time spent up to now is    11226.6 secs

     total energy              =   -1978.35735516 Ry
     estimated scf accuracy    <       0.00000893 Ry

     iteration # 56     ecut=    80.00 Ry     beta= 0.20
     Davidson diagonalization with overlap
     ethr =  8.39E-09,  avg # of iterations =  1.3

     negative rho (up, down):  3.306E-04 0.000E+00

     total cpu time spent up to now is    11411.1 secs

     total energy              =   -1978.35735592 Ry
     estimated scf accuracy    <       0.00000809 Ry

     iteration # 57     ecut=    80.00 Ry     beta= 0.20
     Davidson diagonalization with overlap
     ethr =  7.78E-09,  avg # of iterations =  1.0

     negative rho (up, down):  3.112E-04 0.000E+00

     total cpu time spent up to now is    11590.9 secs

     total energy              =   -1978.35735678 Ry
     estimated scf accuracy    <       0.00000795 Ry

     iteration # 58     ecut=    80.00 Ry     beta= 0.20
     Davidson diagonalization with overlap
     ethr =  7.65E-09,  avg # of iterations =  1.1

     negative rho (up, down):  3.140E-04 0.000E+00

     total cpu time spent up to now is    11773.4 secs

     total energy              =   -1978.35735389 Ry
     estimated scf accuracy    <       0.00000761 Ry

     iteration # 59     ecut=    80.00 Ry     beta= 0.20
     Davidson diagonalization with overlap
     ethr =  7.32E-09,  avg # of iterations =  1.4

     negative rho (up, down):  3.641E-04 0.000E+00

     total cpu time spent up to now is    11961.6 secs

     total energy              =   -1978.35734840 Ry
     estimated scf accuracy    <       0.00000563 Ry

     iteration # 60     ecut=    80.00 Ry     beta= 0.20
     Davidson diagonalization with overlap
     ethr =  5.42E-09,  avg # of iterations =  1.8

     negative rho (up, down):  4.087E-04 0.000E+00

     total cpu time spent up to now is    12156.9 secs

     total energy              =   -1978.35735329 Ry
     estimated scf accuracy    <       0.00000477 Ry

     iteration # 61     ecut=    80.00 Ry     beta= 0.20
     Davidson diagonalization with overlap
     ethr =  4.59E-09,  avg # of iterations =  1.3

     negative rho (up, down):  5.202E-04 0.000E+00

     total cpu time spent up to now is    12345.1 secs

     total energy              =   -1978.35734928 Ry
     estimated scf accuracy    <       0.00000402 Ry

     iteration # 62     ecut=    80.00 Ry     beta= 0.20
     Davidson diagonalization with overlap
     ethr =  3.86E-09,  avg # of iterations =  2.0

     negative rho (up, down):  5.826E-04 0.000E+00

     total cpu time spent up to now is    12545.9 secs

     total energy              =   -1978.35735188 Ry
     estimated scf accuracy    <       0.00000332 Ry

     iteration # 63     ecut=    80.00 Ry     beta= 0.20
     Davidson diagonalization with overlap
     ethr =  3.19E-09,  avg # of iterations =  1.7

     negative rho (up, down):  5.409E-04 0.000E+00

     total cpu time spent up to now is    12738.3 secs

     total energy              =   -1978.35735271 Ry
     estimated scf accuracy    <       0.00000265 Ry

     iteration # 64     ecut=    80.00 Ry     beta= 0.20
     Davidson diagonalization with overlap
     ethr =  2.54E-09,  avg # of iterations =  1.6

     negative rho (up, down):  3.001E-04 0.000E+00

     total cpu time spent up to now is    12929.2 secs

     total energy              =   -1978.35734970 Ry
     estimated scf accuracy    <       0.00000231 Ry

     iteration # 65     ecut=    80.00 Ry     beta= 0.20
     Davidson diagonalization with overlap
     ethr =  2.22E-09,  avg # of iterations =  2.3

     negative rho (up, down):  2.284E-04 0.000E+00

     total cpu time spent up to now is    13134.6 secs

     total energy              =   -1978.35734937 Ry
     estimated scf accuracy    <       0.00000187 Ry

     iteration # 66     ecut=    80.00 Ry     beta= 0.20
     Davidson diagonalization with overlap
     ethr =  1.79E-09,  avg # of iterations =  2.2

     negative rho (up, down):  1.224E-04 0.000E+00

     total cpu time spent up to now is    13336.3 secs

     total energy              =   -1978.35735347 Ry
     estimated scf accuracy    <       0.00000118 Ry

     iteration # 67     ecut=    80.00 Ry     beta= 0.20
     Davidson diagonalization with overlap
     ethr =  1.14E-09,  avg # of iterations =  3.2

     negative rho (up, down):  1.043E-04 0.000E+00

     total cpu time spent up to now is    13560.0 secs

     total energy              =   -1978.35735380 Ry
     estimated scf accuracy    <       0.00000091 Ry

     iteration # 68     ecut=    80.00 Ry     beta= 0.20
     Davidson diagonalization with overlap
     ethr =  8.73E-10,  avg # of iterations =  2.2

     negative rho (up, down):  1.024E-04 0.000E+00

     total cpu time spent up to now is    13769.9 secs

     total energy              =   -1978.35735520 Ry
     estimated scf accuracy    <       0.00000035 Ry

     iteration # 69     ecut=    80.00 Ry     beta= 0.20
     Davidson diagonalization with overlap
     ethr =  3.37E-10,  avg # of iterations =  2.2

     negative rho (up, down):  1.124E-04 0.000E+00

     total cpu time spent up to now is    13994.1 secs

     total energy              =   -1978.35735523 Ry
     estimated scf accuracy    <       0.00000022 Ry

     iteration # 70     ecut=    80.00 Ry     beta= 0.20
     Davidson diagonalization with overlap
     ethr =  2.08E-10,  avg # of iterations =  2.1

     negative rho (up, down):  1.151E-04 0.000E+00

     total cpu time spent up to now is    14245.7 secs

     total energy              =   -1978.35735494 Ry
     estimated scf accuracy    <       0.00000016 Ry

     iteration # 71     ecut=    80.00 Ry     beta= 0.20
     Davidson diagonalization with overlap
     ethr =  1.51E-10,  avg # of iterations =  1.4

     negative rho (up, down):  1.227E-04 0.000E+00

     total cpu time spent up to now is    14476.3 secs

     total energy              =   -1978.35735487 Ry
     estimated scf accuracy    <       0.00000013 Ry

     iteration # 72     ecut=    80.00 Ry     beta= 0.20
     Davidson diagonalization with overlap
     ethr =  1.26E-10,  avg # of iterations =  2.1

     negative rho (up, down):  1.307E-04 0.000E+00

     total cpu time spent up to now is    14715.5 secs

     total energy              =   -1978.35735471 Ry
     estimated scf accuracy    <       0.00000010 Ry

     iteration # 73     ecut=    80.00 Ry     beta= 0.20
     Davidson diagonalization with overlap
     ethr =  9.14E-11,  avg # of iterations =  3.0

     negative rho (up, down):  1.394E-04 0.000E+00

     total cpu time spent up to now is    15004.2 secs

     total energy              =   -1978.35735483 Ry
     estimated scf accuracy    <       0.00000007 Ry

     iteration # 74     ecut=    80.00 Ry     beta= 0.20
     Davidson diagonalization with overlap
     ethr =  6.73E-11,  avg # of iterations =  2.3

     negative rho (up, down):  1.431E-04 0.000E+00

     total cpu time spent up to now is    15270.8 secs

     total energy              =   -1978.35735475 Ry
     estimated scf accuracy    <       0.00000002 Ry

     iteration # 75     ecut=    80.00 Ry     beta= 0.20
     Davidson diagonalization with overlap
     ethr =  2.37E-11,  avg # of iterations =  1.6

     negative rho (up, down):  1.507E-04 0.000E+00

     total cpu time spent up to now is    15524.3 secs

     total energy              =   -1978.35735455 Ry
     estimated scf accuracy    <       0.00000002 Ry

     iteration # 76     ecut=    80.00 Ry     beta= 0.20
     Davidson diagonalization with overlap
     ethr =  1.79E-11,  avg # of iterations =  2.0

     negative rho (up, down):  1.547E-04 0.000E+00

     total cpu time spent up to now is    15777.3 secs

     total energy              =   -1978.35735444 Ry
     estimated scf accuracy    <       0.00000001 Ry

     iteration # 77     ecut=    80.00 Ry     beta= 0.20
     Davidson diagonalization with overlap
     ethr =  1.26E-11,  avg # of iterations =  2.7

     negative rho (up, down):  1.550E-04 0.000E+00

     total cpu time spent up to now is    16028.3 secs

     total energy              =   -1978.35735433 Ry
     estimated scf accuracy    <       0.00000001 Ry

     iteration # 78     ecut=    80.00 Ry     beta= 0.20
     Davidson diagonalization with overlap
     ethr =  1.06E-11,  avg # of iterations =  2.1

     negative rho (up, down):  1.481E-04 0.000E+00

     total cpu time spent up to now is    16297.5 secs

     End of self-consistent calculation

          k = 0.0000 0.0000 0.0000 ( 35507 PWs)   bands (ev):

   -58.8993 -58.8736 -58.8504 -58.8009 -33.0733 -33.0473 -33.0250 -32.9753
   -32.8359 -32.8359 -32.8114 -32.8114 -32.7870 -32.7870 -32.7385 -32.7385
   -12.2425 -12.1485 -12.1445 -12.0466 -11.0079 -10.8617 -10.8500 -10.7156
    -4.0403  -3.7062  -3.6741  -3.3542  -0.6218  -0.6218  -0.6055  -0.6055
    -0.6020  -0.5753  -0.5753  -0.5340  -0.5340   0.0529   0.0846   0.4925
     0.4926   0.5135   0.5135   0.5389   0.5390   0.5844   0.5844   0.8222
     1.6007   1.8401   2.1328   2.4602   4.7243   4.7244   4.7728   4.7728
     4.7763   4.7763   4.8345   4.8345   4.9383   4.9385

          k = 0.0000 0.0722 0.0000 ( 35493 PWs)   bands (ev):

   -58.8978 -58.8720 -58.8489 -58.7993 -33.0703 -33.0442 -33.0220 -32.9722
   -32.8515 -32.8395 -32.8270 -32.8150 -32.8025 -32.7905 -32.7541 -32.7421
   -12.1829 -12.0891 -12.0852 -11.9875 -10.9803 -10.8368 -10.8247 -10.6924
    -3.9715  -3.6387  -3.6050  -3.2863  -0.7589  -0.7398  -0.7380  -0.7108
    -0.6681  -0.5596  -0.5430  -0.5131  -0.4715  -0.2024  -0.1986   0.1778
     0.3954   0.4169   0.4421   0.4881   0.5984   0.7065   0.7135   1.0629
     1.6025   1.8205   2.0983   2.3803   4.6495   4.6826   4.6965   4.7512
     4.7844   4.8111   4.8451   4.8625   4.8656   4.8928

          k = 0.0000 0.1443 0.0000 ( 35435 PWs)   bands (ev):

   -58.8933 -58.8676 -58.8444 -58.7949 -33.0616 -33.0356 -33.0133 -32.9635
   -32.8955 -32.8711 -32.8495 -32.8466 -32.8250 -32.8005 -32.7982 -32.7521
   -12.0090 -11.9160 -11.9124 -11.8153 -10.8998 -10.7643 -10.7511 -10.6251
    -3.7798  -3.4530  -3.4142  -3.1011  -1.1103  -1.0860  -1.0659  -1.0522
    -1.0086  -0.6616  -0.6303  -0.3804  -0.3629  -0.3374  -0.3339  -0.2914
     0.1441   0.1668   0.1917   0.2387   0.6587   0.8417   0.8757   1.2129
     1.5701   1.7309   1.9441   2.1231   4.3703   4.4235   4.4607   4.5186
     4.5527   4.5937   4.6664   4.6665   4.7213   4.7441

          k = 0.0000 0.2165 0.0000 ( 35345 PWs)   bands (ev):

   -58.8867 -58.8609 -58.8378 -58.7883 -33.0486 -33.0226 -33.0003 -32.9609
   -32.9505 -32.9365 -32.9120 -32.8645 -32.8637 -32.8400 -32.8155 -32.7671
   -11.7355 -11.6446 -11.6413 -11.5459 -10.7734 -10.6509 -10.6361 -10.5201
    -3.5200  -3.2122  -3.1668  -2.8746  -1.5470  -1.5083  -1.4996  -1.4682
    -1.3942  -1.1489  -1.0945  -0.8823  -0.1824  -0.1567  -0.1364  -0.1057
    -0.0879  -0.0862  -0.0561  -0.0149   0.5717   0.7954   0.8196   1.1312
     1.4205   1.5098   1.6222   1.7142   3.9907   4.1296   4.1804   4.4158
     4.4461   4.5250   4.5296   4.5739   4.6027   4.6147

          k = 0.0000 0.2887 0.0000 ( 35323 PWs)   bands (ev):

   -58.8788 -58.8530 -58.8299 -58.7804 -33.0372 -33.0333 -33.0129 -33.0072
   -32.9883 -32.9850 -32.9400 -32.9352 -32.8821 -32.8576 -32.8331 -32.7848
   -11.3881 -11.3015 -11.2985 -11.2064 -10.6139 -10.5087 -10.4921 -10.3892
    -3.3202  -3.0699  -3.0291  -2.8094  -1.9457  -1.8713  -1.8213  -1.8128
    -1.7102  -1.6403  -1.5375  -1.4214  -0.5105  -0.4845  -0.4613  -0.4118
     0.2176   0.2414   0.2670   0.3151   0.3563   0.5990   0.6055   0.8886
     1.1410   1.1907   1.2391   1.3046   3.8542   4.0617   4.1028   4.2579
     4.3322   4.3395   4.4145   4.4221   4.7924   5.0216

          k = 0.0000 0.3608 0.0000 ( 35299 PWs)   bands (ev):

   -58.8710 -58.8452 -58.8221 -58.7725 -33.1126 -33.0884 -33.0637 -33.0179
   -33.0155 -32.9918 -32.9696 -32.9197 -32.8996 -32.8752 -32.8507 -32.8023
   -11.0050 -10.9261 -10.9231 -10.8371 -10.4404 -10.3556 -10.3375 -10.2497
    -3.3572  -3.2032  -3.1844  -3.0604  -2.3101  -2.1870  -2.1076  -2.0208
    -1.9515  -1.9042  -1.8226  -1.7264  -0.7988  -0.7720  -0.7490  -0.6987
     0.1210   0.3613   0.3657   0.5367   0.5695   0.5918   0.6144   0.6467
     0.9205   0.9703   1.0104   1.0744   3.9685   4.1546   4.1845   4.2105
     4.2160   4.2265   4.3011   4.5075   5.1215   5.3504

          k = 0.0000 0.4330 0.0000 ( 35224 PWs)   bands (ev):

   -58.8643 -58.8385 -58.8154 -58.7658 -33.1758 -33.1517 -33.1269 -33.0788
   -33.0048 -32.9787 -32.9565 -32.9145 -32.9066 -32.8900 -32.8655 -32.8172
   -10.6411 -10.5738 -10.5705 -10.4939 -10.2789 -10.2156 -10.1970 -10.1241
    -3.5903  -3.4988  -3.4882  -3.4091  -2.6482  -2.5374  -2.5031  -2.4120
    -2.0638  -1.9553  -1.9381  -1.8078  -1.0196  -0.9921  -0.9693  -0.9185
    -0.0544   0.1729   0.1807   0.3994   0.7907   0.8365   0.8556   0.9195
     0.9403   1.0113   1.0460   1.1274   4.1488   4.1933   4.2078   4.2277
     4.2713   4.4053   4.4200   4.6475   5.4272   5.6317

          k = 0.0000 0.5052 0.0000 ( 35152 PWs)   bands (ev):

   -58.8598 -58.8340 -58.8109 -58.7614 -33.2177 -33.1936 -33.1688 -33.1208
   -32.9961 -32.9699 -32.9477 -32.9244 -32.8999 -32.8979 -32.8754 -32.8271
   -10.3689 -10.3150 -10.3108 -10.2457 -10.1608 -10.1159 -10.0988 -10.0368
    -3.8188  -3.7525  -3.7399  -3.6759  -2.8856  -2.8008  -2.7706  -2.6925
    -2.1669  -2.0533  -2.0449  -1.9204  -1.1573  -1.1295  -1.1067  -1.0557
    -0.1497   0.0654   0.0718   0.2686   0.9444   1.0024   1.0192   1.0914
     1.1287   1.2101   1.2300   1.3154   4.1974   4.2292   4.2480   4.3025
     4.5176   4.6332   4.6429   4.7825   5.6162   5.7924

          k = 0.0000-0.5774 0.0000 ( 35026 PWs)   bands (ev):

   -58.8582 -58.8324 -58.8094 -58.7598 -33.2323 -33.2083 -33.1835 -33.1354
   -32.9930 -32.9668 -32.9447 -32.9278 -32.9034 -32.8948 -32.8789 -32.8305
   -10.2653 -10.2185 -10.2135 -10.1552 -10.1164 -10.0796 -10.0641 -10.0057
    -3.9108  -3.8500  -3.8360  -3.7752  -2.9706  -2.8969  -2.8655  -2.7915
    -2.2150  -2.1021  -2.0941  -1.9727  -1.2040  -1.1761  -1.1534  -1.1022
    -0.1783   0.0315   0.0367   0.2246   0.9943   1.0571   1.0731   1.1487
     1.2449   1.3167   1.3271   1.4027   4.2260   4.2537   4.2747   4.3260
     4.6712   4.7408   4.7515   4.8293   5.6748   5.8345

          k = 0.0625 0.1083 0.0000 ( 35467 PWs)   bands (ev):

   -58.8948 -58.8690 -58.8459 -58.7963 -33.0644 -33.0384 -33.0161 -32.9664
   -32.8808 -32.8564 -32.8467 -32.8319 -32.8222 -32.7977 -32.7835 -32.7493
   -12.0661 -11.9728 -11.9691 -11.8718 -10.9262 -10.7881 -10.7752 -10.6471
    -3.8407  -3.5115  -3.4744  -3.1589  -0.9996  -0.9780  -0.9573  -0.9486
    -0.9043  -0.5215  -0.4973  -0.4407  -0.4237  -0.3942  -0.3525  -0.1726
     0.1804   0.2024   0.2269   0.2731   0.6953   0.8540   0.8858   1.2167
     1.5885   1.7661   2.0055   2.2115   4.4944   4.5200   4.5315   4.5547
     4.5560   4.6245   4.6404   4.7142   4.7368   4.8057

          k = 0.0625 0.1804 0.0000 ( 35370 PWs)   bands (ev):

   -58.8892 -58.8635 -58.8403 -58.7908 -33.0536 -33.0276 -33.0053 -32.9555
   -32.9343 -32.9099 -32.8854 -32.8604 -32.8370 -32.8359 -32.8115 -32.7631
   -11.8423 -11.7504 -11.7470 -11.6508 -10.8226 -10.6949 -10.6807 -10.5608
    -3.6108  -3.2929  -3.2494  -2.9454  -1.3837  -1.3561  -1.3397  -1.3034
    -1.2450  -0.9319  -0.8869  -0.6311  -0.2250  -0.2061  -0.1926  -0.1708
    -0.1631  -0.1470  -0.1259  -0.0922   0.7465   0.9321   0.9679   1.2568
     1.5006   1.6094   1.7664   1.8750   4.1005   4.2065   4.2474   4.4031
     4.4640   4.4835   4.5258   4.5817   4.6244   4.6876

          k = 0.0625 0.2526 0.0000 ( 35362 PWs)   bands (ev):

   -58.8820 -58.8562 -58.8331 -58.7835 -33.0394 -33.0134 -33.0035 -32.9911
   -32.9792 -32.9546 -32.9413 -32.9063 -32.8784 -32.8539 -32.8294 -32.7810
   -11.5312 -11.4425 -11.4395 -11.3457 -10.6790 -10.5665 -10.5506 -10.4422
    -3.3673  -3.0841  -3.0378  -2.7764  -1.7760  -1.7226  -1.7171  -1.6840
    -1.5744  -1.3876  -1.3167  -1.1544  -0.5630  -0.5373  -0.5109  -0.4599
     0.0431   0.0658   0.0906   0.1377   0.6442   0.8375   0.8547   1.1050
     1.2839   1.3330   1.4018   1.4643   3.8339   4.0144   4.0517   4.2556
     4.3791   4.4149   4.4399   4.4864   4.5947   4.6211

          k = 0.0625 0.3248 0.0000 ( 35310 PWs)   bands (ev):

   -58.8741 -58.8483 -58.8252 -58.7757 -33.0775 -33.0533 -33.0286 -33.0241
   -32.9980 -32.9804 -32.9758 -32.9259 -32.8977 -32.8733 -32.8488 -32.8004
   -11.1644 -11.0817 -11.0788 -10.9898 -10.5112 -10.4175 -10.3998 -10.3056
    -3.2782  -3.0788  -3.0500  -2.8864  -2.1139  -2.0200  -1.8995  -1.8748
    -1.8719  -1.8170  -1.6945  -1.6524  -0.8682  -0.8297  -0.8028  -0.7414
     0.2771   0.3090   0.3233   0.3762   0.4332   0.6158   0.6167   0.8393
     1.0509   1.0862   1.1183   1.1754   3.7942   3.9934   4.0143   4.1710
     4.3103   4.3451   4.3872   4.5047   4.8512   5.0730

          k = 0.0625 0.3969 0.0000 ( 35243 PWs)   bands (ev):

   -58.8668 -58.8411 -58.8180 -58.7684 -33.1452 -33.1210 -33.0963 -33.0482
   -33.0098 -32.9837 -32.9615 -32.9156 -32.9117 -32.8911 -32.8666 -32.8182
   -10.7877 -10.7148 -10.7117 -10.6305 -10.3413 -10.2687 -10.2500 -10.1708
    -3.4329  -3.3158  -3.3035  -3.2069  -2.4829  -2.3703  -2.3315  -2.2430
    -1.9919  -1.8932  -1.8711  -1.7392  -1.0674  -1.0235  -0.9997  -0.9373
     0.1684   0.3480   0.3643   0.4223   0.4566   0.4821   0.5068   0.5966
     1.0604   1.0915   1.1182   1.1719   3.9250   4.0830   4.0913   4.2020
     4.3543   4.4036   4.4323   4.5929   5.1891   5.3883

          k = 0.0625 0.4691 0.0000 ( 35169 PWs)   bands (ev):

   -58.8613 -58.8355 -58.8124 -58.7628 -33.1965 -33.1724 -33.1476 -33.0995
   -32.9989 -32.9728 -32.9506 -32.9292 -32.9047 -32.9007 -32.8802 -32.8319
   -10.4644 -10.4046 -10.4009 -10.3307 -10.1983 -10.1462 -10.1281 -10.0621
    -3.6707  -3.5943  -3.5830  -3.5131  -2.7992  -2.7133  -2.6881  -2.6112
    -2.0945  -1.9768  -1.9724  -1.8425  -1.1750  -1.1364  -1.1188  -1.0606
    -0.0234   0.1634   0.1687   0.3429   0.5455   0.5964   0.6093   0.6837
     1.2339   1.2723   1.2949   1.3547   4.1153   4.1984   4.2071   4.2797
     4.4904   4.5648   4.5830   4.7235   5.5003   5.6621

          k = 0.0625 0.5413 0.0000 ( 35128 PWs)   bands (ev):

   -58.8582 -58.8324 -58.8094 -58.7598 -33.2241 -33.2000 -33.1752 -33.1272
   -32.9930 -32.9668 -32.9447 -32.9365 -32.9121 -32.8948 -32.8875 -32.8392
   -10.2711 -10.2229 -10.2181 -10.1588 -10.1140 -10.0763 -10.0602 -10.0015
    -3.8308  -3.7691  -3.7549  -3.6935  -2.9778  -2.9089  -2.8831  -2.8117
    -2.1838  -2.0666  -2.0618  -1.9385  -1.2183  -1.1872  -1.1734  -1.1191
    -0.1284   0.0621   0.0641   0.2362   0.6356   0.6990   0.7071   0.7820
     1.3878   1.4375   1.4547   1.5207   4.2259   4.2570   4.2706   4.3229
     4.6660   4.7390   4.7514   4.8403   5.7214   5.8419

          k = 0.1250 0.2165 0.0000 ( 35331 PWs)   bands (ev):

   -58.8831 -58.8573 -58.8342 -58.7846 -33.0416 -33.0155 -32.9933 -32.9895
   -32.9652 -32.9435 -32.9406 -32.8923 -32.8792 -32.8548 -32.8303 -32.7819
   -11.5804 -11.4911 -11.4879 -11.3937 -10.7013 -10.5863 -10.5706 -10.4603
    -3.3865  -3.0922  -3.0446  -2.7687  -1.7043  -1.6653  -1.6631  -1.6166
    -1.4787  -1.2255  -1.1614  -0.9673  -0.7015  -0.6808  -0.6484  -0.6009
    -0.0364  -0.0139   0.0098   0.0567   0.8294   0.9949   1.0237   1.2355
     1.3509   1.3905   1.4778   1.5334   3.8216   3.9903   4.0219   4.2160
     4.3743   4.4047   4.4415   4.4577   4.4683   4.5216

          k = 0.1250 0.2887 0.0000 ( 35357 PWs)   bands (ev):

   -58.8758 -58.8500 -58.8269 -58.7774 -33.0528 -33.0285 -33.0274 -33.0039
   -33.0013 -32.9791 -32.9557 -32.9293 -32.9025 -32.8781 -32.8536 -32.8052
   -11.2483 -11.1638 -11.1609 -11.0705 -10.5478 -10.4494 -10.4321 -10.3344
    -3.2297  -2.9971  -2.9604  -2.7625  -1.9567  -1.8997  -1.8354  -1.8069
    -1.7038  -1.6292  -1.5363  -1.4709  -1.1318  -1.0748  -1.0341  -0.9229
     0.0666   0.0982   0.1144   0.1681   0.7562   0.9004   0.9070   1.0747
     1.1578   1.1723   1.1983   1.2495   3.6600   3.8676   3.8902   4.0912
     4.3697   4.4133   4.4141   4.4795   4.6048   4.6302

          k = 0.1250 0.3608 0.0000 ( 35341 PWs)   bands (ev):

   -58.8686 -58.8428 -58.8197 -58.7701 -33.1150 -33.0909 -33.0661 -33.0180
   -33.0132 -32.9871 -32.9649 -32.9262 -32.9150 -32.9018 -32.8772 -32.8289
   -10.8837 -10.8074 -10.8045 -10.7206 -10.3803 -10.3015 -10.2829 -10.1993
    -3.2771  -3.1288  -3.1129  -2.9929  -2.2828  -2.1918  -2.1516  -2.0907
    -1.8985  -1.8133  -1.8027  -1.6755  -1.3269  -1.2260  -1.1745  -1.0549
     0.0086   0.0507   0.0610   0.1202   0.5352   0.6572   0.6588   0.7975
     1.1129   1.1412   1.1602   1.2127   3.6947   3.9241   3.9372   4.1587
     4.4403   4.4744   4.4937   4.5790   4.8447   5.0524

          k = 0.1250 0.4330 0.0000 ( 35215 PWs)   bands (ev):

   -58.8624 -58.8366 -58.8135 -58.7639 -33.1672 -33.1430 -33.1183 -33.0702
   -33.0011 -32.9750 -32.9528 -32.9464 -32.9220 -32.9029 -32.8974 -32.8491
   -10.5399 -10.4753 -10.4720 -10.3979 -10.2238 -10.1656 -10.1468 -10.0770
    -3.4578  -3.3619  -3.3516  -3.2691  -2.6954  -2.6301  -2.6141  -2.5500
    -1.9697  -1.8555  -1.8404  -1.7211  -1.3569  -1.2528  -1.2171  -1.1113
    -0.0461   0.0209   0.0253   0.1014   0.2597   0.3740   0.3781   0.5051
     1.2518   1.2809   1.3019   1.3545   3.9009   4.1146   4.1217   4.3278
     4.5486   4.5754   4.6063   4.6684   5.1535   5.3167

          k = 0.1250 0.5052 0.0000 ( 35141 PWs)   bands (ev):

   -58.8582 -58.8325 -58.8094 -58.7598 -33.2017 -33.1776 -33.1528 -33.1048
   -32.9930 -32.9669 -32.9599 -32.9447 -32.9355 -32.9109 -32.8948 -32.8626
   -10.2848 -10.2334 -10.2291 -10.1674 -10.1083 -10.0683 -10.0511  -9.9914
    -3.6210  -3.5528  -3.5387  -3.4736  -2.9908  -2.9377  -2.9230  -2.8587
    -2.0884  -1.9638  -1.9600  -1.8401  -1.3090  -1.2260  -1.2097  -1.1294
    -0.0498   0.0362   0.0712   0.0877   0.1327   0.1486   0.1793   0.2936
     1.4387   1.4777   1.4983   1.5578   4.1195   4.2240   4.2368   4.3319
     4.6992   4.7614   4.7749   4.8694   5.4267   5.5412

          k = 0.1250 0.5774 0.0000 ( 35180 PWs)   bands (ev):

   -58.8568 -58.8310 -58.8079 -58.7583 -33.2138 -33.1897 -33.1649 -33.1169
   -32.9902 -32.9646 -32.9640 -32.9419 -32.9402 -32.9157 -32.8920 -32.8674
   -10.1883 -10.1439 -10.1386 -10.0865 -10.0626 -10.0327 -10.0170  -9.9607
    -3.6843  -3.6259  -3.6087  -3.5488  -3.0961  -3.0464  -3.0314  -2.9665
    -2.1485  -2.0227  -2.0226  -1.9012  -1.2624  -1.2059  -1.2028  -1.1351
    -0.1061   0.0266   0.0604   0.0614   0.1000   0.1115   0.1634   0.2380
     1.5311   1.5784   1.5980   1.6631   4.1934   4.2254   4.2369   4.2914
     4.8105   4.8884   4.8967   4.9700   5.5386   5.6555

          k = 0.1875 0.3248 0.0000 ( 35337 PWs)   bands (ev):

   -58.8692 -58.8434 -58.8203 -58.7707 -33.1015 -33.0773 -33.0526 -33.0144
   -33.0044 -32.9882 -32.9661 -32.9330 -32.9162 -32.9086 -32.8840 -32.8357
   -10.9171 -10.8396 -10.8368 -10.7520 -10.3936 -10.3126 -10.2940 -10.2089
    -3.2109  -3.0467  -3.0287  -2.8960  -2.1542  -2.0848  -2.0480  -2.0199
    -1.8529  -1.7716  -1.7713  -1.6805  -1.4682  -1.3558  -1.2730  -1.1247
    -0.1654  -0.1228  -0.1145  -0.0536   0.6996   0.7958   0.7984   0.9074
     1.1188   1.1515   1.1690   1.2248   3.6068   3.8612   3.8712   4.1324
     4.4641   4.5010   4.5028   4.5609   4.7001   4.7580

          k = 0.1875 0.3969 0.0000 ( 35241 PWs)   bands (ev):

   -58.8630 -58.8372 -58.8141 -58.7645 -33.1434 -33.1192 -33.0945 -33.0464
   -33.0023 -32.9762 -32.9638 -32.9540 -32.9394 -32.9148 -32.9041 -32.8665
   -10.5813 -10.5141 -10.5111 -10.4349 -10.2365 -10.1747 -10.1556 -10.0836
    -3.2968  -3.1799  -3.1706  -3.0731  -2.6025  -2.5692  -2.5580  -2.5069
    -1.8340  -1.7558  -1.6847  -1.6362  -1.4660  -1.3692  -1.2846  -1.1504
    -0.4836  -0.4305  -0.4225  -0.3553   0.4708   0.5392   0.5481   0.6281
     1.2217   1.2556   1.2776   1.3355   3.7601   4.0375   4.0443   4.3608
     4.5754   4.6027   4.6167   4.6698   4.8794   5.0605

          k = 0.1875 0.4691 0.0000 ( 35167 PWs)   bands (ev):

   -58.8583 -58.8325 -58.8094 -58.7598 -33.1739 -33.1497 -33.1250 -33.0769
   -32.9930 -32.9887 -32.9669 -32.9644 -32.9447 -32.9398 -32.8948 -32.8915
   -10.2981 -10.2438 -10.2399 -10.1759 -10.1027 -10.0602 -10.0421  -9.9812
    -3.3830  -3.2961  -3.2840  -3.2084  -2.9993  -2.9642  -2.9598  -2.9017
    -1.9186  -1.7945  -1.7762  -1.6966  -1.4079  -1.2772  -1.2432  -1.1177
    -0.6681  -0.5788  -0.5742  -0.4734   0.1703   0.2557   0.2562   0.3416
     1.4227   1.4528   1.4759   1.5295   3.9773   4.1599   4.1611   4.3303
     4.7405   4.8017   4.8052   4.9043   5.0882   5.2061

          k = 0.1875 0.5413 0.0000 ( 35162 PWs)   bands (ev):

   -58.8557 -58.8299 -58.8068 -58.7572 -33.1898 -33.1658 -33.1410 -33.0929
   -33.0026 -32.9880 -32.9783 -32.9619 -32.9537 -32.9397 -32.9054 -32.8898
   -10.1313 -10.0881 -10.0828 -10.0386 -10.0161  -9.9944  -9.9777  -9.9236
    -3.4204  -3.3605  -3.3364  -3.2758  -3.2155  -3.1770  -3.1770  -3.1129
    -2.0617  -1.9299  -1.9275  -1.8186  -1.2802  -1.1766  -1.1761  -1.0824
    -0.7122  -0.5975  -0.5929  -0.4843  -0.0380   0.0448   0.0540   0.1407
     1.6070   1.6445   1.6661   1.7255   4.0460   4.0955   4.1096   4.1741
     4.9279   5.0246   5.0601   5.1471   5.1993   5.3039

          k = 0.2500 0.4330 0.0000 ( 35195 PWs)   bands (ev):

   -58.8583 -58.8325 -58.8094 -58.7598 -33.1594 -33.1352 -33.1105 -33.0624
   -33.0036 -32.9930 -32.9793 -32.9669 -32.9547 -32.9447 -32.9064 -32.8948
   -10.3035 -10.2480 -10.2444 -10.1794 -10.1003 -10.0569 -10.0384  -9.9770
    -3.2743  -3.1732  -3.1631  -3.0843  -3.0001  -2.9741  -2.9692  -2.9193
    -1.7371  -1.6904  -1.6070  -1.6068  -1.3986  -1.3010  -1.2340  -1.1014
    -0.9835  -0.9429  -0.9282  -0.8751   0.2399   0.2924   0.3062   0.3770
     1.4060   1.4351   1.4600   1.5129   3.9172   4.1219   4.1295   4.3216
     4.7512   4.8072   4.8198   4.9111   4.9598   5.1017

          k = 0.2500 0.5052 0.0000 ( 35193 PWs)   bands (ev):

   -58.8551 -58.8293 -58.8062 -58.7566 -33.1641 -33.1400 -33.1152 -33.0671
   -33.0362 -33.0119 -32.9873 -32.9869 -32.9607 -32.9390 -32.9385 -32.8887
   -10.1031 -10.0599 -10.0547 -10.0142  -9.9896  -9.9718  -9.9540  -9.9012
    -3.3076  -3.2758  -3.2665  -3.2191  -3.1554  -3.0777  -3.0760  -2.9976
    -1.8910  -1.7632  -1.7610  -1.7050  -1.3423  -1.2766  -1.2041  -1.2033
    -1.1479  -1.1450  -1.0551  -0.9856  -0.0373   0.0315   0.0339   0.1160
     1.6467   1.6752   1.6989   1.7510   3.9139   3.9820   3.9942   4.0735
     4.8956   4.9667   4.9894   5.0534   5.1798   5.2583

          k = 0.2500 0.5774 0.0000 ( 35190 PWs)   bands (ev):

   -58.8540 -58.8282 -58.8051 -58.7555 -33.1639 -33.1398 -33.1151 -33.0670
   -33.0494 -33.0251 -33.0005 -32.9847 -32.9585 -32.9523 -32.9364 -32.8865
   -10.0282  -9.9916  -9.9861  -9.9700  -9.9405  -9.9397  -9.9183  -9.8735
    -3.4070  -3.3766  -3.3705  -3.3186  -3.0710  -3.0201  -3.0060  -2.9474
    -2.0457  -1.9240  -1.9199  -1.8319  -1.3799  -1.2745  -1.2342  -1.1783
    -1.1021  -1.0511  -1.0084  -0.9520  -0.1574  -0.1017  -0.0965  -0.0206
     1.7734   1.8055   1.8276   1.8829   3.8413   3.8673   3.8870   3.9366
     4.9220   4.9841   5.0263   5.0589   5.3382   5.3789

          k = 0.3125 0.5413 0.0000 ( 35172 PWs)   bands (ev):

   -58.8534 -58.8276 -58.8045 -58.7549 -33.1429 -33.1188 -33.0940 -33.0779
   -33.0536 -33.0459 -33.0290 -32.9835 -32.9807 -32.9573 -32.9352 -32.8853
    -9.9917  -9.9580  -9.9550  -9.9445  -9.9206  -9.9159  -9.8925  -9.8545
    -3.4749  -3.4440  -3.4420  -3.3870  -2.8471  -2.7818  -2.7688  -2.7035
    -2.0374  -2.0259  -1.9846  -1.9592  -1.5573  -1.5288  -1.5183  -1.4988
    -1.0523  -0.9777  -0.9644  -0.8947  -0.2455  -0.1803  -0.1712  -0.0908
     1.8553   1.8838   1.9062   1.9583   3.7253   3.7500   3.7722   3.8210
     4.8590   4.8901   4.9491   4.9690   5.4331   5.5045

     the Fermi energy is     2.9700 ev

!    total energy              =   -1978.35735446 Ry
     total all-electron energy =    -38771.678199 Ry
     estimated scf accuracy    <          5.7E-09 Ry
     smearing contrib. (-TS)   =       0.00003307 Ry
     internal energy E=F+TS    =   -1978.35738753 Ry

     The total energy is F=E-TS. E is the sum of the following terms:
     one-electron contribution =  -11665.13239184 Ry
     hartree contribution      =    5854.17649584 Ry
     xc contribution           =    -119.22539264 Ry
     ewald contribution        =    5221.67678598 Ry
     one-center paw contrib.   =   -1269.85288488 Ry

     convergence has been achieved in  78 iterations

     Writing all to output data dir ./tmp/cleave2/cleave_dz023_dz5p5/mos2_cleave.save/ :
     XML data file, charge density, pseudopotentials, collected wavefunctions

     init_run     :    122.46s CPU    124.60s WALL (       1 calls)
     electrons    :  15906.33s CPU  16172.81s WALL (       1 calls)

     Called by init_run:
     wfcinit      :     75.54s CPU     76.21s WALL (       1 calls)
     potinit      :     43.36s CPU     43.78s WALL (       1 calls)
     hinit0       :      0.35s CPU      0.37s WALL (       1 calls)

     Called by electrons:
     c_bands      :  13176.79s CPU  13254.08s WALL (      79 calls)
     sum_band     :   2075.66s CPU   2162.74s WALL (      79 calls)
     v_of_rho     :    303.73s CPU    330.22s WALL (      79 calls)
     newd         :    250.47s CPU    325.78s WALL (      79 calls)
     PAW_pot      :     32.68s CPU     32.69s WALL (      79 calls)
     mix_rho      :    110.20s CPU    111.88s WALL (      79 calls)
     vdW_kernel   :     39.72s CPU     39.73s WALL (       1 calls)

     Called by c_bands:
     init_us_2    :     61.73s CPU     61.78s WALL (    4770 calls)
     init_us_2:cp :     61.72s CPU     61.77s WALL (    4770 calls)
     cegterg      :  12577.04s CPU  12653.72s WALL (    2370 calls)

     Called by *egterg:
     cdiaghg      :     18.17s CPU     18.18s WALL (    7151 calls)
     h_psi        :   6731.04s CPU   6761.05s WALL (    7211 calls)
     s_psi        :   1966.81s CPU   1967.32s WALL (    7211 calls)
     g_psi        :     29.30s CPU     29.31s WALL (    4811 calls)

     Called by h_psi:
     h_psi:calbec :   2555.68s CPU   2556.24s WALL (    7211 calls)
     vloc_psi     :   2191.62s CPU   2193.10s WALL (    7211 calls)
     add_vuspsi   :   1969.92s CPU   1970.39s WALL (    7211 calls)

     General routines
     calbec       :   3744.61s CPU   3745.49s WALL (    9581 calls)
     fft          :    101.22s CPU    101.25s WALL (    4976 calls)
     ffts         :     54.30s CPU     54.32s WALL (    9629 calls)
     fftw         :   1999.47s CPU   2000.51s WALL (  778830 calls)
     interpolate  :      2.36s CPU      2.37s WALL (      79 calls)

     Parallel routines

     PWSCF        :      4h27m CPU      4h31m WALL


   This run was terminated on:  12:54: 8  13Jun2026            

=------------------------------------------------------------------------------=
   JOB DONE.
=------------------------------------------------------------------------------=
Note: The following floating-point exceptions are signalling: IEEE_UNDERFLOW_FLAG IEEE_DENORMAL
