Authorization required, but no authorization protocol specified

Authorization required, but no authorization protocol specified

Authorization required, but no authorization protocol specified

Authorization required, but no authorization protocol specified

Authorization required, but no authorization protocol specified

Authorization required, but no authorization protocol specified

Authorization required, but no authorization protocol specified

Authorization required, but no authorization protocol specified


     Program PWSCF v.7.3 starts on 10Jun2026 at 12:35:12 

     This program is part of the open-source Quantum ESPRESSO suite
     for quantum simulation of materials; please cite
         "P. Giannozzi et al., J. Phys.:Condens. Matter 21 395502 (2009);
         "P. Giannozzi et al., J. Phys.:Condens. Matter 29 465901 (2017);
         "P. Giannozzi et al., J. Chem. Phys. 152 154105 (2020);
          URL http://www.quantum-espresso.org", 
     in publications or presentations arising from this work. More details at
     http://www.quantum-espresso.org/quote

     Parallel version (MPI), running on     1 processors

     MPI processes distributed on     1 nodes
     58156 MiB available memory on the printing compute node when the environment starts

     Waiting for input...
     Reading input from standard input

     Current dimensions of program PWSCF are:
     Max number of different atomic species (ntypx) = 10
     Max number of k-points (npk) =  40000
     Max angular momentum in pseudopotentials (lmaxx) =  4
     file Mo.pbe-spn-kjpaw_psl.1.0.0.UPF: wavefunction(s)  4S 4D renormalized
     file S.pbe-n-kjpaw_psl.1.0.0.UPF: wavefunction(s)  3S 3P renormalized

     IMPORTANT: XC functional enforced from input :
     Exchange-correlation= VDW-DF2-B86R
                           (   1   4  26   0   2   0   0)
     Any further DFT definition will be discarded
     Please, verify this is what you really want


     Subspace diagonalization in iterative solution of the eigenvalue problem:
     a serial algorithm will be used


     G-vector sticks info
     --------------------
     sticks:   dense  smooth     PW     G-vecs:    dense   smooth      PW
     Sum        1573     769    223               797393   281171   43435

     Using Slab Decomposition



     bravais-lattice index     =            4
     lattice parameter (alat)  =       5.9715  a.u.
     unit-cell volume          =    2917.9067 (a.u.)^3
     number of atoms/cell      =           12
     number of atomic types    =            2
     number of electrons       =       104.00
     number of Kohn-Sham states=           62
     kinetic-energy cutoff     =      80.0000  Ry
     charge density cutoff     =     640.0000  Ry
     scf convergence threshold =      1.0E-08
     mixing beta               =       0.2000
     number of iterations used =            8  local-TF  mixing
     Exchange-correlation= VDW-DF2-B86R
                           (   1   4  26   0   2   0   0)

     celldm(1)=   5.971535  celldm(2)=   0.000000  celldm(3)=  15.822785
     celldm(4)=   0.000000  celldm(5)=   0.000000  celldm(6)=   0.000000

     crystal axes: (cart. coord. in units of alat)
               a(1) = (   1.000000   0.000000   0.000000 )  
               a(2) = (  -0.500000   0.866025   0.000000 )  
               a(3) = (   0.000000   0.000000  15.822785 )  

     reciprocal axes: (cart. coord. in units 2 pi/alat)
               b(1) = (  1.000000  0.577350 -0.000000 )  
               b(2) = (  0.000000  1.154701  0.000000 )  
               b(3) = (  0.000000 -0.000000  0.063200 )  


     PseudoPot. # 1 for Mo read from file:
     ./pseudo/Mo.pbe-spn-kjpaw_psl.1.0.0.UPF
     MD5 check sum: 4396e0c640fcce5c25f020efccf1ab12
     Pseudo is Projector augmented-wave + core cor, Zval = 14.0
     Generated using &quot;atomic&quot; code by A. Dal Corso  v.6.3
     Shape of augmentation charge: PSQ
     Using radial grid of 1229 points,  6 beta functions with: 
                l(1) =   0
                l(2) =   0
                l(3) =   1
                l(4) =   1
                l(5) =   2
                l(6) =   2
     Q(r) pseudized with 0 coefficients 


     PseudoPot. # 2 for S  read from file:
     ./pseudo/S.pbe-n-kjpaw_psl.1.0.0.UPF
     MD5 check sum: fb45dfebcf3e72a4e1bd4a866ec2e262
     Pseudo is Projector augmented-wave + core cor, Zval =  6.0
     Generated using &quot;atomic&quot; code by A. Dal Corso  v.6.3
     Shape of augmentation charge: PSQ
     Using radial grid of 1151 points,  6 beta functions with: 
                l(1) =   0
                l(2) =   0
                l(3) =   1
                l(4) =   1
                l(5) =   2
                l(6) =   2
     Q(r) pseudized with 0 coefficients 


     atomic species   valence    mass     pseudopotential
     Mo               14.00    95.96000     Mo( 1.00)
     S                 6.00    32.06000     S ( 1.00)

      6 Sym. Ops. (no inversion) found



   Cartesian axes

     site n.     atom                  positions (alat units)
         1        S      tau(   1) = (  -0.0000005   0.5773503  -0.9967195  )
         2        Mo     tau(   2) = (   0.0000000   0.0000000  -0.4993332  )
         3        S      tau(   3) = (  -0.0000005   0.5773503  -0.0017175  )
         4        S      tau(   4) = (   0.5000003   0.2886747   0.9835827  )
         5        Mo     tau(   5) = (  -0.0000005   0.5773503   1.4818950  )
         6        S      tau(   6) = (   0.5000003   0.2886747   1.9798512  )
         7        S      tau(   7) = (   0.0000000   0.0000000   2.9586848  )
         8        Mo     tau(   8) = (   0.5000003   0.2886747   3.4569999  )
         9        S      tau(   9) = (   0.0000000   0.0000000   3.9548385  )
        10        S      tau(  10) = (  -0.0000005   0.5773503   5.2372173  )
        11        Mo     tau(  11) = (   0.0000000   0.0000000   5.7348539  )
        12        S      tau(  12) = (  -0.0000005   0.5773503   6.2319880  )

     number of k points=    30  Methfessel-Paxton smearing, width (Ry)=  0.0200
                       cart. coord. in units 2pi/alat
        k(    1) = (   0.0000000   0.0000000   0.0000000), wk =   0.0078125
        k(    2) = (   0.0000000   0.0721688   0.0000000), wk =   0.0468750
        k(    3) = (   0.0000000   0.1443376   0.0000000), wk =   0.0468750
        k(    4) = (   0.0000000   0.2165064   0.0000000), wk =   0.0468750
        k(    5) = (   0.0000000   0.2886751   0.0000000), wk =   0.0468750
        k(    6) = (   0.0000000   0.3608439   0.0000000), wk =   0.0468750
        k(    7) = (   0.0000000   0.4330127   0.0000000), wk =   0.0468750
        k(    8) = (   0.0000000   0.5051815   0.0000000), wk =   0.0468750
        k(    9) = (   0.0000000  -0.5773503   0.0000000), wk =   0.0234375
        k(   10) = (   0.0625000   0.1082532   0.0000000), wk =   0.0468750
        k(   11) = (   0.0625000   0.1804220   0.0000000), wk =   0.0937500
        k(   12) = (   0.0625000   0.2525907   0.0000000), wk =   0.0937500
        k(   13) = (   0.0625000   0.3247595   0.0000000), wk =   0.0937500
        k(   14) = (   0.0625000   0.3969283   0.0000000), wk =   0.0937500
        k(   15) = (   0.0625000   0.4690971   0.0000000), wk =   0.0937500
        k(   16) = (   0.0625000   0.5412659   0.0000000), wk =   0.0937500
        k(   17) = (   0.1250000   0.2165064   0.0000000), wk =   0.0468750
        k(   18) = (   0.1250000   0.2886751   0.0000000), wk =   0.0937500
        k(   19) = (   0.1250000   0.3608439   0.0000000), wk =   0.0937500
        k(   20) = (   0.1250000   0.4330127   0.0000000), wk =   0.0937500
        k(   21) = (   0.1250000   0.5051815   0.0000000), wk =   0.0937500
        k(   22) = (   0.1250000   0.5773503   0.0000000), wk =   0.0468750
        k(   23) = (   0.1875000   0.3247595   0.0000000), wk =   0.0468750
        k(   24) = (   0.1875000   0.3969283   0.0000000), wk =   0.0937500
        k(   25) = (   0.1875000   0.4690971   0.0000000), wk =   0.0937500
        k(   26) = (   0.1875000   0.5412659   0.0000000), wk =   0.0937500
        k(   27) = (   0.2500000   0.4330127   0.0000000), wk =   0.0468750
        k(   28) = (   0.2500000   0.5051815   0.0000000), wk =   0.0937500
        k(   29) = (   0.2500000   0.5773503   0.0000000), wk =   0.0468750
        k(   30) = (   0.3125000   0.5412659   0.0000000), wk =   0.0468750

     Dense  grid:   797393 G-vectors     FFT dimensions: (  50,  50, 768)

     Smooth grid:   281171 G-vectors     FFT dimensions: (  36,  36, 540)

     Estimated max dynamical RAM per process >       3.90 GB

     Initial potential from superposition of free atoms

     starting charge     103.9962, renormalised to     104.0000

     negative rho (up, down):  1.527E-04 0.000E+00


     %%%%%%%%%%%%%%%%%%%%%%%%%%%%%%%%%%%%%%%%%%%%%%%%%%%%%%%%%%%%%%%%%%%%%%%%
     %                                                                      %
     % You are using vdW-DF, which was implemented by the Thonhauser group. %
     % Please cite the following two papers that made this development      %
     % possible and the two reviews that describe the various versions:     %
     %                                                                      %
     %   T. Thonhauser et al., PRL 115, 136402 (2015).                      %
     %   T. Thonhauser et al., PRB 76, 125112 (2007).                       %
     %   K. Berland et al., Rep. Prog. Phys. 78, 066501 (2015).             %
     %   D.C. Langreth et al., J. Phys.: Condens. Matter 21, 084203 (2009). %
     %                                                                      %
     % If you are calculating stress with vdW-DF, please also cite:         %
     %                                                                      %
     %   R. Sabatini et al., J. Phys.: Condens. Matter 24, 424209 (2012).   %
     %                                                                      %
     %%%%%%%%%%%%%%%%%%%%%%%%%%%%%%%%%%%%%%%%%%%%%%%%%%%%%%%%%%%%%%%%%%%%%%%%

     %%%%%%%%%%%%%%%%%%%%%%%%%%%%%%%%%%%%%%%%%%%%%%%%%%%%%%%%%%%%%%%%%%%%%%%%
     %                                                                      %
     %  vdW-DF NEWS:                                                        %
     %                                                                      %
     %  * vdW-DF3 is now available. DOI: 10.1021/acs.jctc.0c00471           %
     %    use with input_dft = 'vdW-DF3-opt1' or 'vdW-DF3-opt2'             %
     %                                                                      %
     %  * Unscreened and range-separated hybrid vdW-DF-cx functionals       %
     %    DOI: 10.1063/1.4986522 and 10.1088/1361-648X/ac2ad2               %
     %    use with input_dft = 'vdW-DF-cx0'    and 'vdW-DF-ahcx'            %
     %  * Unscreened and range-separated hybrid vdW-DF2-b86r functionals    %
     %    DOI: 10.1063/1.4986522 and DOI: 10.1103/PhysRevX.12.041003        %
     %    use with input_dft = 'vdW-DF2-br0' and 'vdW-DF2-ahbr'             %
     %                                                                      %
     %%%%%%%%%%%%%%%%%%%%%%%%%%%%%%%%%%%%%%%%%%%%%%%%%%%%%%%%%%%%%%%%%%%%%%%%


     Starting wfcs are   72 randomized atomic wfcs
     Checking if some PAW data can be deallocated... 

     total cpu time spent up to now is      122.8 secs

     Self-consistent Calculation

     iteration #  1     ecut=    80.00 Ry     beta= 0.20
     Davidson diagonalization with overlap
     ethr =  1.00E-02,  avg # of iterations =  2.2

     Threshold (ethr) on eigenvalues was too large:
     Diagonalizing with lowered threshold

     Davidson diagonalization with overlap
     ethr =  2.83E-04,  avg # of iterations =  3.5

     negative rho (up, down):  3.131E-05 0.000E+00

     total cpu time spent up to now is      596.3 secs

     total energy              =   -1978.46086191 Ry
     estimated scf accuracy    <       0.44550731 Ry

     iteration #  2     ecut=    80.00 Ry     beta= 0.20
     Davidson diagonalization with overlap
     ethr =  4.28E-04,  avg # of iterations =  1.0

     negative rho (up, down):  2.435E-06 0.000E+00

     total cpu time spent up to now is      773.9 secs

     total energy              =   -1978.28193547 Ry
     estimated scf accuracy    <       0.36674764 Ry

     iteration #  3     ecut=    80.00 Ry     beta= 0.20
     Davidson diagonalization with overlap
     ethr =  3.53E-04,  avg # of iterations =  2.0

     negative rho (up, down):  6.443E-07 0.000E+00

     total cpu time spent up to now is     1008.9 secs

     total energy              =   -1978.36226492 Ry
     estimated scf accuracy    <       0.04578234 Ry

     iteration #  4     ecut=    80.00 Ry     beta= 0.20
     Davidson diagonalization with overlap
     ethr =  4.40E-05,  avg # of iterations =  2.2

     negative rho (up, down):  2.249E-07 0.000E+00

     total cpu time spent up to now is     1236.8 secs

     total energy              =   -1978.36537286 Ry
     estimated scf accuracy    <       0.01730023 Ry

     iteration #  5     ecut=    80.00 Ry     beta= 0.20
     Davidson diagonalization with overlap
     ethr =  1.66E-05,  avg # of iterations =  3.9

     negative rho (up, down):  1.723E-07 0.000E+00

     total cpu time spent up to now is     1457.6 secs

     total energy              =   -1978.36707761 Ry
     estimated scf accuracy    <       0.00394397 Ry

     iteration #  6     ecut=    80.00 Ry     beta= 0.20
     Davidson diagonalization with overlap
     c_bands:  1 eigenvalues not converged
     ethr =  3.79E-06,  avg # of iterations =  6.1

     negative rho (up, down):  6.679E-07 0.000E+00

     total cpu time spent up to now is     1669.7 secs

     total energy              =   -1978.36619447 Ry
     estimated scf accuracy    <       0.00354547 Ry

     iteration #  7     ecut=    80.00 Ry     beta= 0.20
     Davidson diagonalization with overlap
     c_bands:  1 eigenvalues not converged
     c_bands:  1 eigenvalues not converged
     ethr =  3.41E-06,  avg # of iterations =  5.6

     negative rho (up, down):  2.471E-07 0.000E+00

     total cpu time spent up to now is     1948.7 secs

     total energy              =   -1978.36519401 Ry
     estimated scf accuracy    <       0.01303209 Ry

     iteration #  8     ecut=    80.00 Ry     beta= 0.20
     Davidson diagonalization with overlap
     ethr =  3.41E-06,  avg # of iterations =  4.6

     negative rho (up, down):  1.514E-06 0.000E+00

     total cpu time spent up to now is     2188.9 secs

     total energy              =   -1978.36587517 Ry
     estimated scf accuracy    <       0.00241950 Ry

     iteration #  9     ecut=    80.00 Ry     beta= 0.20
     Davidson diagonalization with overlap
     ethr =  2.33E-06,  avg # of iterations =  6.1

     negative rho (up, down):  7.122E-05 0.000E+00

     total cpu time spent up to now is     2421.5 secs

     total energy              =   -1978.36615167 Ry
     estimated scf accuracy    <       0.00253302 Ry

     iteration # 10     ecut=    80.00 Ry     beta= 0.20
     Davidson diagonalization with overlap
     ethr =  2.33E-06,  avg # of iterations =  2.0

     negative rho (up, down):  3.207E-03 0.000E+00

     total cpu time spent up to now is     2620.7 secs

     total energy              =   -1978.36573703 Ry
     estimated scf accuracy    <       0.00256902 Ry

     iteration # 11     ecut=    80.00 Ry     beta= 0.20
     Davidson diagonalization with overlap
     c_bands:  1 eigenvalues not converged
     ethr =  2.33E-06,  avg # of iterations =  2.8

     negative rho (up, down):  3.763E-03 0.000E+00

     total cpu time spent up to now is     2820.5 secs

     total energy              =   -1978.36582797 Ry
     estimated scf accuracy    <       0.00062762 Ry

     iteration # 12     ecut=    80.00 Ry     beta= 0.20
     Davidson diagonalization with overlap
     c_bands:  2 eigenvalues not converged
     ethr =  6.03E-07,  avg # of iterations =  6.6

     negative rho (up, down):  9.433E-04 0.000E+00

     total cpu time spent up to now is     3067.2 secs

     total energy              =   -1978.36596597 Ry
     estimated scf accuracy    <       0.00099190 Ry

     iteration # 13     ecut=    80.00 Ry     beta= 0.20
     Davidson diagonalization with overlap
     ethr =  6.03E-07,  avg # of iterations =  2.1

     negative rho (up, down):  3.526E-03 0.000E+00

     total cpu time spent up to now is     3269.9 secs

     total energy              =   -1978.36600125 Ry
     estimated scf accuracy    <       0.00050703 Ry

     iteration # 14     ecut=    80.00 Ry     beta= 0.20
     Davidson diagonalization with overlap
     ethr =  4.88E-07,  avg # of iterations =  1.2

     negative rho (up, down):  2.979E-03 0.000E+00

     total cpu time spent up to now is     3457.3 secs

     total energy              =   -1978.36589892 Ry
     estimated scf accuracy    <       0.00065466 Ry

     iteration # 15     ecut=    80.00 Ry     beta= 0.20
     Davidson diagonalization with overlap
     ethr =  4.88E-07,  avg # of iterations =  2.5

     negative rho (up, down):  2.326E-03 0.000E+00

     total cpu time spent up to now is     3665.5 secs

     total energy              =   -1978.36595413 Ry
     estimated scf accuracy    <       0.00029614 Ry

     iteration # 16     ecut=    80.00 Ry     beta= 0.20
     Davidson diagonalization with overlap
     ethr =  2.85E-07,  avg # of iterations =  3.6

     negative rho (up, down):  2.587E-03 0.000E+00

     total cpu time spent up to now is     3875.7 secs

     total energy              =   -1978.36590051 Ry
     estimated scf accuracy    <       0.00040359 Ry

     iteration # 17     ecut=    80.00 Ry     beta= 0.20
     Davidson diagonalization with overlap
     ethr =  2.85E-07,  avg # of iterations =  1.2

     negative rho (up, down):  1.914E-03 0.000E+00

     total cpu time spent up to now is     4057.9 secs

     total energy              =   -1978.36590312 Ry
     estimated scf accuracy    <       0.00027539 Ry

     iteration # 18     ecut=    80.00 Ry     beta= 0.20
     Davidson diagonalization with overlap
     ethr =  2.65E-07,  avg # of iterations =  2.8

     negative rho (up, down):  1.643E-03 0.000E+00

     total cpu time spent up to now is     4267.3 secs

     total energy              =   -1978.36594670 Ry
     estimated scf accuracy    <       0.00016462 Ry

     iteration # 19     ecut=    80.00 Ry     beta= 0.20
     Davidson diagonalization with overlap
     ethr =  1.58E-07,  avg # of iterations =  1.1

     negative rho (up, down):  1.023E-03 0.000E+00

     total cpu time spent up to now is     4447.6 secs

     total energy              =   -1978.36595727 Ry
     estimated scf accuracy    <       0.00010679 Ry

     iteration # 20     ecut=    80.00 Ry     beta= 0.20
     Davidson diagonalization with overlap
     ethr =  1.03E-07,  avg # of iterations =  2.6

     negative rho (up, down):  8.517E-04 0.000E+00

     total cpu time spent up to now is     4649.1 secs

     total energy              =   -1978.36594668 Ry
     estimated scf accuracy    <       0.00010990 Ry

     iteration # 21     ecut=    80.00 Ry     beta= 0.20
     Davidson diagonalization with overlap
     ethr =  1.03E-07,  avg # of iterations =  1.1

     negative rho (up, down):  7.892E-04 0.000E+00

     total cpu time spent up to now is     4827.8 secs

     total energy              =   -1978.36595647 Ry
     estimated scf accuracy    <       0.00008052 Ry

     iteration # 22     ecut=    80.00 Ry     beta= 0.20
     Davidson diagonalization with overlap
     ethr =  7.74E-08,  avg # of iterations =  1.0

     negative rho (up, down):  6.751E-04 0.000E+00

     total cpu time spent up to now is     5006.8 secs

     total energy              =   -1978.36596091 Ry
     estimated scf accuracy    <       0.00007481 Ry

     iteration # 23     ecut=    80.00 Ry     beta= 0.20
     Davidson diagonalization with overlap
     ethr =  7.19E-08,  avg # of iterations =  1.3

     negative rho (up, down):  1.363E-03 0.000E+00

     total cpu time spent up to now is     5191.0 secs

     total energy              =   -1978.36594871 Ry
     estimated scf accuracy    <       0.00007860 Ry

     iteration # 24     ecut=    80.00 Ry     beta= 0.20
     Davidson diagonalization with overlap
     ethr =  7.19E-08,  avg # of iterations =  1.1

     negative rho (up, down):  8.939E-04 0.000E+00

     total cpu time spent up to now is     5370.8 secs

     total energy              =   -1978.36595244 Ry
     estimated scf accuracy    <       0.00005856 Ry

     iteration # 25     ecut=    80.00 Ry     beta= 0.20
     Davidson diagonalization with overlap
     ethr =  5.63E-08,  avg # of iterations =  1.1

     negative rho (up, down):  9.507E-04 0.000E+00

     total cpu time spent up to now is     5550.4 secs

     total energy              =   -1978.36593001 Ry
     estimated scf accuracy    <       0.00004870 Ry

     iteration # 26     ecut=    80.00 Ry     beta= 0.20
     Davidson diagonalization with overlap
     ethr =  4.68E-08,  avg # of iterations =  1.4

     negative rho (up, down):  2.975E-04 0.000E+00

     total cpu time spent up to now is     5736.4 secs

     total energy              =   -1978.36594589 Ry
     estimated scf accuracy    <       0.00003151 Ry

     iteration # 27     ecut=    80.00 Ry     beta= 0.20
     Davidson diagonalization with overlap
     ethr =  3.03E-08,  avg # of iterations =  2.6

     negative rho (up, down):  5.126E-04 0.000E+00

     total cpu time spent up to now is     5943.8 secs

     total energy              =   -1978.36594372 Ry
     estimated scf accuracy    <       0.00002052 Ry

     iteration # 28     ecut=    80.00 Ry     beta= 0.20
     Davidson diagonalization with overlap
     c_bands:  2 eigenvalues not converged
     ethr =  1.97E-08,  avg # of iterations =  3.4

     negative rho (up, down):  5.337E-04 0.000E+00

     total cpu time spent up to now is     6150.7 secs

     total energy              =   -1978.36594687 Ry
     estimated scf accuracy    <       0.00000973 Ry

     iteration # 29     ecut=    80.00 Ry     beta= 0.20
     Davidson diagonalization with overlap
     ethr =  9.36E-09,  avg # of iterations =  1.7

     negative rho (up, down):  4.234E-04 0.000E+00

     total cpu time spent up to now is     6332.2 secs

     total energy              =   -1978.36594620 Ry
     estimated scf accuracy    <       0.00000734 Ry

     iteration # 30     ecut=    80.00 Ry     beta= 0.20
     Davidson diagonalization with overlap
     ethr =  7.06E-09,  avg # of iterations =  1.1

     negative rho (up, down):  3.625E-04 0.000E+00

     total cpu time spent up to now is     6512.6 secs

     total energy              =   -1978.36594664 Ry
     estimated scf accuracy    <       0.00000713 Ry

     iteration # 31     ecut=    80.00 Ry     beta= 0.20
     Davidson diagonalization with overlap
     ethr =  6.86E-09,  avg # of iterations =  1.0

     negative rho (up, down):  4.311E-04 0.000E+00

     total cpu time spent up to now is     6691.6 secs

     total energy              =   -1978.36594758 Ry
     estimated scf accuracy    <       0.00000679 Ry

     iteration # 32     ecut=    80.00 Ry     beta= 0.20
     Davidson diagonalization with overlap
     ethr =  6.53E-09,  avg # of iterations =  1.2

     negative rho (up, down):  3.731E-04 0.000E+00

     total cpu time spent up to now is     6872.6 secs

     total energy              =   -1978.36594690 Ry
     estimated scf accuracy    <       0.00000661 Ry

     iteration # 33     ecut=    80.00 Ry     beta= 0.20
     Davidson diagonalization with overlap
     ethr =  6.35E-09,  avg # of iterations =  1.1

     negative rho (up, down):  4.052E-04 0.000E+00

     total cpu time spent up to now is     7051.7 secs

     total energy              =   -1978.36594721 Ry
     estimated scf accuracy    <       0.00000651 Ry

     iteration # 34     ecut=    80.00 Ry     beta= 0.20
     Davidson diagonalization with overlap
     ethr =  6.26E-09,  avg # of iterations =  1.1

     negative rho (up, down):  3.919E-04 0.000E+00

     total cpu time spent up to now is     7232.8 secs

     total energy              =   -1978.36594596 Ry
     estimated scf accuracy    <       0.00000607 Ry

     iteration # 35     ecut=    80.00 Ry     beta= 0.20
     Davidson diagonalization with overlap
     ethr =  5.84E-09,  avg # of iterations =  1.3

     negative rho (up, down):  4.160E-04 0.000E+00

     total cpu time spent up to now is     7416.1 secs

     total energy              =   -1978.36594635 Ry
     estimated scf accuracy    <       0.00000611 Ry

     iteration # 36     ecut=    80.00 Ry     beta= 0.20
     Davidson diagonalization with overlap
     ethr =  5.84E-09,  avg # of iterations =  1.6

     negative rho (up, down):  4.385E-04 0.000E+00

     total cpu time spent up to now is     7600.1 secs

     total energy              =   -1978.36594621 Ry
     estimated scf accuracy    <       0.00000563 Ry

     iteration # 37     ecut=    80.00 Ry     beta= 0.20
     Davidson diagonalization with overlap
     ethr =  5.41E-09,  avg # of iterations =  1.0

     negative rho (up, down):  3.808E-04 0.000E+00

     total cpu time spent up to now is     7778.0 secs

     total energy              =   -1978.36594103 Ry
     estimated scf accuracy    <       0.00000543 Ry

     iteration # 38     ecut=    80.00 Ry     beta= 0.20
     Davidson diagonalization with overlap
     ethr =  5.22E-09,  avg # of iterations =  4.7

     negative rho (up, down):  4.012E-04 0.000E+00

     total cpu time spent up to now is     7996.8 secs

     total energy              =   -1978.36593997 Ry
     estimated scf accuracy    <       0.00000511 Ry

     iteration # 39     ecut=    80.00 Ry     beta= 0.20
     Davidson diagonalization with overlap
     ethr =  4.91E-09,  avg # of iterations =  1.9

     negative rho (up, down):  3.399E-04 0.000E+00

     total cpu time spent up to now is     8189.5 secs

     total energy              =   -1978.36594085 Ry
     estimated scf accuracy    <       0.00000168 Ry

     iteration # 40     ecut=    80.00 Ry     beta= 0.20
     Davidson diagonalization with overlap
     ethr =  1.62E-09,  avg # of iterations =  2.9

     negative rho (up, down):  3.451E-04 0.000E+00

     total cpu time spent up to now is     8398.4 secs

     total energy              =   -1978.36594009 Ry
     estimated scf accuracy    <       0.00000114 Ry

     iteration # 41     ecut=    80.00 Ry     beta= 0.20
     Davidson diagonalization with overlap
     ethr =  1.09E-09,  avg # of iterations =  2.0

     negative rho (up, down):  3.153E-04 0.000E+00

     total cpu time spent up to now is     8600.4 secs

     total energy              =   -1978.36594103 Ry
     estimated scf accuracy    <       0.00000056 Ry

     iteration # 42     ecut=    80.00 Ry     beta= 0.20
     Davidson diagonalization with overlap
     ethr =  5.37E-10,  avg # of iterations =  1.7

     negative rho (up, down):  1.863E-04 0.000E+00

     total cpu time spent up to now is     8792.9 secs

     total energy              =   -1978.36594230 Ry
     estimated scf accuracy    <       0.00000037 Ry

     iteration # 43     ecut=    80.00 Ry     beta= 0.20
     Davidson diagonalization with overlap
     ethr =  3.53E-10,  avg # of iterations =  4.3

     negative rho (up, down):  1.749E-04 0.000E+00

     total cpu time spent up to now is     9019.7 secs

     total energy              =   -1978.36594271 Ry
     estimated scf accuracy    <       0.00000042 Ry

     iteration # 44     ecut=    80.00 Ry     beta= 0.20
     Davidson diagonalization with overlap
     ethr =  3.53E-10,  avg # of iterations =  1.8

     negative rho (up, down):  1.783E-04 0.000E+00

     total cpu time spent up to now is     9209.8 secs

     total energy              =   -1978.36594278 Ry
     estimated scf accuracy    <       0.00000023 Ry

     iteration # 45     ecut=    80.00 Ry     beta= 0.20
     Davidson diagonalization with overlap
     ethr =  2.17E-10,  avg # of iterations =  1.5

     negative rho (up, down):  1.615E-04 0.000E+00

     total cpu time spent up to now is     9396.2 secs

     total energy              =   -1978.36594292 Ry
     estimated scf accuracy    <       0.00000017 Ry

     iteration # 46     ecut=    80.00 Ry     beta= 0.20
     Davidson diagonalization with overlap
     ethr =  1.67E-10,  avg # of iterations =  1.2

     negative rho (up, down):  1.418E-04 0.000E+00

     total cpu time spent up to now is     9578.4 secs

     total energy              =   -1978.36594337 Ry
     estimated scf accuracy    <       0.00000015 Ry

     iteration # 47     ecut=    80.00 Ry     beta= 0.20
     Davidson diagonalization with overlap
     ethr =  1.42E-10,  avg # of iterations =  1.1

     negative rho (up, down):  1.454E-04 0.000E+00

     total cpu time spent up to now is     9758.1 secs

     total energy              =   -1978.36594375 Ry
     estimated scf accuracy    <       0.00000013 Ry

     iteration # 48     ecut=    80.00 Ry     beta= 0.20
     Davidson diagonalization with overlap
     ethr =  1.28E-10,  avg # of iterations =  1.6

     negative rho (up, down):  1.501E-04 0.000E+00

     total cpu time spent up to now is     9945.9 secs

     total energy              =   -1978.36594393 Ry
     estimated scf accuracy    <       0.00000012 Ry

     iteration # 49     ecut=    80.00 Ry     beta= 0.20
     Davidson diagonalization with overlap
     ethr =  1.11E-10,  avg # of iterations =  1.5

     negative rho (up, down):  1.517E-04 0.000E+00

     total cpu time spent up to now is    10135.0 secs

     total energy              =   -1978.36594405 Ry
     estimated scf accuracy    <       0.00000009 Ry

     iteration # 50     ecut=    80.00 Ry     beta= 0.20
     Davidson diagonalization with overlap
     ethr =  8.76E-11,  avg # of iterations =  1.3

     negative rho (up, down):  1.540E-04 0.000E+00

     total cpu time spent up to now is    10318.2 secs

     total energy              =   -1978.36594405 Ry
     estimated scf accuracy    <       0.00000009 Ry

     iteration # 51     ecut=    80.00 Ry     beta= 0.20
     Davidson diagonalization with overlap
     ethr =  8.76E-11,  avg # of iterations =  1.3

     negative rho (up, down):  1.595E-04 0.000E+00

     total cpu time spent up to now is    10500.3 secs

     total energy              =   -1978.36594382 Ry
     estimated scf accuracy    <       0.00000006 Ry

     iteration # 52     ecut=    80.00 Ry     beta= 0.20
     Davidson diagonalization with overlap
     ethr =  6.12E-11,  avg # of iterations =  2.0

     negative rho (up, down):  1.607E-04 0.000E+00

     total cpu time spent up to now is    10700.3 secs

     total energy              =   -1978.36594361 Ry
     estimated scf accuracy    <       0.00000004 Ry

     iteration # 53     ecut=    80.00 Ry     beta= 0.20
     Davidson diagonalization with overlap
     ethr =  3.75E-11,  avg # of iterations =  1.4

     negative rho (up, down):  1.620E-04 0.000E+00

     total cpu time spent up to now is    10885.7 secs

     total energy              =   -1978.36594354 Ry
     estimated scf accuracy    <       0.00000003 Ry

     iteration # 54     ecut=    80.00 Ry     beta= 0.20
     Davidson diagonalization with overlap
     ethr =  2.84E-11,  avg # of iterations =  1.1

     negative rho (up, down):  1.659E-04 0.000E+00

     total cpu time spent up to now is    11065.2 secs

     total energy              =   -1978.36594341 Ry
     estimated scf accuracy    <       0.00000003 Ry

     iteration # 55     ecut=    80.00 Ry     beta= 0.20
     Davidson diagonalization with overlap
     ethr =  2.46E-11,  avg # of iterations =  1.5

     negative rho (up, down):  1.712E-04 0.000E+00

     total cpu time spent up to now is    11254.1 secs

     total energy              =   -1978.36594332 Ry
     estimated scf accuracy    <       0.00000002 Ry

     iteration # 56     ecut=    80.00 Ry     beta= 0.20
     Davidson diagonalization with overlap
     ethr =  2.00E-11,  avg # of iterations =  1.2

     negative rho (up, down):  1.773E-04 0.000E+00

     total cpu time spent up to now is    11435.8 secs

     total energy              =   -1978.36594351 Ry
     estimated scf accuracy    <       0.00000002 Ry

     iteration # 57     ecut=    80.00 Ry     beta= 0.20
     Davidson diagonalization with overlap
     ethr =  1.59E-11,  avg # of iterations =  1.9

     negative rho (up, down):  1.774E-04 0.000E+00

     total cpu time spent up to now is    11628.5 secs

     End of self-consistent calculation

          k = 0.0000 0.0000 0.0000 ( 35507 PWs)   bands (ev):

   -58.8998 -58.8967 -58.8505 -58.8001 -33.0738 -33.0704 -33.0251 -32.9744
   -32.8364 -32.8364 -32.8344 -32.8344 -32.7870 -32.7870 -32.7377 -32.7377
   -12.2434 -12.1725 -12.1434 -12.0461 -11.0090 -10.8870 -10.8470 -10.7151
    -4.0449  -3.7501  -3.6622  -3.3525  -0.6284  -0.6284  -0.6222  -0.6222
    -0.6194  -0.5753  -0.5753  -0.5331  -0.5331  -0.0867   0.1795   0.4909
     0.4909   0.4928   0.4928   0.5389   0.5390   0.5853   0.5853   0.8373
     1.5747   1.8673   2.1544   2.4629   4.7243   4.7243   4.7509   4.7510
     4.7767   4.7767   4.8353   4.8353   4.9461   4.9468

          k = 0.0000 0.0722 0.0000 ( 35493 PWs)   bands (ev):

   -58.8983 -58.8951 -58.8490 -58.7985 -33.0708 -33.0674 -33.0220 -32.9714
   -32.8519 -32.8500 -32.8399 -32.8380 -32.8026 -32.7906 -32.7533 -32.7413
   -12.1838 -12.1131 -12.0841 -11.9870 -10.9814 -10.8619 -10.8219 -10.6919
    -3.9760  -3.6818  -3.5940  -3.2846  -0.7641  -0.7605  -0.7507  -0.7109
    -0.6674  -0.5659  -0.5599  -0.5131  -0.4707  -0.3104  -0.1299   0.1798
     0.3940   0.3958   0.4421   0.4889   0.5905   0.6610   0.7379   1.0734
     1.5782   1.8486   2.1157   2.3823   4.6497   4.6615   4.6972   4.7520
     4.7842   4.8086   4.8458   4.8533   4.8627   4.8656

          k = 0.0000 0.1443 0.0000 ( 35435 PWs)   bands (ev):

   -58.8938 -58.8907 -58.8445 -58.7941 -33.0621 -33.0587 -33.0134 -32.9627
   -32.8960 -32.8941 -32.8500 -32.8480 -32.8466 -32.8006 -32.7974 -32.7513
   -12.0098 -11.9400 -11.9112 -11.8148 -10.9008 -10.7889 -10.7486 -10.6246
    -3.7841  -3.4932  -3.4064  -3.0994  -1.1120  -1.1086  -1.0712  -1.0567
    -1.0097  -0.7253  -0.5948  -0.3857  -0.3807  -0.3358  -0.3340  -0.2906
     0.1432   0.1453   0.1917   0.2395   0.6505   0.7863   0.8965   1.2220
     1.5507   1.7521   1.9536   2.1240   4.3402   4.4123   4.4774   4.5133
     4.5700   4.5944   4.6663   4.6669   4.7212   4.7218

          k = 0.0000 0.2165 0.0000 ( 35345 PWs)   bands (ev):

   -58.8872 -58.8840 -58.8379 -58.7874 -33.0491 -33.0457 -33.0004 -32.9614
   -32.9595 -32.9497 -32.9120 -32.8649 -32.8630 -32.8629 -32.8156 -32.7663
   -11.7363 -11.6685 -11.6403 -11.5453 -10.7744 -10.6749 -10.6341 -10.5196
    -3.5238  -3.2468  -3.1650  -2.8731  -1.5478  -1.5331  -1.5005  -1.4701
    -1.4001  -1.1856  -1.0790  -0.8815  -0.1828  -0.1789  -0.1363  -0.1107
    -0.1057  -0.0855  -0.0560  -0.0141   0.5627   0.7340   0.8487   1.1381
     1.4066   1.5139   1.6256   1.7147   3.9634   4.0915   4.2199   4.4228
     4.4458   4.5026   4.5306   4.5555   4.6153   4.6333

          k = 0.0000 0.2887 0.0000 ( 35323 PWs)   bands (ev):

   -58.8793 -58.8762 -58.8300 -58.7796 -33.0376 -33.0359 -33.0338 -33.0304
   -32.9883 -32.9850 -32.9392 -32.9343 -32.8826 -32.8806 -32.8332 -32.7839
   -11.3888 -11.3252 -11.2975 -11.2058 -10.6148 -10.5319 -10.4906 -10.3887
    -3.3233  -3.0958  -3.0344  -2.8087  -1.9468  -1.8763  -1.8546  -1.8116
    -1.7140  -1.6531  -1.5346  -1.4210  -0.5110  -0.5065  -0.4613  -0.4110
     0.2164   0.2199   0.2671   0.3159   0.3474   0.5366   0.6414   0.8929
     1.1321   1.1816   1.2397   1.3052   3.8309   4.0015   4.1524   4.2575
     4.3097   4.3403   4.4228   4.4231   4.7674   4.8968

          k = 0.0000 0.3608 0.0000 ( 35299 PWs)   bands (ev):

   -58.8715 -58.8683 -58.8222 -58.7717 -33.1130 -33.1114 -33.0637 -33.0184
   -33.0149 -33.0147 -32.9697 -32.9189 -32.9001 -32.8982 -32.8507 -32.8015
   -11.0056 -10.9494 -10.9223 -10.8365 -10.4411 -10.3781 -10.3365 -10.2491
    -3.3595  -3.2231  -3.1918  -3.0601  -2.3125  -2.1934  -2.1363  -2.0203
    -1.9598  -1.9133  -1.8219  -1.7259  -0.7994  -0.7940  -0.7489  -0.6980
     0.1132   0.3068   0.3948   0.5362   0.5476   0.5920   0.6170   0.6474
     0.9133   0.9561   1.0106   1.0750   3.9503   4.1211   4.1539   4.1935
     4.2269   4.2546   4.3018   4.5136   5.0947   5.2365

          k = 0.0000 0.4330 0.0000 ( 35224 PWs)   bands (ev):

   -58.8648 -58.8616 -58.8155 -58.7650 -33.1763 -33.1747 -33.1270 -33.0780
   -33.0053 -33.0018 -32.9566 -32.9149 -32.9130 -32.9058 -32.8656 -32.8163
   -10.6417 -10.5967 -10.5699 -10.4932 -10.2795 -10.2376 -10.1965 -10.1235
    -3.5922  -3.5161  -3.4962  -3.4086  -2.6505  -2.5457  -2.5217  -2.4113
    -2.0675  -1.9805  -1.9343  -1.8072  -1.0202  -1.0141  -0.9692  -0.9177
    -0.0603   0.1279   0.1994   0.4010   0.7904   0.8146   0.8560   0.9202
     0.9332   0.9930   1.0478   1.1280   4.1480   4.1709   4.2080   4.2149
     4.2720   4.3532   4.4490   4.6505   5.4052   5.5445

          k = 0.0000 0.5052 0.0000 ( 35152 PWs)   bands (ev):

   -58.8603 -58.8571 -58.8110 -58.7606 -33.2182 -33.2166 -33.1689 -33.1200
   -32.9966 -32.9931 -32.9478 -32.9248 -32.9229 -32.8971 -32.8755 -32.8262
   -10.3693 -10.3376 -10.3104 -10.2450 -10.1612 -10.1376 -10.0986 -10.0361
    -3.8204  -3.7655  -3.7517  -3.6753  -2.8875  -2.8058  -2.7915  -2.6919
    -2.1694  -2.0800  -2.0416  -1.9199  -1.1579  -1.1515  -1.1067  -1.0549
    -0.1543   0.0261   0.0849   0.2696   0.9442   0.9805   1.0198   1.0921
     1.1229   1.1873   1.2329   1.3160   4.1965   4.2067   4.2480   4.3032
     4.5093   4.5982   4.6540   4.7835   5.6017   5.7221

          k = 0.0000-0.5774 0.0000 ( 35026 PWs)   bands (ev):

   -58.8588 -58.8556 -58.8094 -58.7590 -33.2328 -33.2313 -33.1835 -33.1346
   -32.9935 -32.9900 -32.9447 -32.9283 -32.9264 -32.8940 -32.8789 -32.8297
   -10.2657 -10.2411 -10.2132 -10.1545 -10.1166 -10.1012 -10.0639 -10.0049
    -3.9123  -3.8612  -3.8496  -3.7745  -2.9724  -2.9001  -2.8880  -2.7908
    -2.2172  -2.1286  -2.0912  -1.9722  -1.2046  -1.1981  -1.1533  -1.1014
    -0.1823  -0.0060   0.0477   0.2254   0.9940   1.0352   1.0738   1.1494
     1.2398   1.2932   1.3290   1.4033   4.2251   4.2311   4.2746   4.3268
     4.6661   4.7155   4.7516   4.8300   5.6646   5.7767

          k = 0.0625 0.1083 0.0000 ( 35467 PWs)   bands (ev):

   -58.8953 -58.8921 -58.8460 -58.7955 -33.0649 -33.0615 -33.0162 -32.9655
   -32.8813 -32.8794 -32.8472 -32.8452 -32.8319 -32.7978 -32.7827 -32.7485
   -12.0670 -11.9968 -11.9680 -11.8713 -10.9272 -10.8128 -10.7726 -10.6467
    -3.8451  -3.5527  -3.4655  -3.1572  -1.0024  -0.9995  -0.9671  -0.9505
    -0.9044  -0.5965  -0.4534  -0.4464  -0.4410  -0.3941  -0.3517  -0.1708
     0.1799   0.1805   0.2269   0.2740   0.6876   0.8029   0.9038   1.2260
     1.5677   1.7918   2.0167   2.2127   4.4638   4.5048   4.5296   4.5548
     4.5806   4.6254   4.6432   4.7149   4.7389   4.8063

          k = 0.0625 0.1804 0.0000 ( 35370 PWs)   bands (ev):

   -58.8897 -58.8866 -58.8404 -58.7900 -33.0541 -33.0507 -33.0054 -32.9547
   -32.9348 -32.9329 -32.8854 -32.8609 -32.8589 -32.8362 -32.8115 -32.7622
   -11.8431 -11.7743 -11.7459 -11.6503 -10.8236 -10.7191 -10.6786 -10.5603
    -3.6149  -3.3299  -3.2451  -2.9438  -1.3844  -1.3798  -1.3404  -1.3053
    -1.2525  -0.9799  -0.8630  -0.6299  -0.2290  -0.2253  -0.1929  -0.1853
    -0.1708  -0.1467  -0.1254  -0.0913   0.7381   0.8793   0.9843   1.2640
     1.4856   1.6231   1.7707   1.8754   4.0735   4.1765   4.2766   4.4029
     4.4562   4.5006   4.5305   4.5847   4.6256   4.6865

          k = 0.0625 0.2526 0.0000 ( 35362 PWs)   bands (ev):

   -58.8825 -58.8793 -58.8332 -58.7827 -33.0400 -33.0365 -33.0040 -33.0022
   -32.9912 -32.9546 -32.9405 -32.9055 -32.8788 -32.8769 -32.8295 -32.7802
   -11.5319 -11.4663 -11.4384 -11.3452 -10.6799 -10.5900 -10.5489 -10.4417
    -3.3708  -3.1140  -3.0404  -2.7753  -1.7768  -1.7451  -1.7221  -1.6852
    -1.5805  -1.4133  -1.3089  -1.1539  -0.5683  -0.5551  -0.5108  -0.4592
     0.0418   0.0443   0.0906   0.1385   0.6356   0.7836   0.8793   1.1099
     1.2733   1.3308   1.4023   1.4648   3.8100   3.9631   4.0915   4.2572
     4.3712   4.3977   4.4445   4.4864   4.5799   4.6583

          k = 0.0625 0.3248 0.0000 ( 35310 PWs)   bands (ev):

   -58.8746 -58.8714 -58.8253 -58.7749 -33.0780 -33.0763 -33.0287 -33.0246
   -33.0211 -32.9796 -32.9758 -32.9251 -32.8982 -32.8963 -32.8488 -32.7996
   -11.1651 -11.1052 -11.0779 -10.9892 -10.5119 -10.4402 -10.3987 -10.3050
    -3.2808  -3.1007  -3.0573  -2.8860  -2.1156  -2.0238  -1.9491  -1.8954
    -1.8500  -1.8161  -1.6946  -1.6519  -0.8730  -0.8487  -0.8023  -0.7408
     0.2762   0.2866   0.3230   0.3768   0.4259   0.5637   0.6454   0.8421
     1.0439   1.0727   1.1184   1.1761   3.7752   3.9388   4.0455   4.1719
     4.2980   4.3341   4.3917   4.5106   4.8280   4.9520

          k = 0.0625 0.3969 0.0000 ( 35243 PWs)   bands (ev):

   -58.8674 -58.8642 -58.8180 -58.7676 -33.1456 -33.1440 -33.0964 -33.0474
   -33.0103 -33.0069 -32.9616 -32.9160 -32.9141 -32.9108 -32.8667 -32.8174
   -10.7883 -10.7379 -10.7110 -10.6299 -10.3419 -10.2908 -10.2494 -10.1702
    -3.4349  -3.3347  -3.3105  -3.2066  -2.4853  -2.3788  -2.3508  -2.2424
    -1.9965  -1.9169  -1.8671  -1.7386  -1.0711  -1.0438  -0.9993  -0.9367
     0.1624   0.3125   0.3698   0.4245   0.4354   0.4840   0.5083   0.5980
     1.0539   1.0751   1.1183   1.1726   3.9119   4.0412   4.1068   4.2026
     4.3414   4.3863   4.4414   4.5966   5.1666   5.3015

          k = 0.0625 0.4691 0.0000 ( 35169 PWs)   bands (ev):

   -58.8618 -58.8586 -58.8125 -58.7620 -33.1970 -33.1954 -33.1477 -33.0987
   -32.9994 -32.9959 -32.9507 -32.9296 -32.9277 -32.8999 -32.8803 -32.8310
   -10.4650 -10.4273 -10.4005 -10.3300 -10.1988 -10.1679 -10.1277 -10.0614
    -3.6724  -3.6094  -3.5929  -3.5125  -2.8014  -2.7205  -2.7065  -2.6105
    -2.0971  -2.0046  -1.9679  -1.8419  -1.1774  -1.1577  -1.1187  -1.0599
    -0.0281   0.1256   0.1809   0.3439   0.5447   0.5740   0.6102   0.6844
     1.2281   1.2537   1.2952   1.3555   4.1073   4.1730   4.2097   4.2802
     4.4814   4.5376   4.5921   4.7250   5.4821   5.5990

          k = 0.0625 0.5413 0.0000 ( 35128 PWs)   bands (ev):

   -58.8588 -58.8556 -58.8094 -58.7590 -33.2246 -33.2230 -33.1753 -33.1264
   -32.9935 -32.9900 -32.9447 -32.9370 -32.9351 -32.8940 -32.8876 -32.8384
   -10.2715 -10.2455 -10.2178 -10.1581 -10.1142 -10.0978 -10.0601 -10.0007
    -3.8323  -3.7802  -3.7686  -3.6928  -2.9796  -2.9132  -2.9041  -2.8110
    -2.1860  -2.0938  -2.0584  -1.9380  -1.2193  -1.2097  -1.1734  -1.1183
    -0.1325   0.0249   0.0758   0.2369   0.6352   0.6762   0.7074   0.7826
     1.3830   1.4166   1.4552   1.5214   4.2217   4.2360   4.2704   4.3236
     4.6599   4.7132   4.7536   4.8410   5.7124   5.8230

          k = 0.1250 0.2165 0.0000 ( 35331 PWs)   bands (ev):

   -58.8836 -58.8804 -58.8343 -58.7838 -33.0421 -33.0387 -32.9934 -32.9899
   -32.9882 -32.9427 -32.9406 -32.8915 -32.8797 -32.8778 -32.8303 -32.7811
   -11.5811 -11.5149 -11.4869 -11.3932 -10.7022 -10.6098 -10.5689 -10.4598
    -3.3901  -3.1236  -3.0460  -2.7674  -1.7051  -1.6906  -1.6630  -1.6167
    -1.4871  -1.2582  -1.1491  -0.9668  -0.7077  -0.6966  -0.6481  -0.6001
    -0.0375  -0.0357   0.0098   0.0576   0.8210   0.9484   1.0357   1.2391
     1.3419   1.3945   1.4778   1.5339   3.7983   3.9417   4.0573   4.2177
     4.3536   4.3941   4.4262   4.4513   4.5199   4.5240

          k = 0.1250 0.2887 0.0000 ( 35357 PWs)   bands (ev):

   -58.8763 -58.8731 -58.8270 -58.7766 -33.0533 -33.0516 -33.0279 -33.0245
   -33.0040 -32.9792 -32.9549 -32.9285 -32.9030 -32.9011 -32.8536 -32.8044
   -11.2490 -11.1874 -11.1600 -11.0699 -10.5486 -10.4724 -10.4309 -10.3338
    -3.2326  -3.0211  -2.9669  -2.7620  -1.9571  -1.9012  -1.8718  -1.8053
    -1.7083  -1.6424  -1.5359  -1.4704  -1.1375  -1.0940  -1.0310  -0.9223
     0.0661   0.0758   0.1144   0.1689   0.7479   0.8560   0.9271   1.0771
     1.1497   1.1625   1.1985   1.2503   3.6406   3.8103   3.9261   4.0925
     4.3566   4.3792   4.4235   4.4814   4.5955   4.6662

          k = 0.1250 0.3608 0.0000 ( 35341 PWs)   bands (ev):

   -58.8691 -58.8659 -58.8197 -58.7693 -33.1155 -33.1139 -33.0662 -33.0172
   -33.0137 -33.0102 -32.9649 -32.9267 -32.9248 -32.9142 -32.8773 -32.8281
   -10.8844 -10.8307 -10.8037 -10.7200 -10.3810 -10.3238 -10.2821 -10.1988
    -3.2793  -3.1492  -3.1195  -2.9927  -2.2850  -2.1988  -2.1727  -2.0902
    -1.9033  -1.8395  -1.7968  -1.6746  -1.3320  -1.2471  -1.1709  -1.0544
     0.0079   0.0280   0.0609   0.1209   0.5282   0.6211   0.6750   0.7990
     1.1113   1.1195   1.1602   1.2135   3.6795   3.8609   3.9743   4.1603
     4.4289   4.4556   4.4982   4.5822   4.8256   4.9423

          k = 0.1250 0.4330 0.0000 ( 35215 PWs)   bands (ev):

   -58.8629 -58.8597 -58.8136 -58.7631 -33.1676 -33.1660 -33.1183 -33.0694
   -33.0016 -32.9981 -32.9529 -32.9468 -32.9450 -32.9021 -32.8975 -32.8483
   -10.5404 -10.4982 -10.4715 -10.3972 -10.2243 -10.1874 -10.1463 -10.0764
    -3.4596  -3.3797  -3.3592  -3.2686  -2.6977  -2.6404  -2.6285  -2.5493
    -1.9718  -1.8753  -1.8457  -1.7205  -1.3610  -1.2758  -1.2143  -1.1109
    -0.0472  -0.0027   0.0257   0.1020   0.2550   0.3430   0.3879   0.5060
     1.2491   1.2595   1.3018   1.3554   3.8898   4.0562   4.1529   4.3292
     4.5408   4.5587   4.6077   4.6695   5.1369   5.2488

          k = 0.1250 0.5052 0.0000 ( 35141 PWs)   bands (ev):

   -58.8588 -58.8556 -58.8094 -58.7590 -33.2022 -33.2006 -33.1529 -33.1040
   -32.9935 -32.9900 -32.9603 -32.9585 -32.9448 -32.9110 -32.8940 -32.8618
   -10.2852 -10.2560 -10.2288 -10.1667 -10.1086 -10.0898 -10.0509  -9.9906
    -3.6226  -3.5647  -3.5517  -3.4730  -2.9927  -2.9478  -2.9374  -2.8579
    -2.0903  -1.9894  -1.9589  -1.8396  -1.3118  -1.2494  -1.2084  -1.1289
    -0.0520   0.0331   0.0491   0.0854   0.1156   0.1429   0.1817   0.2944
     1.4348   1.4567   1.4984   1.5585   4.1125   4.1945   4.2429   4.3322
     4.6927   4.7365   4.7781   4.8702   5.4201   5.5313

          k = 0.1250 0.5774 0.0000 ( 35180 PWs)   bands (ev):

   -58.8573 -58.8541 -58.8080 -58.7575 -33.2143 -33.2127 -33.1650 -33.1161
   -32.9907 -32.9872 -32.9651 -32.9632 -32.9419 -32.9157 -32.8912 -32.8665
   -10.1887 -10.1664 -10.1383 -10.0859 -10.0628 -10.0541 -10.0168  -9.9599
    -3.6858  -3.6342  -3.6252  -3.5481  -3.0979  -3.0560  -3.0462  -2.9658
    -2.1504  -2.0509  -2.0188  -1.9007  -1.2643  -1.2293  -1.2024  -1.1343
    -0.1095   0.0253   0.0285   0.0673   0.0788   0.1125   0.1639   0.2387
     1.5272   1.5567   1.5982   1.6638   4.1893   4.2034   4.2370   4.2922
     4.8047   4.8628   4.8968   4.9706   5.5368   5.6513

          k = 0.1875 0.3248 0.0000 ( 35337 PWs)   bands (ev):

   -58.8697 -58.8665 -58.8203 -58.7699 -33.1019 -33.1003 -33.0526 -33.0149
   -33.0114 -33.0036 -32.9661 -32.9334 -32.9316 -32.9154 -32.8841 -32.8349
   -10.9177 -10.8629 -10.8360 -10.7514 -10.3943 -10.3349 -10.2932 -10.2083
    -3.2132  -3.0680  -3.0350  -2.8958  -2.1556  -2.0911  -2.0699  -2.0197
    -1.8559  -1.8030  -1.7655  -1.6795  -1.4730  -1.3748  -1.2684  -1.1242
    -0.1661  -0.1455  -0.1145  -0.0528   0.6914   0.7656   0.8107   0.9087
     1.1182   1.1287   1.1690   1.2255   3.5909   3.7894   3.9154   4.1350
     4.4553   4.4697   4.5102   4.5612   4.6868   4.7798

          k = 0.1875 0.3969 0.0000 ( 35241 PWs)   bands (ev):

   -58.8635 -58.8603 -58.8142 -58.7637 -33.1439 -33.1422 -33.0946 -33.0456
   -33.0028 -32.9993 -32.9642 -32.9624 -32.9540 -32.9149 -32.9033 -32.8657
   -10.5818 -10.5371 -10.5105 -10.4342 -10.2370 -10.1966 -10.1551 -10.0830
    -3.2986  -3.2005  -3.1758  -3.0728  -2.6047  -2.5816  -2.5693  -2.5061
    -1.8348  -1.7584  -1.7158  -1.6346  -1.4702  -1.3871  -1.2811  -1.1500
    -0.4845  -0.4535  -0.4224  -0.3546   0.4652   0.5221   0.5452   0.6289
     1.2206   1.2330   1.2777   1.3362   3.7477   3.9612   4.0889   4.3657
     4.5742   4.5796   4.6168   4.6705   4.8618   4.9731

          k = 0.1875 0.4691 0.0000 ( 35167 PWs)   bands (ev):

   -58.8588 -58.8556 -58.8094 -58.7590 -33.1743 -33.1728 -33.1250 -33.0761
   -32.9936 -32.9900 -32.9892 -32.9874 -32.9448 -32.9398 -32.8940 -32.8907
   -10.2985 -10.2664 -10.2396 -10.1752 -10.1031 -10.0817 -10.0419  -9.9805
    -3.3845  -3.3112  -3.2940  -3.2079  -3.0012  -2.9832  -2.9642  -2.9008
    -1.9201  -1.8097  -1.7869  -1.6966  -1.4115  -1.3024  -1.2391  -1.1173
    -0.6690  -0.6031  -0.5728  -0.4728   0.1672   0.2313   0.2579   0.3424
     1.4210   1.4302   1.4759   1.5303   3.9693   4.1109   4.1823   4.3313
     4.7346   4.7742   4.8087   4.9054   5.0804   5.2001

          k = 0.1875 0.5413 0.0000 ( 35162 PWs)   bands (ev):

   -58.8562 -58.8530 -58.8069 -58.7564 -33.1903 -33.1888 -33.1410 -33.0921
   -33.0031 -33.0013 -32.9885 -32.9850 -32.9538 -32.9398 -32.9046 -32.8890
   -10.1316 -10.1106 -10.0825 -10.0382 -10.0176 -10.0143  -9.9776  -9.9228
    -3.4216  -3.3642  -3.3577  -3.2752  -3.2172  -3.2006  -3.1771  -3.1121
    -2.0634  -1.9562  -1.9258  -1.8183  -1.2825  -1.2029  -1.1734  -1.0818
    -0.7132  -0.6220  -0.5912  -0.4838  -0.0416   0.0210   0.0553   0.1414
     1.6040   1.6225   1.6661   1.7262   4.0414   4.0734   4.1100   4.1747
     4.9225   5.0080   5.0408   5.1482   5.2021   5.2974

          k = 0.2500 0.4330 0.0000 ( 35195 PWs)   bands (ev):

   -58.8588 -58.8556 -58.8094 -58.7590 -33.1598 -33.1582 -33.1105 -33.0616
   -33.0041 -33.0023 -32.9936 -32.9900 -32.9548 -32.9448 -32.9056 -32.8940
   -10.3039 -10.2707 -10.2440 -10.1787 -10.1008 -10.0784 -10.0382  -9.9763
    -3.2759  -3.1911  -3.1705  -3.0841  -3.0017  -2.9974  -2.9692  -2.9184
    -1.7375  -1.6919  -1.6396  -1.6031  -1.4023  -1.3219  -1.2306  -1.1010
    -0.9848  -0.9658  -0.9283  -0.8743   0.2381   0.2824   0.2925   0.3778
     1.4050   1.4120   1.4600   1.5137   3.9088   4.0705   4.1506   4.3230
     4.7467   4.7862   4.8094   4.9120   4.9540   5.0982

          k = 0.2500 0.5052 0.0000 ( 35193 PWs)   bands (ev):

   -58.8556 -58.8524 -58.8063 -58.7558 -33.1646 -33.1630 -33.1153 -33.0663
   -33.0367 -33.0349 -32.9874 -32.9873 -32.9839 -32.9386 -32.9382 -32.8878
   -10.1035 -10.0824 -10.0545 -10.0139  -9.9940  -9.9886  -9.9538  -9.9004
    -3.3087  -3.2904  -3.2759  -3.2184  -3.1573  -3.1008  -3.0770  -2.9969
    -1.8925  -1.7877  -1.7613  -1.7049  -1.3440  -1.2792  -1.2291  -1.2023
    -1.1763  -1.1393  -1.0538  -0.9853  -0.0383   0.0094   0.0316   0.1167
     1.6451   1.6522   1.6988   1.7518   3.9091   3.9577   3.9960   4.0740
     4.8931   4.9545   4.9740   5.0244   5.1569   5.1972

          k = 0.2500 0.5774 0.0000 ( 35190 PWs)   bands (ev):

   -58.8545 -58.8513 -58.8052 -58.7547 -33.1644 -33.1628 -33.1151 -33.0662
   -33.0499 -33.0481 -33.0006 -32.9852 -32.9817 -32.9515 -32.9364 -32.8857
   -10.0286 -10.0141  -9.9858  -9.9699  -9.9622  -9.9394  -9.9178  -9.8726
    -3.4084  -3.3943  -3.3767  -3.3178  -3.0726  -3.0307  -3.0197  -2.9466
    -2.0474  -1.9503  -1.9178  -1.8317  -1.3811  -1.2788  -1.2550  -1.1779
    -1.1066  -1.0722  -1.0072  -0.9516  -0.1589  -0.1259  -0.0965  -0.0198
     1.7711   1.7829   1.8276   1.8837   3.8390   3.8450   3.8870   3.9374
     4.9180   4.9715   5.0260   5.0272   5.3287   5.3627

          k = 0.3125 0.5413 0.0000 ( 35172 PWs)   bands (ev):

   -58.8539 -58.8507 -58.8046 -58.7541 -33.1434 -33.1418 -33.0941 -33.0784
   -33.0766 -33.0451 -33.0290 -32.9840 -32.9805 -32.9799 -32.9353 -32.8845
    -9.9921  -9.9805  -9.9545  -9.9446  -9.9423  -9.9158  -9.8917  -9.8536
    -3.4762  -3.4658  -3.4441  -3.3862  -2.8484  -2.7934  -2.7813  -2.7028
    -2.0389  -2.0273  -2.0086  -1.9585  -1.5584  -1.5415  -1.5304  -1.4982
    -1.0547  -1.0012  -0.9639  -0.8942  -0.2457  -0.2053  -0.1711  -0.0901
     1.8541   1.8604   1.9061   1.9591   3.7227   3.7284   3.7722   3.8218
     4.8582   4.8756   4.9364   4.9498   5.4257   5.4859

     the Fermi energy is     2.9614 ev

!    total energy              =   -1978.36594342 Ry
     total all-electron energy =    -38771.686788 Ry
     estimated scf accuracy    <          8.0E-09 Ry
     smearing contrib. (-TS)   =       0.00003765 Ry
     internal energy E=F+TS    =   -1978.36598107 Ry

     The total energy is F=E-TS. E is the sum of the following terms:
     one-electron contribution =  -16888.65073550 Ry
     hartree contribution      =    8465.91883747 Ry
     xc contribution           =    -119.23186862 Ry
     ewald contribution        =    7833.44983816 Ry
     one-center paw contrib.   =   -1269.85205256 Ry

     convergence has been achieved in  57 iterations

     Writing all to output data dir ./tmp/cleave2/cleave_dz005_dz1p0/mos2_cleave.save/ :
     XML data file, charge density, pseudopotentials, collected wavefunctions

     init_run     :    120.55s CPU    122.69s WALL (       1 calls)
     electrons    :  11318.65s CPU  11505.72s WALL (       1 calls)

     Called by init_run:
     wfcinit      :     73.26s CPU     73.96s WALL (       1 calls)
     potinit      :     43.68s CPU     44.12s WALL (       1 calls)
     hinit0       :      0.37s CPU      0.39s WALL (       1 calls)

     Called by electrons:
     c_bands      :   9398.73s CPU   9454.16s WALL (      58 calls)
     sum_band     :   1464.76s CPU   1525.86s WALL (      58 calls)
     v_of_rho     :    225.03s CPU    243.26s WALL (      58 calls)
     newd         :    174.70s CPU    227.21s WALL (      58 calls)
     PAW_pot      :     23.00s CPU     23.01s WALL (      58 calls)
     mix_rho      :     76.89s CPU     78.04s WALL (      58 calls)
     vdW_kernel   :     40.07s CPU     40.08s WALL (       1 calls)

     Called by c_bands:
     init_us_2    :     43.27s CPU     43.30s WALL (    3510 calls)
     init_us_2:cp :     43.26s CPU     43.30s WALL (    3510 calls)
     cegterg      :   8977.67s CPU   9032.64s WALL (    1740 calls)

     Called by *egterg:
     cdiaghg      :     13.63s CPU     13.64s WALL (    5543 calls)
     h_psi        :   4811.62s CPU   4833.07s WALL (    5603 calls)
     s_psi        :   1414.70s CPU   1415.12s WALL (    5603 calls)
     g_psi        :     20.49s CPU     20.50s WALL (    3833 calls)

     Called by h_psi:
     h_psi:calbec :   1835.64s CPU   1836.14s WALL (    5603 calls)
     vloc_psi     :   1552.54s CPU   1553.63s WALL (    5603 calls)
     add_vuspsi   :   1413.65s CPU   1414.04s WALL (    5603 calls)

     General routines
     calbec       :   2680.57s CPU   2681.35s WALL (    7343 calls)
     fft          :     70.69s CPU     70.71s WALL (    3653 calls)
     ffts         :     37.72s CPU     37.73s WALL (    7004 calls)
     fftw         :   1409.59s CPU   1410.34s WALL (  576672 calls)
     interpolate  :      1.66s CPU      1.66s WALL (      58 calls)

     Parallel routines

     PWSCF        :      3h10m CPU      3h13m WALL


   This run was terminated on:  15:49: 1  10Jun2026            

=------------------------------------------------------------------------------=
   JOB DONE.
=------------------------------------------------------------------------------=
Note: The following floating-point exceptions are signalling: IEEE_UNDERFLOW_FLAG IEEE_DENORMAL
