Authorization required, but no authorization protocol specified

Authorization required, but no authorization protocol specified

Authorization required, but no authorization protocol specified

Authorization required, but no authorization protocol specified

Authorization required, but no authorization protocol specified

Authorization required, but no authorization protocol specified

Authorization required, but no authorization protocol specified

Authorization required, but no authorization protocol specified


     Program PWSCF v.7.3 starts on 12Jun2026 at  8:19:25 

     This program is part of the open-source Quantum ESPRESSO suite
     for quantum simulation of materials; please cite
         "P. Giannozzi et al., J. Phys.:Condens. Matter 21 395502 (2009);
         "P. Giannozzi et al., J. Phys.:Condens. Matter 29 465901 (2017);
         "P. Giannozzi et al., J. Chem. Phys. 152 154105 (2020);
          URL http://www.quantum-espresso.org", 
     in publications or presentations arising from this work. More details at
     http://www.quantum-espresso.org/quote

     Parallel version (MPI), running on     1 processors

     MPI processes distributed on     1 nodes
     41098 MiB available memory on the printing compute node when the environment starts

     Waiting for input...
     Reading input from standard input

     Current dimensions of program PWSCF are:
     Max number of different atomic species (ntypx) = 10
     Max number of k-points (npk) =  40000
     Max angular momentum in pseudopotentials (lmaxx) =  4
     file Mo.pbe-spn-kjpaw_psl.1.0.0.UPF: wavefunction(s)  4S 4D renormalized
     file S.pbe-n-kjpaw_psl.1.0.0.UPF: wavefunction(s)  3S 3P renormalized

     IMPORTANT: XC functional enforced from input :
     Exchange-correlation= VDW-DF2-B86R
                           (   1   4  26   0   2   0   0)
     Any further DFT definition will be discarded
     Please, verify this is what you really want


     Subspace diagonalization in iterative solution of the eigenvalue problem:
     a serial algorithm will be used


     G-vector sticks info
     --------------------
     sticks:   dense  smooth     PW     G-vecs:    dense   smooth      PW
     Sum        1573     769    223               797393   281171   43435

     Using Slab Decomposition



     bravais-lattice index     =            4
     lattice parameter (alat)  =       5.9715  a.u.
     unit-cell volume          =    2917.9067 (a.u.)^3
     number of atoms/cell      =           12
     number of atomic types    =            2
     number of electrons       =       104.00
     number of Kohn-Sham states=           62
     kinetic-energy cutoff     =      80.0000  Ry
     charge density cutoff     =     640.0000  Ry
     scf convergence threshold =      1.0E-08
     mixing beta               =       0.2000
     number of iterations used =            8  local-TF  mixing
     Exchange-correlation= VDW-DF2-B86R
                           (   1   4  26   0   2   0   0)

     celldm(1)=   5.971535  celldm(2)=   0.000000  celldm(3)=  15.822785
     celldm(4)=   0.000000  celldm(5)=   0.000000  celldm(6)=   0.000000

     crystal axes: (cart. coord. in units of alat)
               a(1) = (   1.000000   0.000000   0.000000 )  
               a(2) = (  -0.500000   0.866025   0.000000 )  
               a(3) = (   0.000000   0.000000  15.822785 )  

     reciprocal axes: (cart. coord. in units 2 pi/alat)
               b(1) = (  1.000000  0.577350 -0.000000 )  
               b(2) = (  0.000000  1.154701  0.000000 )  
               b(3) = (  0.000000 -0.000000  0.063200 )  


     PseudoPot. # 1 for Mo read from file:
     ./pseudo/Mo.pbe-spn-kjpaw_psl.1.0.0.UPF
     MD5 check sum: 4396e0c640fcce5c25f020efccf1ab12
     Pseudo is Projector augmented-wave + core cor, Zval = 14.0
     Generated using &quot;atomic&quot; code by A. Dal Corso  v.6.3
     Shape of augmentation charge: PSQ
     Using radial grid of 1229 points,  6 beta functions with: 
                l(1) =   0
                l(2) =   0
                l(3) =   1
                l(4) =   1
                l(5) =   2
                l(6) =   2
     Q(r) pseudized with 0 coefficients 


     PseudoPot. # 2 for S  read from file:
     ./pseudo/S.pbe-n-kjpaw_psl.1.0.0.UPF
     MD5 check sum: fb45dfebcf3e72a4e1bd4a866ec2e262
     Pseudo is Projector augmented-wave + core cor, Zval =  6.0
     Generated using &quot;atomic&quot; code by A. Dal Corso  v.6.3
     Shape of augmentation charge: PSQ
     Using radial grid of 1151 points,  6 beta functions with: 
                l(1) =   0
                l(2) =   0
                l(3) =   1
                l(4) =   1
                l(5) =   2
                l(6) =   2
     Q(r) pseudized with 0 coefficients 


     atomic species   valence    mass     pseudopotential
     Mo               14.00    95.96000     Mo( 1.00)
     S                 6.00    32.06000     S ( 1.00)

      6 Sym. Ops. (no inversion) found



   Cartesian axes

     site n.     atom                  positions (alat units)
         1        S      tau(   1) = (  -0.0000005   0.5773503  -0.9967195  )
         2        Mo     tau(   2) = (   0.0000000   0.0000000  -0.4993332  )
         3        S      tau(   3) = (  -0.0000005   0.5773503  -0.0017175  )
         4        S      tau(   4) = (   0.5000003   0.2886747   0.9835827  )
         5        Mo     tau(   5) = (  -0.0000005   0.5773503   1.4818950  )
         6        S      tau(   6) = (   0.5000003   0.2886747   1.9798512  )
         7        S      tau(   7) = (   0.0000000   0.0000000   2.9586848  )
         8        Mo     tau(   8) = (   0.5000003   0.2886747   3.4569999  )
         9        S      tau(   9) = (   0.0000000   0.0000000   3.9548385  )
        10        S      tau(  10) = (  -0.0000005   0.5773503   5.9967110  )
        11        Mo     tau(  11) = (   0.0000000   0.0000000   6.4943476  )
        12        S      tau(  12) = (  -0.0000005   0.5773503   6.9914817  )

     number of k points=    30  Methfessel-Paxton smearing, width (Ry)=  0.0200
                       cart. coord. in units 2pi/alat
        k(    1) = (   0.0000000   0.0000000   0.0000000), wk =   0.0078125
        k(    2) = (   0.0000000   0.0721688   0.0000000), wk =   0.0468750
        k(    3) = (   0.0000000   0.1443376   0.0000000), wk =   0.0468750
        k(    4) = (   0.0000000   0.2165064   0.0000000), wk =   0.0468750
        k(    5) = (   0.0000000   0.2886751   0.0000000), wk =   0.0468750
        k(    6) = (   0.0000000   0.3608439   0.0000000), wk =   0.0468750
        k(    7) = (   0.0000000   0.4330127   0.0000000), wk =   0.0468750
        k(    8) = (   0.0000000   0.5051815   0.0000000), wk =   0.0468750
        k(    9) = (   0.0000000  -0.5773503   0.0000000), wk =   0.0234375
        k(   10) = (   0.0625000   0.1082532   0.0000000), wk =   0.0468750
        k(   11) = (   0.0625000   0.1804220   0.0000000), wk =   0.0937500
        k(   12) = (   0.0625000   0.2525907   0.0000000), wk =   0.0937500
        k(   13) = (   0.0625000   0.3247595   0.0000000), wk =   0.0937500
        k(   14) = (   0.0625000   0.3969283   0.0000000), wk =   0.0937500
        k(   15) = (   0.0625000   0.4690971   0.0000000), wk =   0.0937500
        k(   16) = (   0.0625000   0.5412659   0.0000000), wk =   0.0937500
        k(   17) = (   0.1250000   0.2165064   0.0000000), wk =   0.0468750
        k(   18) = (   0.1250000   0.2886751   0.0000000), wk =   0.0937500
        k(   19) = (   0.1250000   0.3608439   0.0000000), wk =   0.0937500
        k(   20) = (   0.1250000   0.4330127   0.0000000), wk =   0.0937500
        k(   21) = (   0.1250000   0.5051815   0.0000000), wk =   0.0937500
        k(   22) = (   0.1250000   0.5773503   0.0000000), wk =   0.0468750
        k(   23) = (   0.1875000   0.3247595   0.0000000), wk =   0.0468750
        k(   24) = (   0.1875000   0.3969283   0.0000000), wk =   0.0937500
        k(   25) = (   0.1875000   0.4690971   0.0000000), wk =   0.0937500
        k(   26) = (   0.1875000   0.5412659   0.0000000), wk =   0.0937500
        k(   27) = (   0.2500000   0.4330127   0.0000000), wk =   0.0468750
        k(   28) = (   0.2500000   0.5051815   0.0000000), wk =   0.0937500
        k(   29) = (   0.2500000   0.5773503   0.0000000), wk =   0.0468750
        k(   30) = (   0.3125000   0.5412659   0.0000000), wk =   0.0468750

     Dense  grid:   797393 G-vectors     FFT dimensions: (  50,  50, 768)

     Smooth grid:   281171 G-vectors     FFT dimensions: (  36,  36, 540)

     Estimated max dynamical RAM per process >       3.90 GB

     Initial potential from superposition of free atoms

     starting charge     103.9962, renormalised to     104.0000

     negative rho (up, down):  1.325E-04 0.000E+00


     %%%%%%%%%%%%%%%%%%%%%%%%%%%%%%%%%%%%%%%%%%%%%%%%%%%%%%%%%%%%%%%%%%%%%%%%
     %                                                                      %
     % You are using vdW-DF, which was implemented by the Thonhauser group. %
     % Please cite the following two papers that made this development      %
     % possible and the two reviews that describe the various versions:     %
     %                                                                      %
     %   T. Thonhauser et al., PRL 115, 136402 (2015).                      %
     %   T. Thonhauser et al., PRB 76, 125112 (2007).                       %
     %   K. Berland et al., Rep. Prog. Phys. 78, 066501 (2015).             %
     %   D.C. Langreth et al., J. Phys.: Condens. Matter 21, 084203 (2009). %
     %                                                                      %
     % If you are calculating stress with vdW-DF, please also cite:         %
     %                                                                      %
     %   R. Sabatini et al., J. Phys.: Condens. Matter 24, 424209 (2012).   %
     %                                                                      %
     %%%%%%%%%%%%%%%%%%%%%%%%%%%%%%%%%%%%%%%%%%%%%%%%%%%%%%%%%%%%%%%%%%%%%%%%

     %%%%%%%%%%%%%%%%%%%%%%%%%%%%%%%%%%%%%%%%%%%%%%%%%%%%%%%%%%%%%%%%%%%%%%%%
     %                                                                      %
     %  vdW-DF NEWS:                                                        %
     %                                                                      %
     %  * vdW-DF3 is now available. DOI: 10.1021/acs.jctc.0c00471           %
     %    use with input_dft = 'vdW-DF3-opt1' or 'vdW-DF3-opt2'             %
     %                                                                      %
     %  * Unscreened and range-separated hybrid vdW-DF-cx functionals       %
     %    DOI: 10.1063/1.4986522 and 10.1088/1361-648X/ac2ad2               %
     %    use with input_dft = 'vdW-DF-cx0'    and 'vdW-DF-ahcx'            %
     %  * Unscreened and range-separated hybrid vdW-DF2-b86r functionals    %
     %    DOI: 10.1063/1.4986522 and DOI: 10.1103/PhysRevX.12.041003        %
     %    use with input_dft = 'vdW-DF2-br0' and 'vdW-DF2-ahbr'             %
     %                                                                      %
     %%%%%%%%%%%%%%%%%%%%%%%%%%%%%%%%%%%%%%%%%%%%%%%%%%%%%%%%%%%%%%%%%%%%%%%%


     Starting wfcs are   72 randomized atomic wfcs
     Checking if some PAW data can be deallocated... 

     total cpu time spent up to now is      124.3 secs

     Self-consistent Calculation

     iteration #  1     ecut=    80.00 Ry     beta= 0.20
     Davidson diagonalization with overlap
     ethr =  1.00E-02,  avg # of iterations =  2.3

     Threshold (ethr) on eigenvalues was too large:
     Diagonalizing with lowered threshold

     Davidson diagonalization with overlap
     ethr =  2.87E-04,  avg # of iterations =  3.7

     negative rho (up, down):  4.089E-05 0.000E+00

     total cpu time spent up to now is      604.2 secs

     total energy              =   -1978.45468422 Ry
     estimated scf accuracy    <       0.44920072 Ry

     iteration #  2     ecut=    80.00 Ry     beta= 0.20
     Davidson diagonalization with overlap
     ethr =  4.32E-04,  avg # of iterations =  1.0

     negative rho (up, down):  5.459E-05 0.000E+00

     total cpu time spent up to now is      784.6 secs

     total energy              =   -1978.27602751 Ry
     estimated scf accuracy    <       0.37173250 Ry

     iteration #  3     ecut=    80.00 Ry     beta= 0.20
     Davidson diagonalization with overlap
     ethr =  3.57E-04,  avg # of iterations =  2.0

     negative rho (up, down):  2.746E-06 0.000E+00

     total cpu time spent up to now is     1021.9 secs

     total energy              =   -1978.35548565 Ry
     estimated scf accuracy    <       0.04851825 Ry

     iteration #  4     ecut=    80.00 Ry     beta= 0.20
     Davidson diagonalization with overlap
     ethr =  4.67E-05,  avg # of iterations =  2.2

     negative rho (up, down):  3.472E-08 0.000E+00

     total cpu time spent up to now is     1253.3 secs

     total energy              =   -1978.35824320 Ry
     estimated scf accuracy    <       0.02078674 Ry

     iteration #  5     ecut=    80.00 Ry     beta= 0.20
     Davidson diagonalization with overlap
     ethr =  2.00E-05,  avg # of iterations =  3.0

     negative rho (up, down):  2.787E-08 0.000E+00

     total cpu time spent up to now is     1466.1 secs

     total energy              =   -1978.35997741 Ry
     estimated scf accuracy    <       0.00501788 Ry

     iteration #  6     ecut=    80.00 Ry     beta= 0.20
     Davidson diagonalization with overlap
     ethr =  4.82E-06,  avg # of iterations =  5.1

     negative rho (up, down):  6.164E-07 0.000E+00

     total cpu time spent up to now is     1679.0 secs

     total energy              =   -1978.35840955 Ry
     estimated scf accuracy    <       0.00441294 Ry

     iteration #  7     ecut=    80.00 Ry     beta= 0.20
     Davidson diagonalization with overlap
     c_bands:  1 eigenvalues not converged
     c_bands:  1 eigenvalues not converged
     ethr =  4.24E-06,  avg # of iterations =  6.1

     negative rho (up, down):  6.409E-08 0.000E+00

     total cpu time spent up to now is     1960.6 secs

     total energy              =   -1978.35767160 Ry
     estimated scf accuracy    <       0.01426133 Ry

     iteration #  8     ecut=    80.00 Ry     beta= 0.20
     Davidson diagonalization with overlap
     c_bands:  1 eigenvalues not converged
     c_bands:  1 eigenvalues not converged
     ethr =  4.24E-06,  avg # of iterations =  4.1

     negative rho (up, down):  2.612E-07 0.000E+00

     total cpu time spent up to now is     2186.9 secs

     total energy              =   -1978.35812994 Ry
     estimated scf accuracy    <       0.00281752 Ry

     iteration #  9     ecut=    80.00 Ry     beta= 0.20
     Davidson diagonalization with overlap
     c_bands:  1 eigenvalues not converged
     c_bands:  1 eigenvalues not converged
     ethr =  2.71E-06,  avg # of iterations =  7.3

     negative rho (up, down):  1.406E-06 0.000E+00

     total cpu time spent up to now is     2428.7 secs

     total energy              =   -1978.35846262 Ry
     estimated scf accuracy    <       0.00252119 Ry

     iteration # 10     ecut=    80.00 Ry     beta= 0.20
     Davidson diagonalization with overlap
     ethr =  2.42E-06,  avg # of iterations =  2.4

     negative rho (up, down):  4.594E-03 0.000E+00

     total cpu time spent up to now is     2622.6 secs

     total energy              =   -1978.35783698 Ry
     estimated scf accuracy    <       0.00208173 Ry

     iteration # 11     ecut=    80.00 Ry     beta= 0.20
     Davidson diagonalization with overlap
     ethr =  2.00E-06,  avg # of iterations =  4.0

     negative rho (up, down):  4.195E-03 0.000E+00

     total cpu time spent up to now is     2841.4 secs

     total energy              =   -1978.35821395 Ry
     estimated scf accuracy    <       0.00072048 Ry

     iteration # 12     ecut=    80.00 Ry     beta= 0.20
     Davidson diagonalization with overlap
     ethr =  6.93E-07,  avg # of iterations =  4.8

     negative rho (up, down):  8.694E-04 0.000E+00

     total cpu time spent up to now is     3066.8 secs

     total energy              =   -1978.35827878 Ry
     estimated scf accuracy    <       0.00148822 Ry

     iteration # 13     ecut=    80.00 Ry     beta= 0.20
     Davidson diagonalization with overlap
     ethr =  6.93E-07,  avg # of iterations =  2.3

     negative rho (up, down):  4.961E-03 0.000E+00

     total cpu time spent up to now is     3274.6 secs

     total energy              =   -1978.35827393 Ry
     estimated scf accuracy    <       0.00050220 Ry

     iteration # 14     ecut=    80.00 Ry     beta= 0.20
     Davidson diagonalization with overlap
     c_bands:  1 eigenvalues not converged
     c_bands:  1 eigenvalues not converged
     c_bands:  1 eigenvalues not converged
     ethr =  4.83E-07,  avg # of iterations =  4.3

     negative rho (up, down):  4.827E-03 0.000E+00

     total cpu time spent up to now is     3480.2 secs

     total energy              =   -1978.35831783 Ry
     estimated scf accuracy    <       0.00023467 Ry

     iteration # 15     ecut=    80.00 Ry     beta= 0.20
     Davidson diagonalization with overlap
     ethr =  2.26E-07,  avg # of iterations =  2.1

     negative rho (up, down):  2.396E-03 0.000E+00

     total cpu time spent up to now is     3675.4 secs

     total energy              =   -1978.35827312 Ry
     estimated scf accuracy    <       0.00027776 Ry

     iteration # 16     ecut=    80.00 Ry     beta= 0.20
     Davidson diagonalization with overlap
     c_bands:  1 eigenvalues not converged
     ethr =  2.26E-07,  avg # of iterations =  5.2

     negative rho (up, down):  2.779E-03 0.000E+00

     total cpu time spent up to now is     3898.0 secs

     total energy              =   -1978.35832328 Ry
     estimated scf accuracy    <       0.00009378 Ry

     iteration # 17     ecut=    80.00 Ry     beta= 0.20
     Davidson diagonalization with overlap
     c_bands:  1 eigenvalues not converged
     ethr =  9.02E-08,  avg # of iterations =  4.1

     negative rho (up, down):  9.863E-04 0.000E+00

     total cpu time spent up to now is     4106.4 secs

     total energy              =   -1978.35832872 Ry
     estimated scf accuracy    <       0.00014042 Ry

     iteration # 18     ecut=    80.00 Ry     beta= 0.20
     Davidson diagonalization with overlap
     ethr =  9.02E-08,  avg # of iterations =  1.4

     negative rho (up, down):  2.998E-04 0.000E+00

     total cpu time spent up to now is     4293.7 secs

     total energy              =   -1978.35834979 Ry
     estimated scf accuracy    <       0.00006356 Ry

     iteration # 19     ecut=    80.00 Ry     beta= 0.20
     Davidson diagonalization with overlap
     ethr =  6.11E-08,  avg # of iterations =  1.3

     negative rho (up, down):  1.410E-04 0.000E+00

     total cpu time spent up to now is     4480.3 secs

     total energy              =   -1978.35835408 Ry
     estimated scf accuracy    <       0.00004486 Ry

     iteration # 20     ecut=    80.00 Ry     beta= 0.20
     Davidson diagonalization with overlap
     ethr =  4.31E-08,  avg # of iterations =  1.1

     negative rho (up, down):  1.971E-04 0.000E+00

     total cpu time spent up to now is     4663.1 secs

     total energy              =   -1978.35835357 Ry
     estimated scf accuracy    <       0.00004010 Ry

     iteration # 21     ecut=    80.00 Ry     beta= 0.20
     Davidson diagonalization with overlap
     ethr =  3.86E-08,  avg # of iterations =  1.1

     negative rho (up, down):  4.290E-04 0.000E+00

     total cpu time spent up to now is     4845.1 secs

     total energy              =   -1978.35835348 Ry
     estimated scf accuracy    <       0.00003748 Ry

     iteration # 22     ecut=    80.00 Ry     beta= 0.20
     Davidson diagonalization with overlap
     ethr =  3.60E-08,  avg # of iterations =  1.1

     negative rho (up, down):  6.617E-04 0.000E+00

     total cpu time spent up to now is     5028.0 secs

     total energy              =   -1978.35835455 Ry
     estimated scf accuracy    <       0.00003605 Ry

     iteration # 23     ecut=    80.00 Ry     beta= 0.20
     Davidson diagonalization with overlap
     ethr =  3.47E-08,  avg # of iterations =  1.2

     negative rho (up, down):  6.560E-04 0.000E+00

     total cpu time spent up to now is     5211.7 secs

     total energy              =   -1978.35835383 Ry
     estimated scf accuracy    <       0.00003630 Ry

     iteration # 24     ecut=    80.00 Ry     beta= 0.20
     Davidson diagonalization with overlap
     ethr =  3.47E-08,  avg # of iterations =  1.0

     negative rho (up, down):  6.702E-04 0.000E+00

     total cpu time spent up to now is     5391.7 secs

     total energy              =   -1978.35835298 Ry
     estimated scf accuracy    <       0.00003539 Ry

     iteration # 25     ecut=    80.00 Ry     beta= 0.20
     Davidson diagonalization with overlap
     ethr =  3.40E-08,  avg # of iterations =  1.1

     negative rho (up, down):  7.808E-04 0.000E+00

     total cpu time spent up to now is     5574.3 secs

     total energy              =   -1978.35835227 Ry
     estimated scf accuracy    <       0.00003322 Ry

     iteration # 26     ecut=    80.00 Ry     beta= 0.20
     Davidson diagonalization with overlap
     ethr =  3.19E-08,  avg # of iterations =  1.1

     negative rho (up, down):  7.440E-04 0.000E+00

     total cpu time spent up to now is     5757.1 secs

     total energy              =   -1978.35835309 Ry
     estimated scf accuracy    <       0.00003347 Ry

     iteration # 27     ecut=    80.00 Ry     beta= 0.20
     Davidson diagonalization with overlap
     ethr =  3.19E-08,  avg # of iterations =  1.0

     negative rho (up, down):  7.164E-04 0.000E+00

     total cpu time spent up to now is     5937.2 secs

     total energy              =   -1978.35835176 Ry
     estimated scf accuracy    <       0.00003284 Ry

     iteration # 28     ecut=    80.00 Ry     beta= 0.20
     Davidson diagonalization with overlap
     ethr =  3.16E-08,  avg # of iterations =  1.0

     negative rho (up, down):  1.205E-03 0.000E+00

     total cpu time spent up to now is     6117.4 secs

     total energy              =   -1978.35833358 Ry
     estimated scf accuracy    <       0.00003059 Ry

     iteration # 29     ecut=    80.00 Ry     beta= 0.20
     Davidson diagonalization with overlap
     ethr =  2.94E-08,  avg # of iterations =  2.0

     negative rho (up, down):  1.343E-03 0.000E+00

     total cpu time spent up to now is     6319.0 secs

     total energy              =   -1978.35833144 Ry
     estimated scf accuracy    <       0.00002223 Ry

     iteration # 30     ecut=    80.00 Ry     beta= 0.20
     Davidson diagonalization with overlap
     ethr =  2.14E-08,  avg # of iterations =  1.4

     negative rho (up, down):  1.198E-03 0.000E+00

     total cpu time spent up to now is     6506.2 secs

     total energy              =   -1978.35833829 Ry
     estimated scf accuracy    <       0.00001882 Ry

     iteration # 31     ecut=    80.00 Ry     beta= 0.20
     Davidson diagonalization with overlap
     ethr =  1.81E-08,  avg # of iterations =  1.1

     negative rho (up, down):  6.789E-04 0.000E+00

     total cpu time spent up to now is     6688.4 secs

     total energy              =   -1978.35833711 Ry
     estimated scf accuracy    <       0.00001719 Ry

     iteration # 32     ecut=    80.00 Ry     beta= 0.20
     Davidson diagonalization with overlap
     ethr =  1.65E-08,  avg # of iterations =  2.1

     negative rho (up, down):  4.217E-04 0.000E+00

     total cpu time spent up to now is     6891.8 secs

     total energy              =   -1978.35833817 Ry
     estimated scf accuracy    <       0.00001261 Ry

     iteration # 33     ecut=    80.00 Ry     beta= 0.20
     Davidson diagonalization with overlap
     ethr =  1.21E-08,  avg # of iterations =  1.2

     negative rho (up, down):  4.787E-04 0.000E+00

     total cpu time spent up to now is     7076.0 secs

     total energy              =   -1978.35833774 Ry
     estimated scf accuracy    <       0.00001078 Ry

     iteration # 34     ecut=    80.00 Ry     beta= 0.20
     Davidson diagonalization with overlap
     ethr =  1.04E-08,  avg # of iterations =  1.0

     negative rho (up, down):  4.487E-04 0.000E+00

     total cpu time spent up to now is     7257.6 secs

     total energy              =   -1978.35833784 Ry
     estimated scf accuracy    <       0.00000999 Ry

     iteration # 35     ecut=    80.00 Ry     beta= 0.20
     Davidson diagonalization with overlap
     ethr =  9.60E-09,  avg # of iterations =  1.0

     negative rho (up, down):  2.807E-04 0.000E+00

     total cpu time spent up to now is     7438.6 secs

     total energy              =   -1978.35834089 Ry
     estimated scf accuracy    <       0.00000980 Ry

     iteration # 36     ecut=    80.00 Ry     beta= 0.20
     Davidson diagonalization with overlap
     ethr =  9.42E-09,  avg # of iterations =  1.1

     negative rho (up, down):  2.772E-04 0.000E+00

     total cpu time spent up to now is     7620.6 secs

     total energy              =   -1978.35834210 Ry
     estimated scf accuracy    <       0.00000936 Ry

     iteration # 37     ecut=    80.00 Ry     beta= 0.20
     Davidson diagonalization with overlap
     c_bands:  1 eigenvalues not converged
     ethr =  9.00E-09,  avg # of iterations =  1.9

     negative rho (up, down):  2.571E-04 0.000E+00

     total cpu time spent up to now is     7807.9 secs

     total energy              =   -1978.35834238 Ry
     estimated scf accuracy    <       0.00000949 Ry

     iteration # 38     ecut=    80.00 Ry     beta= 0.20
     Davidson diagonalization with overlap
     ethr =  9.00E-09,  avg # of iterations =  1.0

     negative rho (up, down):  2.701E-04 0.000E+00

     total cpu time spent up to now is     7989.1 secs

     total energy              =   -1978.35834249 Ry
     estimated scf accuracy    <       0.00000910 Ry

     iteration # 39     ecut=    80.00 Ry     beta= 0.20
     Davidson diagonalization with overlap
     ethr =  8.75E-09,  avg # of iterations =  1.0

     negative rho (up, down):  2.462E-04 0.000E+00

     total cpu time spent up to now is     8169.0 secs

     total energy              =   -1978.35834132 Ry
     estimated scf accuracy    <       0.00000920 Ry

     iteration # 40     ecut=    80.00 Ry     beta= 0.20
     Davidson diagonalization with overlap
     ethr =  8.75E-09,  avg # of iterations =  1.1

     negative rho (up, down):  2.758E-04 0.000E+00

     total cpu time spent up to now is     8351.8 secs

     total energy              =   -1978.35834226 Ry
     estimated scf accuracy    <       0.00000922 Ry

     iteration # 41     ecut=    80.00 Ry     beta= 0.20
     Davidson diagonalization with overlap
     ethr =  8.75E-09,  avg # of iterations =  1.0

     negative rho (up, down):  2.394E-04 0.000E+00

     total cpu time spent up to now is     8533.2 secs

     total energy              =   -1978.35834257 Ry
     estimated scf accuracy    <       0.00000909 Ry

     iteration # 42     ecut=    80.00 Ry     beta= 0.20
     Davidson diagonalization with overlap
     ethr =  8.74E-09,  avg # of iterations =  1.0

     negative rho (up, down):  2.556E-04 0.000E+00

     total cpu time spent up to now is     8713.6 secs

     total energy              =   -1978.35834100 Ry
     estimated scf accuracy    <       0.00000941 Ry

     iteration # 43     ecut=    80.00 Ry     beta= 0.20
     Davidson diagonalization with overlap
     ethr =  8.74E-09,  avg # of iterations =  1.0

     negative rho (up, down):  2.537E-04 0.000E+00

     total cpu time spent up to now is     8893.6 secs

     total energy              =   -1978.35834144 Ry
     estimated scf accuracy    <       0.00000910 Ry

     iteration # 44     ecut=    80.00 Ry     beta= 0.20
     Davidson diagonalization with overlap
     ethr =  8.74E-09,  avg # of iterations =  1.0

     negative rho (up, down):  2.476E-04 0.000E+00

     total cpu time spent up to now is     9074.9 secs

     total energy              =   -1978.35834181 Ry
     estimated scf accuracy    <       0.00000974 Ry

     iteration # 45     ecut=    80.00 Ry     beta= 0.20
     Davidson diagonalization with overlap
     ethr =  8.74E-09,  avg # of iterations =  1.0

     negative rho (up, down):  2.672E-04 0.000E+00

     total cpu time spent up to now is     9255.5 secs

     total energy              =   -1978.35834227 Ry
     estimated scf accuracy    <       0.00000958 Ry

     iteration # 46     ecut=    80.00 Ry     beta= 0.20
     Davidson diagonalization with overlap
     ethr =  8.74E-09,  avg # of iterations =  1.0

     negative rho (up, down):  2.650E-04 0.000E+00

     total cpu time spent up to now is     9436.0 secs

     total energy              =   -1978.35834152 Ry
     estimated scf accuracy    <       0.00000933 Ry

     iteration # 47     ecut=    80.00 Ry     beta= 0.20
     Davidson diagonalization with overlap
     ethr =  8.74E-09,  avg # of iterations =  1.0

     negative rho (up, down):  3.364E-04 0.000E+00

     total cpu time spent up to now is     9618.2 secs

     total energy              =   -1978.35834073 Ry
     estimated scf accuracy    <       0.00000918 Ry

     iteration # 48     ecut=    80.00 Ry     beta= 0.20
     Davidson diagonalization with overlap
     ethr =  8.74E-09,  avg # of iterations =  1.1

     negative rho (up, down):  2.575E-04 0.000E+00

     total cpu time spent up to now is     9807.2 secs

     total energy              =   -1978.35834159 Ry
     estimated scf accuracy    <       0.00000978 Ry

     iteration # 49     ecut=    80.00 Ry     beta= 0.20
     Davidson diagonalization with overlap
     ethr =  8.74E-09,  avg # of iterations =  1.0

     negative rho (up, down):  3.267E-04 0.000E+00

     total cpu time spent up to now is     9991.1 secs

     total energy              =   -1978.35834171 Ry
     estimated scf accuracy    <       0.00000914 Ry

     iteration # 50     ecut=    80.00 Ry     beta= 0.20
     Davidson diagonalization with overlap
     ethr =  8.74E-09,  avg # of iterations =  1.0

     negative rho (up, down):  3.101E-04 0.000E+00

     total cpu time spent up to now is    10175.5 secs

     total energy              =   -1978.35833997 Ry
     estimated scf accuracy    <       0.00000917 Ry

     iteration # 51     ecut=    80.00 Ry     beta= 0.20
     Davidson diagonalization with overlap
     ethr =  8.74E-09,  avg # of iterations =  1.0

     negative rho (up, down):  4.389E-04 0.000E+00

     total cpu time spent up to now is    10362.2 secs

     total energy              =   -1978.35833822 Ry
     estimated scf accuracy    <       0.00000950 Ry

     iteration # 52     ecut=    80.00 Ry     beta= 0.20
     Davidson diagonalization with overlap
     ethr =  8.74E-09,  avg # of iterations =  1.0

     negative rho (up, down):  2.298E-04 0.000E+00

     total cpu time spent up to now is    10550.8 secs

     total energy              =   -1978.35834136 Ry
     estimated scf accuracy    <       0.00001087 Ry

     iteration # 53     ecut=    80.00 Ry     beta= 0.20
     Davidson diagonalization with overlap
     ethr =  8.74E-09,  avg # of iterations =  1.3

     negative rho (up, down):  2.310E-04 0.000E+00

     total cpu time spent up to now is    10744.7 secs

     total energy              =   -1978.35834155 Ry
     estimated scf accuracy    <       0.00000906 Ry

     iteration # 54     ecut=    80.00 Ry     beta= 0.20
     Davidson diagonalization with overlap
     ethr =  8.71E-09,  avg # of iterations =  1.0

     negative rho (up, down):  2.459E-04 0.000E+00

     total cpu time spent up to now is    10933.2 secs

     total energy              =   -1978.35834124 Ry
     estimated scf accuracy    <       0.00000899 Ry

     iteration # 55     ecut=    80.00 Ry     beta= 0.20
     Davidson diagonalization with overlap
     ethr =  8.65E-09,  avg # of iterations =  1.0

     negative rho (up, down):  2.405E-04 0.000E+00

     total cpu time spent up to now is    11120.7 secs

     total energy              =   -1978.35834093 Ry
     estimated scf accuracy    <       0.00000897 Ry

     iteration # 56     ecut=    80.00 Ry     beta= 0.20
     Davidson diagonalization with overlap
     ethr =  8.63E-09,  avg # of iterations =  1.0

     negative rho (up, down):  2.387E-04 0.000E+00

     total cpu time spent up to now is    11302.4 secs

     total energy              =   -1978.35833972 Ry
     estimated scf accuracy    <       0.00000894 Ry

     iteration # 57     ecut=    80.00 Ry     beta= 0.20
     Davidson diagonalization with overlap
     ethr =  8.60E-09,  avg # of iterations =  1.1

     negative rho (up, down):  3.147E-04 0.000E+00

     total cpu time spent up to now is    11484.6 secs

     total energy              =   -1978.35833945 Ry
     estimated scf accuracy    <       0.00000852 Ry

     iteration # 58     ecut=    80.00 Ry     beta= 0.20
     Davidson diagonalization with overlap
     ethr =  8.19E-09,  avg # of iterations =  2.0

     negative rho (up, down):  2.978E-04 0.000E+00

     total cpu time spent up to now is    11693.4 secs

     total energy              =   -1978.35834023 Ry
     estimated scf accuracy    <       0.00001051 Ry

     iteration # 59     ecut=    80.00 Ry     beta= 0.20
     Davidson diagonalization with overlap
     ethr =  8.19E-09,  avg # of iterations =  1.0

     negative rho (up, down):  2.729E-04 0.000E+00

     total cpu time spent up to now is    11879.9 secs

     total energy              =   -1978.35833852 Ry
     estimated scf accuracy    <       0.00000941 Ry

     iteration # 60     ecut=    80.00 Ry     beta= 0.20
     Davidson diagonalization with overlap
     ethr =  8.19E-09,  avg # of iterations =  1.2

     negative rho (up, down):  2.825E-04 0.000E+00

     total cpu time spent up to now is    12069.0 secs

     total energy              =   -1978.35833182 Ry
     estimated scf accuracy    <       0.00000735 Ry

     iteration # 61     ecut=    80.00 Ry     beta= 0.20
     Davidson diagonalization with overlap
     ethr =  7.07E-09,  avg # of iterations =  1.2

     negative rho (up, down):  2.035E-04 0.000E+00

     total cpu time spent up to now is    12261.0 secs

     total energy              =   -1978.35833303 Ry
     estimated scf accuracy    <       0.00000648 Ry

     iteration # 62     ecut=    80.00 Ry     beta= 0.20
     Davidson diagonalization with overlap
     ethr =  6.24E-09,  avg # of iterations =  1.6

     negative rho (up, down):  1.069E-04 0.000E+00

     total cpu time spent up to now is    12454.7 secs

     total energy              =   -1978.35833615 Ry
     estimated scf accuracy    <       0.00000552 Ry

     iteration # 63     ecut=    80.00 Ry     beta= 0.20
     Davidson diagonalization with overlap
     ethr =  5.31E-09,  avg # of iterations =  1.3

     negative rho (up, down):  1.169E-04 0.000E+00

     total cpu time spent up to now is    12644.4 secs

     total energy              =   -1978.35833766 Ry
     estimated scf accuracy    <       0.00000447 Ry

     iteration # 64     ecut=    80.00 Ry     beta= 0.20
     Davidson diagonalization with overlap
     ethr =  4.30E-09,  avg # of iterations =  1.3

     negative rho (up, down):  8.825E-05 0.000E+00

     total cpu time spent up to now is    12836.3 secs

     total energy              =   -1978.35833774 Ry
     estimated scf accuracy    <       0.00000368 Ry

     iteration # 65     ecut=    80.00 Ry     beta= 0.20
     Davidson diagonalization with overlap
     ethr =  3.54E-09,  avg # of iterations =  2.0

     negative rho (up, down):  1.507E-04 0.000E+00

     total cpu time spent up to now is    13038.7 secs

     total energy              =   -1978.35833696 Ry
     estimated scf accuracy    <       0.00000303 Ry

     iteration # 66     ecut=    80.00 Ry     beta= 0.20
     Davidson diagonalization with overlap
     ethr =  2.92E-09,  avg # of iterations =  1.4

     negative rho (up, down):  1.630E-04 0.000E+00

     total cpu time spent up to now is    13229.0 secs

     total energy              =   -1978.35833788 Ry
     estimated scf accuracy    <       0.00000248 Ry

     iteration # 67     ecut=    80.00 Ry     beta= 0.20
     Davidson diagonalization with overlap
     ethr =  2.39E-09,  avg # of iterations =  1.4

     negative rho (up, down):  3.204E-04 0.000E+00

     total cpu time spent up to now is    13418.2 secs

     total energy              =   -1978.35833419 Ry
     estimated scf accuracy    <       0.00000203 Ry

     iteration # 68     ecut=    80.00 Ry     beta= 0.20
     Davidson diagonalization with overlap
     c_bands:  1 eigenvalues not converged
     ethr =  1.95E-09,  avg # of iterations =  3.3

     negative rho (up, down):  3.462E-04 0.000E+00

     total cpu time spent up to now is    13625.4 secs

     total energy              =   -1978.35833493 Ry
     estimated scf accuracy    <       0.00000100 Ry

     iteration # 69     ecut=    80.00 Ry     beta= 0.20
     Davidson diagonalization with overlap
     ethr =  9.62E-10,  avg # of iterations =  1.4

     negative rho (up, down):  3.193E-04 0.000E+00

     total cpu time spent up to now is    13815.1 secs

     total energy              =   -1978.35833562 Ry
     estimated scf accuracy    <       0.00000071 Ry

     iteration # 70     ecut=    80.00 Ry     beta= 0.20
     Davidson diagonalization with overlap
     ethr =  6.78E-10,  avg # of iterations =  2.2

     negative rho (up, down):  2.408E-04 0.000E+00

     total cpu time spent up to now is    14022.2 secs

     total energy              =   -1978.35833639 Ry
     estimated scf accuracy    <       0.00000045 Ry

     iteration # 71     ecut=    80.00 Ry     beta= 0.20
     Davidson diagonalization with overlap
     ethr =  4.35E-10,  avg # of iterations =  2.1

     negative rho (up, down):  2.305E-04 0.000E+00

     total cpu time spent up to now is    14226.2 secs

     total energy              =   -1978.35833662 Ry
     estimated scf accuracy    <       0.00000017 Ry

     iteration # 72     ecut=    80.00 Ry     beta= 0.20
     Davidson diagonalization with overlap
     ethr =  1.60E-10,  avg # of iterations =  2.0

     negative rho (up, down):  2.131E-04 0.000E+00

     total cpu time spent up to now is    14432.2 secs

     total energy              =   -1978.35833673 Ry
     estimated scf accuracy    <       0.00000012 Ry

     iteration # 73     ecut=    80.00 Ry     beta= 0.20
     Davidson diagonalization with overlap
     ethr =  1.12E-10,  avg # of iterations =  1.3

     negative rho (up, down):  1.910E-04 0.000E+00

     total cpu time spent up to now is    14617.5 secs

     total energy              =   -1978.35833647 Ry
     estimated scf accuracy    <       0.00000009 Ry

     iteration # 74     ecut=    80.00 Ry     beta= 0.20
     Davidson diagonalization with overlap
     ethr =  8.55E-11,  avg # of iterations =  2.0

     negative rho (up, down):  1.781E-04 0.000E+00

     total cpu time spent up to now is    14818.4 secs

     total energy              =   -1978.35833631 Ry
     estimated scf accuracy    <       0.00000006 Ry

     iteration # 75     ecut=    80.00 Ry     beta= 0.20
     Davidson diagonalization with overlap
     ethr =  6.08E-11,  avg # of iterations =  2.0

     negative rho (up, down):  1.740E-04 0.000E+00

     total cpu time spent up to now is    15023.5 secs

     total energy              =   -1978.35833622 Ry
     estimated scf accuracy    <       0.00000004 Ry

     iteration # 76     ecut=    80.00 Ry     beta= 0.20
     Davidson diagonalization with overlap
     ethr =  4.26E-11,  avg # of iterations =  1.3

     negative rho (up, down):  1.703E-04 0.000E+00

     total cpu time spent up to now is    15210.7 secs

     total energy              =   -1978.35833619 Ry
     estimated scf accuracy    <       0.00000004 Ry

     iteration # 77     ecut=    80.00 Ry     beta= 0.20
     Davidson diagonalization with overlap
     ethr =  3.48E-11,  avg # of iterations =  1.5

     negative rho (up, down):  1.615E-04 0.000E+00

     total cpu time spent up to now is    15400.9 secs

     total energy              =   -1978.35833598 Ry
     estimated scf accuracy    <       0.00000003 Ry

     iteration # 78     ecut=    80.00 Ry     beta= 0.20
     Davidson diagonalization with overlap
     ethr =  2.42E-11,  avg # of iterations =  2.4

     negative rho (up, down):  1.625E-04 0.000E+00

     total cpu time spent up to now is    15617.5 secs

     total energy              =   -1978.35833591 Ry
     estimated scf accuracy    <       0.00000002 Ry

     iteration # 79     ecut=    80.00 Ry     beta= 0.20
     Davidson diagonalization with overlap
     ethr =  1.67E-11,  avg # of iterations =  1.1

     negative rho (up, down):  1.610E-04 0.000E+00

     total cpu time spent up to now is    15799.8 secs

     total energy              =   -1978.35833592 Ry
     estimated scf accuracy    <       0.00000001 Ry

     iteration # 80     ecut=    80.00 Ry     beta= 0.20
     Davidson diagonalization with overlap
     ethr =  1.30E-11,  avg # of iterations =  1.1

     negative rho (up, down):  1.581E-04 0.000E+00

     total cpu time spent up to now is    15980.7 secs

     total energy              =   -1978.35833595 Ry
     estimated scf accuracy    <       0.00000001 Ry

     iteration # 81     ecut=    80.00 Ry     beta= 0.20
     Davidson diagonalization with overlap
     ethr =  1.14E-11,  avg # of iterations =  2.0

     negative rho (up, down):  1.544E-04 0.000E+00

     total cpu time spent up to now is    16186.7 secs

     End of self-consistent calculation

          k = 0.0000 0.0000 0.0000 ( 35507 PWs)   bands (ev):

   -58.9002 -58.8830 -58.8514 -58.8019 -33.0741 -33.0567 -33.0260 -32.9763
   -32.8368 -32.8368 -32.8208 -32.8208 -32.7879 -32.7879 -32.7395 -32.7395
   -12.2434 -12.1577 -12.1454 -12.0476 -11.0087 -10.8708 -10.8508 -10.7165
    -4.0412  -3.7071  -3.6833  -3.3551  -0.6226  -0.6226  -0.6149  -0.6149
    -0.6031  -0.5762  -0.5762  -0.5350  -0.5350   0.0484   0.0768   0.4918
     0.4918   0.5042   0.5042   0.5380   0.5380   0.5834   0.5834   0.8205
     1.5984   1.8291   2.1316   2.4591   4.7236   4.7236   4.7637   4.7637
     4.7754   4.7755   4.8335   4.8336   4.9378   4.9381

          k = 0.0000 0.0722 0.0000 ( 35493 PWs)   bands (ev):

   -58.8986 -58.8814 -58.8498 -58.8003 -33.0711 -33.0536 -33.0229 -32.9732
   -32.8523 -32.8403 -32.8364 -32.8243 -32.8034 -32.7914 -32.7551 -32.7431
   -12.1838 -12.0983 -12.0861 -11.9885 -10.9810 -10.8459 -10.8255 -10.6933
    -3.9724  -3.6397  -3.6142  -3.2872  -0.7597  -0.7492  -0.7391  -0.7118
    -0.6691  -0.5604  -0.5524  -0.5140  -0.4726  -0.2144  -0.1980   0.1768
     0.3946   0.4076   0.4412   0.4871   0.5974   0.7013   0.7076   1.0613
     1.6003   1.8098   2.0971   2.3793   4.6481   4.6727   4.6954   4.7501
     4.7816   4.8082   4.8440   4.8612   4.8643   4.8917

          k = 0.0000 0.1443 0.0000 ( 35435 PWs)   bands (ev):

   -58.8942 -58.8770 -58.8454 -58.7959 -33.0625 -33.0450 -33.0143 -32.9646
   -32.8964 -32.8805 -32.8503 -32.8475 -32.8344 -32.8015 -32.7992 -32.7531
   -12.0098 -11.9252 -11.9132 -11.8162 -10.9005 -10.7734 -10.7519 -10.6260
    -3.7807  -3.4539  -3.4234  -3.1020  -1.1111  -1.0953  -1.0669  -1.0532
    -1.0096  -0.6715  -0.6311  -0.3813  -0.3722  -0.3384  -0.3349  -0.2925
     0.1433   0.1576   0.1908   0.2377   0.6577   0.8398   0.8664   1.2114
     1.5683   1.7208   1.9431   2.1221   4.3637   4.4103   4.4602   4.5161
     4.5441   4.5927   4.6655   4.6659   4.7203   4.7439

          k = 0.0000 0.2165 0.0000 ( 35345 PWs)   bands (ev):

   -58.8875 -58.8703 -58.8387 -58.7893 -33.0495 -33.0320 -33.0013 -32.9617
   -32.9516 -32.9459 -32.9129 -32.8653 -32.8647 -32.8494 -32.8165 -32.7681
   -11.7364 -11.6538 -11.6422 -11.5468 -10.7742 -10.6600 -10.6369 -10.5211
    -3.5209  -3.2131  -3.1760  -2.8755  -1.5478  -1.5176  -1.5005  -1.4692
    -1.3952  -1.1584  -1.0954  -0.8833  -0.1832  -0.1660  -0.1373  -0.1066
    -0.0972  -0.0872  -0.0570  -0.0160   0.5707   0.7933   0.8109   1.1300
     1.4192   1.5004   1.6213   1.7133   3.9872   4.1140   4.1802   4.4130
     4.4453   4.5159   4.5288   4.5689   4.5959   4.6137

          k = 0.0000 0.2887 0.0000 ( 35323 PWs)   bands (ev):

   -58.8797 -58.8625 -58.8309 -58.7814 -33.0380 -33.0341 -33.0223 -33.0166
   -32.9892 -32.9859 -32.9410 -32.9362 -32.8829 -32.8670 -32.8341 -32.7858
   -11.3889 -11.3107 -11.2994 -11.2073 -10.6147 -10.5178 -10.4929 -10.3902
    -3.3211  -3.0708  -3.0383  -2.8103  -1.9465  -1.8722  -1.8305  -1.8134
    -1.7112  -1.6495  -1.5384  -1.4223  -0.5112  -0.4938  -0.4622  -0.4128
     0.2168   0.2322   0.2661   0.3141   0.3554   0.5939   0.6004   0.8877
     1.1401   1.1814   1.2382   1.3036   3.8518   4.0466   4.1029   4.2572
     4.3230   4.3386   4.4124   4.4212   4.7877   4.8590

          k = 0.0000 0.3608 0.0000 ( 35299 PWs)   bands (ev):

   -58.8718 -58.8546 -58.8230 -58.7735 -33.1134 -33.0977 -33.0646 -33.0187
   -33.0165 -33.0012 -32.9705 -32.9208 -32.9005 -32.8846 -32.8516 -32.8033
   -11.0058 -10.9353 -10.9240 -10.8381 -10.4412 -10.3647 -10.3383 -10.2506
    -3.3581  -3.2041  -3.1937  -3.0614  -2.3109  -2.1879  -2.1168  -2.0217
    -1.9522  -1.9133  -1.8234  -1.7274  -0.7996  -0.7813  -0.7499  -0.6998
     0.1202   0.3558   0.3614   0.5360   0.5603   0.5909   0.6135   0.6456
     0.9197   0.9610   1.0095   1.0734   3.9667   4.1538   4.1712   4.2068
     4.2104   4.2256   4.3001   4.5059   5.1176   5.2188

          k = 0.0000 0.4330 0.0000 ( 35224 PWs)   bands (ev):

   -58.8651 -58.8479 -58.8163 -58.7668 -33.1766 -33.1610 -33.1278 -33.0798
   -33.0057 -32.9881 -32.9575 -32.9153 -32.9077 -32.8994 -32.8665 -32.8182
   -10.6419 -10.5830 -10.5713 -10.4949 -10.2797 -10.2248 -10.1979 -10.1251
    -3.5912  -3.4997  -3.4974  -3.4100  -2.6490  -2.5382  -2.5123  -2.4129
    -2.0644  -1.9643  -1.9389  -1.8087  -1.0204  -1.0014  -0.9702  -0.9196
    -0.0551   0.1706   0.1733   0.3985   0.7900   0.8273   0.8548   0.9185
     0.9394   1.0020   1.0451   1.1264   4.1480   4.1840   4.2069   4.2264
     4.2703   4.3940   4.4195   4.6463   5.4247   5.6215

          k = 0.0000 0.5052 0.0000 ( 35152 PWs)   bands (ev):

   -58.8607 -58.8434 -58.8119 -58.7624 -33.2185 -33.2030 -33.1698 -33.1218
   -32.9969 -32.9793 -32.9487 -32.9252 -32.9093 -32.8989 -32.8763 -32.8281
   -10.3697 -10.3242 -10.3117 -10.2467 -10.1615 -10.1251 -10.0997 -10.0378
    -3.8196  -3.7533  -3.7491  -3.6769  -2.8863  -2.8016  -2.7798  -2.6935
    -2.1676  -2.0624  -2.0457  -1.9214  -1.1581  -1.1387  -1.1077  -1.0567
    -0.1504   0.0627   0.0651   0.2677   0.9437   0.9932   1.0183   1.0904
     1.1279   1.2009   1.2292   1.3144   4.1966   4.2198   4.2471   4.3014
     4.5164   4.6232   4.6420   4.7814   5.6146   5.7899

          k = 0.0000-0.5774 0.0000 ( 35026 PWs)   bands (ev):

   -58.8591 -58.8419 -58.8103 -58.7608 -33.2332 -33.2177 -33.1844 -33.1365
   -32.9938 -32.9762 -32.9456 -32.9286 -32.9128 -32.8958 -32.8798 -32.8315
   -10.2661 -10.2277 -10.2144 -10.1562 -10.1171 -10.0887 -10.0650 -10.0067
    -3.9116  -3.8509  -3.8452  -3.7762  -2.9713  -2.8977  -2.8746  -2.7925
    -2.2156  -2.1111  -2.0949  -1.9737  -1.2048  -1.1853  -1.1543  -1.1032
    -0.1790   0.0278   0.0309   0.2237   0.9935   1.0480   1.0723   1.1478
     1.2442   1.3075   1.3263   1.4017   4.2251   4.2444   4.2737   4.3249
     4.6702   4.7312   4.7506   4.8283   5.6735   5.8328

          k = 0.0625 0.1083 0.0000 ( 35467 PWs)   bands (ev):

   -58.8956 -58.8784 -58.8468 -58.7973 -33.0653 -33.0478 -33.0171 -32.9674
   -32.8817 -32.8657 -32.8475 -32.8328 -32.8316 -32.7987 -32.7845 -32.7503
   -12.0670 -11.9820 -11.9700 -11.8727 -10.9270 -10.7971 -10.7760 -10.6481
    -3.8416  -3.5124  -3.4836  -3.1598  -1.0005  -0.9873  -0.9583  -0.9496
    -0.9053  -0.5317  -0.4980  -0.4415  -0.4331  -0.3951  -0.3535  -0.1736
     0.1797   0.1931   0.2259   0.2721   0.6943   0.8521   0.8765   1.2152
     1.5866   1.7559   2.0044   2.2106   4.4867   4.5076   4.5315   4.5473
     4.5538   4.6235   4.6394   4.7132   4.7366   4.8047

          k = 0.0625 0.1804 0.0000 ( 35370 PWs)   bands (ev):

   -58.8901 -58.8729 -58.8413 -58.7918 -33.0545 -33.0370 -33.0063 -32.9565
   -32.9352 -32.9193 -32.8863 -32.8613 -32.8453 -32.8381 -32.8124 -32.7641
   -11.8431 -11.7596 -11.7479 -11.6518 -10.8233 -10.7040 -10.6816 -10.5617
    -3.6117  -3.2938  -3.2586  -2.9463  -1.3845  -1.3654  -1.3407  -1.3044
    -1.2460  -0.9415  -0.8878  -0.6320  -0.2258  -0.2155  -0.1934  -0.1724
    -0.1717  -0.1480  -0.1269  -0.0932   0.7455   0.9304   0.9586   1.2555
     1.4992   1.5997   1.7655   1.8740   4.0965   4.1911   4.2473   4.4000
     4.4613   4.4751   4.5250   4.5808   4.6238   4.6869

          k = 0.0625 0.2526 0.0000 ( 35362 PWs)   bands (ev):

   -58.8828 -58.8656 -58.8340 -58.7845 -33.0403 -33.0228 -33.0043 -32.9921
   -32.9886 -32.9555 -32.9424 -32.9073 -32.8792 -32.8633 -32.8303 -32.7820
   -11.5320 -11.4517 -11.4403 -11.3467 -10.6798 -10.5756 -10.5514 -10.4432
    -3.3682  -3.0850  -3.0470  -2.7773  -1.7769  -1.7264  -1.7235  -1.6849
    -1.5754  -1.3969  -1.3176  -1.1553  -0.5638  -0.5466  -0.5119  -0.4610
     0.0423   0.0566   0.0897   0.1366   0.6433   0.8355   0.8463   1.1040
     1.2829   1.3237   1.4009   1.4633   3.8312   3.9995   4.0517   4.2545
     4.3773   4.4051   4.4380   4.4848   4.5909   4.6129

          k = 0.0625 0.3248 0.0000 ( 35310 PWs)   bands (ev):

   -58.8750 -58.8577 -58.8262 -58.7767 -33.0784 -33.0627 -33.0296 -33.0249
   -33.0074 -32.9814 -32.9767 -32.9270 -32.8986 -32.8827 -32.8497 -32.8014
   -11.1652 -11.0909 -11.0797 -10.9908 -10.5119 -10.4266 -10.4007 -10.3065
    -3.2791  -3.0797  -3.0593  -2.8873  -2.1147  -2.0210  -1.9002  -1.8840
    -1.8810  -1.8180  -1.6953  -1.6534  -0.8690  -0.8389  -0.8038  -0.7424
     0.2763   0.2997   0.3223   0.3752   0.4324   0.6069   0.6156   0.8384
     1.0501   1.0770   1.1174   1.1744   3.7923   3.9806   4.0141   4.1700
     4.3089   4.3353   4.3862   4.5029   4.8476   4.9227

          k = 0.0625 0.3969 0.0000 ( 35243 PWs)   bands (ev):

   -58.8677 -58.8505 -58.8189 -58.7694 -33.1460 -33.1304 -33.0972 -33.0492
   -33.0107 -32.9931 -32.9625 -32.9164 -32.9127 -32.9005 -32.8675 -32.8192
   -10.7885 -10.7239 -10.7126 -10.6315 -10.3421 -10.2778 -10.2509 -10.1718
    -3.4338  -3.3166  -3.3127  -3.2079  -2.4837  -2.3712  -2.3407  -2.2440
    -1.9925  -1.9022  -1.8719  -1.7402  -1.0682  -1.0328  -1.0006  -0.9383
     0.1676   0.3470   0.3556   0.4216   0.4474   0.4812   0.5058   0.5957
     1.0596   1.0823   1.1173   1.1709   3.9237   4.0723   4.0907   4.2011
     4.3530   4.3935   4.4312   4.5916   5.1864   5.3831

          k = 0.0625 0.4691 0.0000 ( 35169 PWs)   bands (ev):

   -58.8621 -58.8449 -58.8133 -58.7638 -33.1973 -33.1818 -33.1485 -33.1005
   -32.9998 -32.9822 -32.9515 -32.9300 -32.9141 -32.9017 -32.8811 -32.8329
   -10.4652 -10.4138 -10.4018 -10.3317 -10.1991 -10.1553 -10.1289 -10.0631
    -3.6715  -3.5952  -3.5922  -3.5141  -2.8000  -2.7141  -2.6973  -2.6122
    -2.0951  -1.9858  -1.9732  -1.8435  -1.1757  -1.1456  -1.1197  -1.0616
    -0.0241   0.1596   0.1630   0.3420   0.5448   0.5873   0.6084   0.6827
     1.2332   1.2630   1.2940   1.3537   4.1142   4.1888   4.2062   4.2787
     4.4893   4.5548   4.5820   4.7224   5.4984   5.6598

          k = 0.0625 0.5413 0.0000 ( 35128 PWs)   bands (ev):

   -58.8591 -58.8419 -58.8103 -58.7608 -33.2249 -33.2094 -33.1762 -33.1282
   -32.9938 -32.9762 -32.9456 -32.9373 -32.9215 -32.8958 -32.8885 -32.8402
   -10.2719 -10.2321 -10.2190 -10.1598 -10.1147 -10.0854 -10.0611 -10.0025
    -3.8316  -3.7700  -3.7641  -3.6945  -2.9785  -2.9098  -2.8922  -2.8127
    -2.1844  -2.0756  -2.0626  -1.9394  -1.2190  -1.1965  -1.1744  -1.1202
    -0.1291   0.0553   0.0615   0.2353   0.6349   0.6899   0.7063   0.7810
     1.3871   1.4283   1.4538   1.5197   4.2251   4.2477   4.2696   4.3219
     4.6649   4.7294   4.7505   4.8393   5.7201   5.8407

          k = 0.1250 0.2165 0.0000 ( 35331 PWs)   bands (ev):

   -58.8839 -58.8667 -58.8351 -58.7857 -33.0424 -33.0249 -32.9942 -32.9903
   -32.9745 -32.9445 -32.9415 -32.8933 -32.8801 -32.8641 -32.8312 -32.7829
   -11.5812 -11.5003 -11.4888 -11.3947 -10.7021 -10.5953 -10.5714 -10.4613
    -3.3874  -3.0931  -3.0538  -2.7696  -1.7051  -1.6745  -1.6641  -1.6176
    -1.4796  -1.2349  -1.1623  -0.9683  -0.7022  -0.6900  -0.6493  -0.6019
    -0.0372  -0.0232   0.0089   0.0557   0.8285   0.9934   1.0146   1.2345
     1.3499   1.3813   1.4769   1.5324   3.8189   3.9756   4.0220   4.2148
     4.3703   4.4016   4.4327   4.4541   4.4618   4.5206

          k = 0.1250 0.2887 0.0000 ( 35357 PWs)   bands (ev):

   -58.8767 -58.8594 -58.8279 -58.7784 -33.0536 -33.0379 -33.0283 -33.0107
   -33.0048 -32.9801 -32.9567 -32.9303 -32.9034 -32.8875 -32.8545 -32.8062
   -11.2491 -11.1730 -11.1618 -11.0715 -10.5486 -10.4585 -10.4330 -10.3353
    -3.2306  -2.9980  -2.9696  -2.7634  -1.9576  -1.9006  -1.8445  -1.8076
    -1.7047  -1.6385  -1.5372  -1.4719  -1.1326  -1.0841  -1.0350  -0.9238
     0.0659   0.0890   0.1135   0.1671   0.7554   0.8963   0.9011   1.0739
     1.1570   1.1631   1.1974   1.2485   3.6581   3.8545   3.8900   4.0901
     4.3685   4.4014   4.4137   4.4768   4.6025   4.6208

          k = 0.1250 0.3608 0.0000 ( 35341 PWs)   bands (ev):

   -58.8694 -58.8522 -58.8206 -58.7711 -33.1159 -33.1002 -33.0671 -33.0190
   -33.0140 -32.9965 -32.9658 -32.9270 -32.9160 -32.9112 -32.8782 -32.8299
   -10.8846 -10.8166 -10.8054 -10.7216 -10.3811 -10.3106 -10.2838 -10.2003
    -3.2780  -3.1297  -3.1221  -2.9939  -2.2837  -2.1927  -2.1608  -2.0917
    -1.8992  -1.8223  -1.8035  -1.6764  -1.3277  -1.2352  -1.1754  -1.0559
     0.0078   0.0415   0.0601   0.1191   0.5344   0.6481   0.6582   0.7966
     1.1121   1.1319   1.1593   1.2117   3.6933   3.9118   3.9371   4.1576
     4.4391   4.4646   4.4926   4.5775   4.8425   5.0480

          k = 0.1250 0.4330 0.0000 ( 35215 PWs)   bands (ev):

   -58.8632 -58.8460 -58.8144 -58.7649 -33.1680 -33.1524 -33.1192 -33.0712
   -33.0020 -32.9844 -32.9537 -32.9472 -32.9314 -32.9039 -32.8984 -32.8501
   -10.5407 -10.4845 -10.4729 -10.3989 -10.2245 -10.1747 -10.1476 -10.0780
    -3.4586  -3.3627  -3.3609  -3.2701  -2.6962  -2.6309  -2.6233  -2.5510
    -1.9704  -1.8563  -1.8493  -1.7220  -1.3577  -1.2620  -1.2180  -1.1123
    -0.0468   0.0117   0.0244   0.1004   0.2591   0.3651   0.3774   0.5041
     1.2510   1.2717   1.3009   1.3535   3.8997   4.1035   4.1214   4.3268
     4.5476   4.5659   4.6053   4.6673   5.1518   5.3149

          k = 0.1250 0.5052 0.0000 ( 35141 PWs)   bands (ev):

   -58.8591 -58.8419 -58.8103 -58.7608 -33.2026 -33.1870 -33.1538 -33.1058
   -32.9939 -32.9763 -32.9607 -32.9456 -32.9449 -32.9119 -32.8958 -32.8636
   -10.2856 -10.2426 -10.2300 -10.1684 -10.1090 -10.0774 -10.0520  -9.9924
    -3.6218  -3.5537  -3.5480  -3.4746  -2.9915  -2.9386  -2.9322  -2.8597
    -2.0891  -1.9689  -1.9646  -1.8410  -1.3098  -1.2351  -1.2106  -1.1304
    -0.0507   0.0357   0.0622   0.0868   0.1320   0.1398   0.1784   0.2927
     1.4379   1.4684   1.4974   1.5568   4.1184   4.2144   4.2359   4.3309
     4.6981   4.7518   4.7739   4.8684   5.4258   5.5405

          k = 0.1250 0.5774 0.0000 ( 35180 PWs)   bands (ev):

   -58.8577 -58.8404 -58.8089 -58.7594 -33.2146 -33.1991 -33.1659 -33.1179
   -32.9910 -32.9734 -32.9654 -32.9496 -32.9428 -32.9166 -32.8930 -32.8684
   -10.1891 -10.1531 -10.1395 -10.0874 -10.0634 -10.0419 -10.0179  -9.9617
    -3.6851  -3.6268  -3.6179  -3.5498  -3.0968  -3.0473  -3.0406  -2.9676
    -2.1492  -2.0316  -2.0235  -1.9021  -1.2630  -1.2151  -1.2036  -1.1361
    -0.1068   0.0259   0.0516   0.0609   0.0910   0.1107   0.1624   0.2370
     1.5303   1.5691   1.5970   1.6621   4.1925   4.2160   4.2360   4.2904
     4.8095   4.8788   4.8957   4.9690   5.5378   5.6546

          k = 0.1875 0.3248 0.0000 ( 35337 PWs)   bands (ev):

   -58.8700 -58.8528 -58.8212 -58.7717 -33.1023 -33.0866 -33.0535 -33.0152
   -33.0054 -32.9976 -32.9670 -32.9338 -32.9179 -32.9172 -32.8850 -32.8367
   -10.9179 -10.8488 -10.8377 -10.7529 -10.3943 -10.3217 -10.2949 -10.2098
    -3.2118  -3.0476  -3.0380  -2.8970  -2.1550  -2.0857  -2.0573  -2.0208
    -1.8537  -1.7806  -1.7722  -1.6812  -1.4691  -1.3650  -1.2739  -1.1256
    -0.1661  -0.1320  -0.1154  -0.0546   0.6990   0.7892   0.7953   0.9065
     1.1181   1.1422   1.1681   1.2237   3.6053   3.8481   3.8716   4.1313
     4.4632   4.4905   4.5020   4.5591   4.6981   4.7483

          k = 0.1875 0.3969 0.0000 ( 35241 PWs)   bands (ev):

   -58.8638 -58.8466 -58.8150 -58.7655 -33.1442 -33.1286 -33.0954 -33.0474
   -33.0031 -32.9855 -32.9646 -32.9549 -32.9488 -32.9158 -32.9051 -32.8675
   -10.5821 -10.5233 -10.5120 -10.4358 -10.2372 -10.1839 -10.1565 -10.0846
    -3.2976  -3.1808  -3.1799  -3.0741  -2.6032  -2.5701  -2.5673  -2.5079
    -1.8348  -1.7567  -1.6936  -1.6367  -1.4669  -1.3783  -1.2855  -1.1513
    -0.4843  -0.4397  -0.4233  -0.3563   0.4703   0.5381   0.5396   0.6271
     1.2210   1.2463   1.2767   1.3345   3.7589   4.0291   4.0407   4.3595
     4.5745   4.5933   4.6157   4.6687   4.8776   5.0584

          k = 0.1875 0.4691 0.0000 ( 35167 PWs)   bands (ev):

   -58.8591 -58.8419 -58.8103 -58.7608 -33.1747 -33.1591 -33.1259 -33.0779
   -32.9939 -32.9896 -32.9763 -32.9737 -32.9457 -32.9407 -32.8959 -32.8925
   -10.2989 -10.2530 -10.2408 -10.1768 -10.1034 -10.0694 -10.0430  -9.9822
    -3.3838  -3.2969  -3.2933  -3.2094  -3.0000  -2.9690  -2.9651  -2.9027
    -1.9194  -1.7953  -1.7851  -1.6975  -1.4087  -1.2863  -1.2440  -1.1187
    -0.6688  -0.5879  -0.5750  -0.4743   0.1699   0.2469   0.2555   0.3406
     1.4219   1.4435   1.4750   1.5285   3.9763   4.1496   4.1605   4.3293
     4.7395   4.7920   4.8043   4.9033   5.0869   5.2052

          k = 0.1875 0.5413 0.0000 ( 35162 PWs)   bands (ev):

   -58.8566 -58.8393 -58.8077 -58.7582 -33.1907 -33.1751 -33.1419 -33.0939
   -33.0035 -32.9889 -32.9877 -32.9713 -32.9547 -32.9407 -32.9064 -32.8908
   -10.1320 -10.0973 -10.0836 -10.0394 -10.0169 -10.0036  -9.9787  -9.9246
    -3.4212  -3.3613  -3.3456  -3.2768  -3.2162  -3.1863  -3.1779  -3.1140
    -2.0625  -1.9365  -1.9306  -1.8195  -1.2810  -1.1857  -1.1769  -1.0833
    -0.7130  -0.6066  -0.5936  -0.4852  -0.0385   0.0361   0.0533   0.1398
     1.6062   1.6352   1.6652   1.7244   4.0451   4.0861   4.1087   4.1731
     4.9269   5.0236   5.0505   5.1461   5.1984   5.3028

          k = 0.2500 0.4330 0.0000 ( 35195 PWs)   bands (ev):

   -58.8591 -58.8419 -58.8103 -58.7608 -33.1602 -33.1446 -33.1114 -33.0634
   -33.0045 -32.9939 -32.9887 -32.9763 -32.9556 -32.9457 -32.9074 -32.8959
   -10.3043 -10.2572 -10.2452 -10.1803 -10.1011 -10.0660 -10.0393  -9.9780
    -3.2752  -3.1741  -3.1723  -3.0852  -3.0009  -2.9834  -2.9702  -2.9204
    -1.7379  -1.6913  -1.6157  -1.6075  -1.3994  -1.3101  -1.2348  -1.1023
    -0.9842  -0.9521  -0.9291  -0.8761   0.2397   0.2915   0.2974   0.3760
     1.4052   1.4257   1.4591   1.5119   3.9161   4.1174   4.1230   4.3205
     4.7502   4.8061   4.8102   4.9100   4.9584   5.1015

          k = 0.2500 0.5052 0.0000 ( 35193 PWs)   bands (ev):

   -58.8560 -58.8387 -58.8071 -58.7576 -33.1649 -33.1494 -33.1162 -33.0681
   -33.0370 -33.0213 -32.9882 -32.9877 -32.9701 -32.9400 -32.9395 -32.8897
   -10.1039 -10.0691 -10.0556 -10.0150  -9.9905  -9.9809  -9.9549  -9.9022
    -3.3083  -3.2767  -3.2757  -3.2201  -3.1561  -3.0852  -3.0785  -2.9986
    -1.8918  -1.7700  -1.7639  -1.7059  -1.3432  -1.2773  -1.2123  -1.2050
    -1.1541  -1.1486  -1.0561  -0.9865  -0.0376   0.0252   0.0307   0.1150
     1.6459   1.6659   1.6979   1.7499   3.9130   3.9725   3.9933   4.0725
     4.8946   4.9657   4.9882   5.0437   5.1784   5.2544

          k = 0.2500 0.5774 0.0000 ( 35190 PWs)   bands (ev):

   -58.8548 -58.8376 -58.8060 -58.7565 -33.1648 -33.1492 -33.1160 -33.0680
   -33.0503 -33.0345 -33.0015 -32.9855 -32.9679 -32.9533 -32.9373 -32.8875
   -10.0290 -10.0008  -9.9869  -9.9707  -9.9496  -9.9406  -9.9193  -9.8745
    -3.4078  -3.3797  -3.3775  -3.3196  -3.0717  -3.0209  -3.0152  -2.9484
    -2.0465  -1.9330  -1.9207  -1.8328  -1.3807  -1.2752  -1.2431  -1.1791
    -1.1029  -1.0601  -1.0093  -0.9530  -0.1576  -0.1104  -0.0974  -0.0216
     1.7725   1.7961   1.8267   1.8819   3.8405   3.8579   3.8861   3.9356
     4.9210   4.9831   5.0253   5.0493   5.3351   5.3762

          k = 0.3125 0.5413 0.0000 ( 35172 PWs)   bands (ev):

   -58.8542 -58.8370 -58.8054 -58.7559 -33.1437 -33.1282 -33.0949 -33.0787
   -33.0629 -33.0469 -33.0299 -32.9844 -32.9817 -32.9667 -32.9362 -32.8863
    -9.9925  -9.9672  -9.9557  -9.9454  -9.9297  -9.9168  -9.8935  -9.8555
    -3.4757  -3.4513  -3.4450  -3.3881  -2.8478  -2.7826  -2.7780  -2.7045
    -2.0383  -2.0267  -1.9938  -1.9602  -1.5580  -1.5294  -1.5271  -1.4998
    -1.0531  -0.9867  -0.9652  -0.8957  -0.2457  -0.1890  -0.1720  -0.0918
     1.8545   1.8745   1.9052   1.9573   3.7244   3.7406   3.7713   3.8200
     4.8580   4.8891   4.9481   4.9594   5.4319   5.5028

     the Fermi energy is     2.9684 ev

!    total energy              =   -1978.35833594 Ry
     total all-electron energy =    -38771.679181 Ry
     estimated scf accuracy    <          5.9E-09 Ry
     smearing contrib. (-TS)   =       0.00003333 Ry
     internal energy E=F+TS    =   -1978.35836927 Ry

     The total energy is F=E-TS. E is the sum of the following terms:
     one-electron contribution =  -13788.37981998 Ry
     hartree contribution      =    6915.78727589 Ry
     xc contribution           =    -119.22519497 Ry
     ewald contribution        =    6283.31210849 Ry
     one-center paw contrib.   =   -1269.85273870 Ry

     convergence has been achieved in  81 iterations

     Writing all to output data dir ./tmp/cleave2/cleave_dz017_dz3p4/mos2_cleave.save/ :
     XML data file, charge density, pseudopotentials, collected wavefunctions

     init_run     :    122.04s CPU    124.25s WALL (       1 calls)
     electrons    :  15791.82s CPU  16062.37s WALL (       1 calls)

     Called by init_run:
     wfcinit      :     74.28s CPU     74.99s WALL (       1 calls)
     potinit      :     44.21s CPU     44.64s WALL (       1 calls)
     hinit0       :      0.34s CPU      0.37s WALL (       1 calls)

     Called by electrons:
     c_bands      :  13019.84s CPU  13099.05s WALL (      82 calls)
     sum_band     :   2111.82s CPU   2200.19s WALL (      82 calls)
     v_of_rho     :    307.77s CPU    334.28s WALL (      82 calls)
     newd         :    251.18s CPU    327.32s WALL (      82 calls)
     PAW_pot      :     33.22s CPU     33.23s WALL (      82 calls)
     mix_rho      :    111.97s CPU    113.65s WALL (      82 calls)
     vdW_kernel   :     40.57s CPU     40.58s WALL (       1 calls)

     Called by c_bands:
     init_us_2    :     62.00s CPU     62.05s WALL (    4950 calls)
     init_us_2:cp :     61.99s CPU     62.05s WALL (    4950 calls)
     cegterg      :  12418.00s CPU  12496.59s WALL (    2460 calls)

     Called by *egterg:
     cdiaghg      :     17.53s CPU     17.54s WALL (    6990 calls)
     h_psi        :   6737.93s CPU   6768.32s WALL (    7050 calls)
     s_psi        :   1975.32s CPU   1975.86s WALL (    7050 calls)
     g_psi        :     28.15s CPU     28.16s WALL (    4560 calls)

     Called by h_psi:
     h_psi:calbec :   2566.63s CPU   2567.21s WALL (    7050 calls)
     vloc_psi     :   2182.77s CPU   2184.16s WALL (    7050 calls)
     add_vuspsi   :   1975.06s CPU   1975.48s WALL (    7050 calls)

     General routines
     calbec       :   3781.15s CPU   3782.05s WALL (    9510 calls)
     fft          :    102.58s CPU    102.62s WALL (    5165 calls)
     ffts         :     54.90s CPU     54.93s WALL (   10004 calls)
     fftw         :   1989.24s CPU   1990.21s WALL (  798312 calls)
     interpolate  :      2.43s CPU      2.44s WALL (      82 calls)

     Parallel routines

     PWSCF        :      4h25m CPU      4h29m WALL


   This run was terminated on:  12:49:12  12Jun2026            

=------------------------------------------------------------------------------=
   JOB DONE.
=------------------------------------------------------------------------------=
Note: The following floating-point exceptions are signalling: IEEE_UNDERFLOW_FLAG IEEE_DENORMAL
