Authorization required, but no authorization protocol specified

Authorization required, but no authorization protocol specified

Authorization required, but no authorization protocol specified

Authorization required, but no authorization protocol specified

Authorization required, but no authorization protocol specified

Authorization required, but no authorization protocol specified

Authorization required, but no authorization protocol specified

Authorization required, but no authorization protocol specified


     Program PWSCF v.7.3 starts on  9Jun2026 at 23:23: 1 

     This program is part of the open-source Quantum ESPRESSO suite
     for quantum simulation of materials; please cite
         "P. Giannozzi et al., J. Phys.:Condens. Matter 21 395502 (2009);
         "P. Giannozzi et al., J. Phys.:Condens. Matter 29 465901 (2017);
         "P. Giannozzi et al., J. Chem. Phys. 152 154105 (2020);
          URL http://www.quantum-espresso.org", 
     in publications or presentations arising from this work. More details at
     http://www.quantum-espresso.org/quote

     Parallel version (MPI), running on     1 processors

     MPI processes distributed on     1 nodes
     62202 MiB available memory on the printing compute node when the environment starts

     Waiting for input...
     Reading input from standard input

     Current dimensions of program PWSCF are:
     Max number of different atomic species (ntypx) = 10
     Max number of k-points (npk) =  40000
     Max angular momentum in pseudopotentials (lmaxx) =  4
     file Mo.pbe-spn-kjpaw_psl.1.0.0.UPF: wavefunction(s)  4S 4D renormalized
     file S.pbe-n-kjpaw_psl.1.0.0.UPF: wavefunction(s)  3S 3P renormalized

     IMPORTANT: XC functional enforced from input :
     Exchange-correlation= VDW-DF2-B86R
                           (   1   4  26   0   2   0   0)
     Any further DFT definition will be discarded
     Please, verify this is what you really want


     Subspace diagonalization in iterative solution of the eigenvalue problem:
     a serial algorithm will be used


     G-vector sticks info
     --------------------
     sticks:   dense  smooth     PW     G-vecs:    dense   smooth      PW
     Sum        1573     769    223               797393   281171   43435

     Using Slab Decomposition



     bravais-lattice index     =            4
     lattice parameter (alat)  =       5.9715  a.u.
     unit-cell volume          =    2917.9067 (a.u.)^3
     number of atoms/cell      =           12
     number of atomic types    =            2
     number of electrons       =       104.00
     number of Kohn-Sham states=           62
     kinetic-energy cutoff     =      80.0000  Ry
     charge density cutoff     =     640.0000  Ry
     scf convergence threshold =      1.0E-08
     mixing beta               =       0.2000
     number of iterations used =            8  local-TF  mixing
     Exchange-correlation= VDW-DF2-B86R
                           (   1   4  26   0   2   0   0)

     celldm(1)=   5.971535  celldm(2)=   0.000000  celldm(3)=  15.822785
     celldm(4)=   0.000000  celldm(5)=   0.000000  celldm(6)=   0.000000

     crystal axes: (cart. coord. in units of alat)
               a(1) = (   1.000000   0.000000   0.000000 )  
               a(2) = (  -0.500000   0.866025   0.000000 )  
               a(3) = (   0.000000   0.000000  15.822785 )  

     reciprocal axes: (cart. coord. in units 2 pi/alat)
               b(1) = (  1.000000  0.577350 -0.000000 )  
               b(2) = (  0.000000  1.154701  0.000000 )  
               b(3) = (  0.000000 -0.000000  0.063200 )  


     PseudoPot. # 1 for Mo read from file:
     ./pseudo/Mo.pbe-spn-kjpaw_psl.1.0.0.UPF
     MD5 check sum: 4396e0c640fcce5c25f020efccf1ab12
     Pseudo is Projector augmented-wave + core cor, Zval = 14.0
     Generated using &quot;atomic&quot; code by A. Dal Corso  v.6.3
     Shape of augmentation charge: PSQ
     Using radial grid of 1229 points,  6 beta functions with: 
                l(1) =   0
                l(2) =   0
                l(3) =   1
                l(4) =   1
                l(5) =   2
                l(6) =   2
     Q(r) pseudized with 0 coefficients 


     PseudoPot. # 2 for S  read from file:
     ./pseudo/S.pbe-n-kjpaw_psl.1.0.0.UPF
     MD5 check sum: fb45dfebcf3e72a4e1bd4a866ec2e262
     Pseudo is Projector augmented-wave + core cor, Zval =  6.0
     Generated using &quot;atomic&quot; code by A. Dal Corso  v.6.3
     Shape of augmentation charge: PSQ
     Using radial grid of 1151 points,  6 beta functions with: 
                l(1) =   0
                l(2) =   0
                l(3) =   1
                l(4) =   1
                l(5) =   2
                l(6) =   2
     Q(r) pseudized with 0 coefficients 


     atomic species   valence    mass     pseudopotential
     Mo               14.00    95.96000     Mo( 1.00)
     S                 6.00    32.06000     S ( 1.00)

      6 Sym. Ops. (no inversion) found



   Cartesian axes

     site n.     atom                  positions (alat units)
         1        S      tau(   1) = (  -0.0000005   0.5773503  -0.9967195  )
         2        Mo     tau(   2) = (   0.0000000   0.0000000  -0.4993332  )
         3        S      tau(   3) = (  -0.0000005   0.5773503  -0.0017175  )
         4        S      tau(   4) = (   0.5000003   0.2886747   0.9835827  )
         5        Mo     tau(   5) = (  -0.0000005   0.5773503   1.4818950  )
         6        S      tau(   6) = (   0.5000003   0.2886747   1.9798512  )
         7        S      tau(   7) = (   0.0000000   0.0000000   2.9586848  )
         8        Mo     tau(   8) = (   0.5000003   0.2886747   3.4569999  )
         9        S      tau(   9) = (   0.0000000   0.0000000   3.9548385  )
        10        S      tau(  10) = (  -0.0000005   0.5773503   4.9840528  )
        11        Mo     tau(  11) = (   0.0000000   0.0000000   5.4816893  )
        12        S      tau(  12) = (  -0.0000005   0.5773503   5.9788235  )

     number of k points=    30  Methfessel-Paxton smearing, width (Ry)=  0.0200
                       cart. coord. in units 2pi/alat
        k(    1) = (   0.0000000   0.0000000   0.0000000), wk =   0.0078125
        k(    2) = (   0.0000000   0.0721688   0.0000000), wk =   0.0468750
        k(    3) = (   0.0000000   0.1443376   0.0000000), wk =   0.0468750
        k(    4) = (   0.0000000   0.2165064   0.0000000), wk =   0.0468750
        k(    5) = (   0.0000000   0.2886751   0.0000000), wk =   0.0468750
        k(    6) = (   0.0000000   0.3608439   0.0000000), wk =   0.0468750
        k(    7) = (   0.0000000   0.4330127   0.0000000), wk =   0.0468750
        k(    8) = (   0.0000000   0.5051815   0.0000000), wk =   0.0468750
        k(    9) = (   0.0000000  -0.5773503   0.0000000), wk =   0.0234375
        k(   10) = (   0.0625000   0.1082532   0.0000000), wk =   0.0468750
        k(   11) = (   0.0625000   0.1804220   0.0000000), wk =   0.0937500
        k(   12) = (   0.0625000   0.2525907   0.0000000), wk =   0.0937500
        k(   13) = (   0.0625000   0.3247595   0.0000000), wk =   0.0937500
        k(   14) = (   0.0625000   0.3969283   0.0000000), wk =   0.0937500
        k(   15) = (   0.0625000   0.4690971   0.0000000), wk =   0.0937500
        k(   16) = (   0.0625000   0.5412659   0.0000000), wk =   0.0937500
        k(   17) = (   0.1250000   0.2165064   0.0000000), wk =   0.0468750
        k(   18) = (   0.1250000   0.2886751   0.0000000), wk =   0.0937500
        k(   19) = (   0.1250000   0.3608439   0.0000000), wk =   0.0937500
        k(   20) = (   0.1250000   0.4330127   0.0000000), wk =   0.0937500
        k(   21) = (   0.1250000   0.5051815   0.0000000), wk =   0.0937500
        k(   22) = (   0.1250000   0.5773503   0.0000000), wk =   0.0468750
        k(   23) = (   0.1875000   0.3247595   0.0000000), wk =   0.0468750
        k(   24) = (   0.1875000   0.3969283   0.0000000), wk =   0.0937500
        k(   25) = (   0.1875000   0.4690971   0.0000000), wk =   0.0937500
        k(   26) = (   0.1875000   0.5412659   0.0000000), wk =   0.0937500
        k(   27) = (   0.2500000   0.4330127   0.0000000), wk =   0.0468750
        k(   28) = (   0.2500000   0.5051815   0.0000000), wk =   0.0937500
        k(   29) = (   0.2500000   0.5773503   0.0000000), wk =   0.0468750
        k(   30) = (   0.3125000   0.5412659   0.0000000), wk =   0.0468750

     Dense  grid:   797393 G-vectors     FFT dimensions: (  50,  50, 768)

     Smooth grid:   281171 G-vectors     FFT dimensions: (  36,  36, 540)

     Estimated max dynamical RAM per process >       3.90 GB

     Initial potential from superposition of free atoms

     starting charge     103.9962, renormalised to     104.0000

     negative rho (up, down):  1.543E-04 0.000E+00


     %%%%%%%%%%%%%%%%%%%%%%%%%%%%%%%%%%%%%%%%%%%%%%%%%%%%%%%%%%%%%%%%%%%%%%%%
     %                                                                      %
     % You are using vdW-DF, which was implemented by the Thonhauser group. %
     % Please cite the following two papers that made this development      %
     % possible and the two reviews that describe the various versions:     %
     %                                                                      %
     %   T. Thonhauser et al., PRL 115, 136402 (2015).                      %
     %   T. Thonhauser et al., PRB 76, 125112 (2007).                       %
     %   K. Berland et al., Rep. Prog. Phys. 78, 066501 (2015).             %
     %   D.C. Langreth et al., J. Phys.: Condens. Matter 21, 084203 (2009). %
     %                                                                      %
     % If you are calculating stress with vdW-DF, please also cite:         %
     %                                                                      %
     %   R. Sabatini et al., J. Phys.: Condens. Matter 24, 424209 (2012).   %
     %                                                                      %
     %%%%%%%%%%%%%%%%%%%%%%%%%%%%%%%%%%%%%%%%%%%%%%%%%%%%%%%%%%%%%%%%%%%%%%%%

     %%%%%%%%%%%%%%%%%%%%%%%%%%%%%%%%%%%%%%%%%%%%%%%%%%%%%%%%%%%%%%%%%%%%%%%%
     %                                                                      %
     %  vdW-DF NEWS:                                                        %
     %                                                                      %
     %  * vdW-DF3 is now available. DOI: 10.1021/acs.jctc.0c00471           %
     %    use with input_dft = 'vdW-DF3-opt1' or 'vdW-DF3-opt2'             %
     %                                                                      %
     %  * Unscreened and range-separated hybrid vdW-DF-cx functionals       %
     %    DOI: 10.1063/1.4986522 and 10.1088/1361-648X/ac2ad2               %
     %    use with input_dft = 'vdW-DF-cx0'    and 'vdW-DF-ahcx'            %
     %  * Unscreened and range-separated hybrid vdW-DF2-b86r functionals    %
     %    DOI: 10.1063/1.4986522 and DOI: 10.1103/PhysRevX.12.041003        %
     %    use with input_dft = 'vdW-DF2-br0' and 'vdW-DF2-ahbr'             %
     %                                                                      %
     %%%%%%%%%%%%%%%%%%%%%%%%%%%%%%%%%%%%%%%%%%%%%%%%%%%%%%%%%%%%%%%%%%%%%%%%


     Starting wfcs are   72 randomized atomic wfcs
     Checking if some PAW data can be deallocated... 

     total cpu time spent up to now is      122.7 secs

     Self-consistent Calculation

     iteration #  1     ecut=    80.00 Ry     beta= 0.20
     Davidson diagonalization with overlap
     ethr =  1.00E-02,  avg # of iterations =  2.2

     Threshold (ethr) on eigenvalues was too large:
     Diagonalizing with lowered threshold

     Davidson diagonalization with overlap
     ethr =  2.80E-04,  avg # of iterations =  3.5

     negative rho (up, down):  5.200E-05 0.000E+00

     total cpu time spent up to now is      598.5 secs

     total energy              =   -1978.46527438 Ry
     estimated scf accuracy    <       0.44187603 Ry

     iteration #  2     ecut=    80.00 Ry     beta= 0.20
     Davidson diagonalization with overlap
     ethr =  4.25E-04,  avg # of iterations =  1.0

     negative rho (up, down):  2.656E-05 0.000E+00

     total cpu time spent up to now is      776.4 secs

     total energy              =   -1978.28741050 Ry
     estimated scf accuracy    <       0.36281632 Ry

     iteration #  3     ecut=    80.00 Ry     beta= 0.20
     Davidson diagonalization with overlap
     ethr =  3.49E-04,  avg # of iterations =  2.0

     negative rho (up, down):  1.673E-06 0.000E+00

     total cpu time spent up to now is     1012.4 secs

     total energy              =   -1978.36764931 Ry
     estimated scf accuracy    <       0.04385970 Ry

     iteration #  4     ecut=    80.00 Ry     beta= 0.20
     Davidson diagonalization with overlap
     ethr =  4.22E-05,  avg # of iterations =  2.2

     negative rho (up, down):  1.584E-07 0.000E+00

     total cpu time spent up to now is     1241.8 secs

     total energy              =   -1978.37092627 Ry
     estimated scf accuracy    <       0.01555239 Ry

     iteration #  5     ecut=    80.00 Ry     beta= 0.20
     Davidson diagonalization with overlap
     ethr =  1.50E-05,  avg # of iterations =  4.6

     negative rho (up, down):  1.032E-07 0.000E+00

     total cpu time spent up to now is     1461.8 secs

     total energy              =   -1978.37247133 Ry
     estimated scf accuracy    <       0.00396022 Ry

     iteration #  6     ecut=    80.00 Ry     beta= 0.20
     Davidson diagonalization with overlap
     c_bands:  1 eigenvalues not converged
     c_bands:  1 eigenvalues not converged
     c_bands:  1 eigenvalues not converged
     c_bands:  1 eigenvalues not converged
     ethr =  3.81E-06,  avg # of iterations =  7.0

     negative rho (up, down):  8.897E-07 0.000E+00

     total cpu time spent up to now is     1669.5 secs

     total energy              =   -1978.37166884 Ry
     estimated scf accuracy    <       0.00362090 Ry

     iteration #  7     ecut=    80.00 Ry     beta= 0.20
     Davidson diagonalization with overlap
     c_bands:  1 eigenvalues not converged
     c_bands:  1 eigenvalues not converged
     c_bands:  1 eigenvalues not converged
     ethr =  3.48E-06,  avg # of iterations =  6.0

     negative rho (up, down):  1.408E-07 0.000E+00

     total cpu time spent up to now is     1938.2 secs

     total energy              =   -1978.37065321 Ry
     estimated scf accuracy    <       0.01307574 Ry

     iteration #  8     ecut=    80.00 Ry     beta= 0.20
     Davidson diagonalization with overlap
     ethr =  3.48E-06,  avg # of iterations =  3.1

     negative rho (up, down):  2.958E-06 0.000E+00

     total cpu time spent up to now is     2172.1 secs

     total energy              =   -1978.37116400 Ry
     estimated scf accuracy    <       0.00266209 Ry

     iteration #  9     ecut=    80.00 Ry     beta= 0.20
     Davidson diagonalization with overlap
     ethr =  2.56E-06,  avg # of iterations =  6.1

     negative rho (up, down):  2.792E-04 0.000E+00

     total cpu time spent up to now is     2401.1 secs

     total energy              =   -1978.37156596 Ry
     estimated scf accuracy    <       0.00214050 Ry

     iteration # 10     ecut=    80.00 Ry     beta= 0.20
     Davidson diagonalization with overlap
     ethr =  2.06E-06,  avg # of iterations =  1.3

     negative rho (up, down):  5.910E-04 0.000E+00

     total cpu time spent up to now is     2584.4 secs

     total energy              =   -1978.37129369 Ry
     estimated scf accuracy    <       0.00208654 Ry

     iteration # 11     ecut=    80.00 Ry     beta= 0.20
     Davidson diagonalization with overlap
     ethr =  2.01E-06,  avg # of iterations =  1.9

     negative rho (up, down):  4.091E-03 0.000E+00

     total cpu time spent up to now is     2780.9 secs

     total energy              =   -1978.37129317 Ry
     estimated scf accuracy    <       0.00067788 Ry

     iteration # 12     ecut=    80.00 Ry     beta= 0.20
     Davidson diagonalization with overlap
     ethr =  6.52E-07,  avg # of iterations =  6.5

     negative rho (up, down):  2.132E-03 0.000E+00

     total cpu time spent up to now is     3019.6 secs

     total energy              =   -1978.37125008 Ry
     estimated scf accuracy    <       0.00164892 Ry

     iteration # 13     ecut=    80.00 Ry     beta= 0.20
     Davidson diagonalization with overlap
     ethr =  6.52E-07,  avg # of iterations =  2.8

     negative rho (up, down):  3.510E-03 0.000E+00

     total cpu time spent up to now is     3243.1 secs

     total energy              =   -1978.37138535 Ry
     estimated scf accuracy    <       0.00053932 Ry

     iteration # 14     ecut=    80.00 Ry     beta= 0.20
     Davidson diagonalization with overlap
     ethr =  5.19E-07,  avg # of iterations =  1.9

     negative rho (up, down):  4.082E-03 0.000E+00

     total cpu time spent up to now is     3441.2 secs

     total energy              =   -1978.37137168 Ry
     estimated scf accuracy    <       0.00056776 Ry

     iteration # 15     ecut=    80.00 Ry     beta= 0.20
     Davidson diagonalization with overlap
     ethr =  5.19E-07,  avg # of iterations =  2.7

     negative rho (up, down):  3.043E-03 0.000E+00

     total cpu time spent up to now is     3644.2 secs

     total energy              =   -1978.37146732 Ry
     estimated scf accuracy    <       0.00070816 Ry

     iteration # 16     ecut=    80.00 Ry     beta= 0.20
     Davidson diagonalization with overlap
     ethr =  5.19E-07,  avg # of iterations =  3.2

     negative rho (up, down):  4.857E-03 0.000E+00

     total cpu time spent up to now is     3861.0 secs

     total energy              =   -1978.37124876 Ry
     estimated scf accuracy    <       0.00171450 Ry

     iteration # 17     ecut=    80.00 Ry     beta= 0.20
     Davidson diagonalization with overlap
     ethr =  5.19E-07,  avg # of iterations =  2.2

     negative rho (up, down):  4.088E-03 0.000E+00

     total cpu time spent up to now is     4057.9 secs

     total energy              =   -1978.37120893 Ry
     estimated scf accuracy    <       0.00064540 Ry

     iteration # 18     ecut=    80.00 Ry     beta= 0.20
     Davidson diagonalization with overlap
     ethr =  5.19E-07,  avg # of iterations =  2.8

     negative rho (up, down):  3.032E-03 0.000E+00

     total cpu time spent up to now is     4265.6 secs

     total energy              =   -1978.37133059 Ry
     estimated scf accuracy    <       0.00013758 Ry

     iteration # 19     ecut=    80.00 Ry     beta= 0.20
     Davidson diagonalization with overlap
     ethr =  1.32E-07,  avg # of iterations =  2.1

     negative rho (up, down):  1.933E-03 0.000E+00

     total cpu time spent up to now is     4493.4 secs

     total energy              =   -1978.37138419 Ry
     estimated scf accuracy    <       0.00024057 Ry

     iteration # 20     ecut=    80.00 Ry     beta= 0.20
     Davidson diagonalization with overlap
     ethr =  1.32E-07,  avg # of iterations =  3.1

     negative rho (up, down):  1.456E-03 0.000E+00

     total cpu time spent up to now is     4710.6 secs

     total energy              =   -1978.37132048 Ry
     estimated scf accuracy    <       0.00054758 Ry

     iteration # 21     ecut=    80.00 Ry     beta= 0.20
     Davidson diagonalization with overlap
     ethr =  1.32E-07,  avg # of iterations =  2.2

     negative rho (up, down):  1.949E-03 0.000E+00

     total cpu time spent up to now is     4911.6 secs

     total energy              =   -1978.37132397 Ry
     estimated scf accuracy    <       0.00017116 Ry

     iteration # 22     ecut=    80.00 Ry     beta= 0.20
     Davidson diagonalization with overlap
     ethr =  1.32E-07,  avg # of iterations =  1.0

     negative rho (up, down):  2.044E-03 0.000E+00

     total cpu time spent up to now is     5089.2 secs

     total energy              =   -1978.37128688 Ry
     estimated scf accuracy    <       0.00018037 Ry

     iteration # 23     ecut=    80.00 Ry     beta= 0.20
     Davidson diagonalization with overlap
     ethr =  1.32E-07,  avg # of iterations =  2.7

     negative rho (up, down):  1.932E-03 0.000E+00

     total cpu time spent up to now is     5297.7 secs

     total energy              =   -1978.37130559 Ry
     estimated scf accuracy    <       0.00005111 Ry

     iteration # 24     ecut=    80.00 Ry     beta= 0.20
     Davidson diagonalization with overlap
     ethr =  4.91E-08,  avg # of iterations =  1.0

     negative rho (up, down):  2.184E-03 0.000E+00

     total cpu time spent up to now is     5475.1 secs

     total energy              =   -1978.37130284 Ry
     estimated scf accuracy    <       0.00004950 Ry

     iteration # 25     ecut=    80.00 Ry     beta= 0.20
     Davidson diagonalization with overlap
     ethr =  4.76E-08,  avg # of iterations =  1.5

     negative rho (up, down):  2.133E-03 0.000E+00

     total cpu time spent up to now is     5661.9 secs

     total energy              =   -1978.37132810 Ry
     estimated scf accuracy    <       0.00004369 Ry

     iteration # 26     ecut=    80.00 Ry     beta= 0.20
     Davidson diagonalization with overlap
     ethr =  4.20E-08,  avg # of iterations =  1.2

     negative rho (up, down):  1.721E-03 0.000E+00

     total cpu time spent up to now is     5842.8 secs

     total energy              =   -1978.37133035 Ry
     estimated scf accuracy    <       0.00003618 Ry

     iteration # 27     ecut=    80.00 Ry     beta= 0.20
     Davidson diagonalization with overlap
     ethr =  3.48E-08,  avg # of iterations =  1.7

     negative rho (up, down):  1.249E-03 0.000E+00

     total cpu time spent up to now is     6028.2 secs

     total energy              =   -1978.37134181 Ry
     estimated scf accuracy    <       0.00003068 Ry

     iteration # 28     ecut=    80.00 Ry     beta= 0.20
     Davidson diagonalization with overlap
     ethr =  2.95E-08,  avg # of iterations =  1.3

     negative rho (up, down):  1.342E-03 0.000E+00

     total cpu time spent up to now is     6211.0 secs

     total energy              =   -1978.37133173 Ry
     estimated scf accuracy    <       0.00002679 Ry

     iteration # 29     ecut=    80.00 Ry     beta= 0.20
     Davidson diagonalization with overlap
     ethr =  2.58E-08,  avg # of iterations =  5.1

     negative rho (up, down):  1.499E-03 0.000E+00

     total cpu time spent up to now is     6412.1 secs

     total energy              =   -1978.37132061 Ry
     estimated scf accuracy    <       0.00001838 Ry

     iteration # 30     ecut=    80.00 Ry     beta= 0.20
     Davidson diagonalization with overlap
     ethr =  1.77E-08,  avg # of iterations =  1.4

     negative rho (up, down):  1.060E-03 0.000E+00

     total cpu time spent up to now is     6597.4 secs

     total energy              =   -1978.37132550 Ry
     estimated scf accuracy    <       0.00001201 Ry

     iteration # 31     ecut=    80.00 Ry     beta= 0.20
     Davidson diagonalization with overlap
     ethr =  1.16E-08,  avg # of iterations =  5.4

     negative rho (up, down):  7.449E-04 0.000E+00

     total cpu time spent up to now is     6810.2 secs

     total energy              =   -1978.37134019 Ry
     estimated scf accuracy    <       0.00000931 Ry

     iteration # 32     ecut=    80.00 Ry     beta= 0.20
     Davidson diagonalization with overlap
     ethr =  8.95E-09,  avg # of iterations =  1.3

     negative rho (up, down):  5.290E-04 0.000E+00

     total cpu time spent up to now is     6993.5 secs

     total energy              =   -1978.37134424 Ry
     estimated scf accuracy    <       0.00000586 Ry

     iteration # 33     ecut=    80.00 Ry     beta= 0.20
     Davidson diagonalization with overlap
     ethr =  5.63E-09,  avg # of iterations =  1.1

     negative rho (up, down):  1.742E-04 0.000E+00

     total cpu time spent up to now is     7172.6 secs

     total energy              =   -1978.37134410 Ry
     estimated scf accuracy    <       0.00000511 Ry

     iteration # 34     ecut=    80.00 Ry     beta= 0.20
     Davidson diagonalization with overlap
     ethr =  4.91E-09,  avg # of iterations =  1.4

     negative rho (up, down):  1.683E-04 0.000E+00

     total cpu time spent up to now is     7359.7 secs

     total energy              =   -1978.37134413 Ry
     estimated scf accuracy    <       0.00000417 Ry

     iteration # 35     ecut=    80.00 Ry     beta= 0.20
     Davidson diagonalization with overlap
     ethr =  4.01E-09,  avg # of iterations =  1.0

     negative rho (up, down):  3.304E-04 0.000E+00

     total cpu time spent up to now is     7537.0 secs

     total energy              =   -1978.37134109 Ry
     estimated scf accuracy    <       0.00000401 Ry

     iteration # 36     ecut=    80.00 Ry     beta= 0.20
     Davidson diagonalization with overlap
     ethr =  3.86E-09,  avg # of iterations =  2.0

     negative rho (up, down):  2.378E-04 0.000E+00

     total cpu time spent up to now is     7749.9 secs

     total energy              =   -1978.37134124 Ry
     estimated scf accuracy    <       0.00000374 Ry

     iteration # 37     ecut=    80.00 Ry     beta= 0.20
     Davidson diagonalization with overlap
     ethr =  3.60E-09,  avg # of iterations =  1.3

     negative rho (up, down):  1.477E-04 0.000E+00

     total cpu time spent up to now is     7932.2 secs

     total energy              =   -1978.37134153 Ry
     estimated scf accuracy    <       0.00000332 Ry

     iteration # 38     ecut=    80.00 Ry     beta= 0.20
     Davidson diagonalization with overlap
     ethr =  3.19E-09,  avg # of iterations =  1.2

     negative rho (up, down):  2.764E-04 0.000E+00

     total cpu time spent up to now is     8114.9 secs

     total energy              =   -1978.37134019 Ry
     estimated scf accuracy    <       0.00000339 Ry

     iteration # 39     ecut=    80.00 Ry     beta= 0.20
     Davidson diagonalization with overlap
     ethr =  3.19E-09,  avg # of iterations =  2.0

     negative rho (up, down):  1.899E-04 0.000E+00

     total cpu time spent up to now is     8334.1 secs

     total energy              =   -1978.37134051 Ry
     estimated scf accuracy    <       0.00000314 Ry

     iteration # 40     ecut=    80.00 Ry     beta= 0.20
     Davidson diagonalization with overlap
     ethr =  3.01E-09,  avg # of iterations =  1.4

     negative rho (up, down):  1.265E-04 0.000E+00

     total cpu time spent up to now is     8517.9 secs

     total energy              =   -1978.37134098 Ry
     estimated scf accuracy    <       0.00000240 Ry

     iteration # 41     ecut=    80.00 Ry     beta= 0.20
     Davidson diagonalization with overlap
     ethr =  2.31E-09,  avg # of iterations =  1.7

     negative rho (up, down):  2.090E-04 0.000E+00

     total cpu time spent up to now is     8709.9 secs

     total energy              =   -1978.37133983 Ry
     estimated scf accuracy    <       0.00000171 Ry

     iteration # 42     ecut=    80.00 Ry     beta= 0.20
     Davidson diagonalization with overlap
     ethr =  1.64E-09,  avg # of iterations =  1.3

     negative rho (up, down):  1.729E-04 0.000E+00

     total cpu time spent up to now is     8893.8 secs

     total energy              =   -1978.37134296 Ry
     estimated scf accuracy    <       0.00000148 Ry

     iteration # 43     ecut=    80.00 Ry     beta= 0.20
     Davidson diagonalization with overlap
     ethr =  1.42E-09,  avg # of iterations =  3.0

     negative rho (up, down):  1.752E-04 0.000E+00

     total cpu time spent up to now is     9137.5 secs

     total energy              =   -1978.37134246 Ry
     estimated scf accuracy    <       0.00000179 Ry

     iteration # 44     ecut=    80.00 Ry     beta= 0.20
     Davidson diagonalization with overlap
     ethr =  1.42E-09,  avg # of iterations =  3.5

     negative rho (up, down):  1.999E-04 0.000E+00

     total cpu time spent up to now is     9376.6 secs

     total energy              =   -1978.37134222 Ry
     estimated scf accuracy    <       0.00000055 Ry

     iteration # 45     ecut=    80.00 Ry     beta= 0.20
     Davidson diagonalization with overlap
     ethr =  5.32E-10,  avg # of iterations =  1.7

     negative rho (up, down):  2.242E-04 0.000E+00

     total cpu time spent up to now is     9568.6 secs

     total energy              =   -1978.37134149 Ry
     estimated scf accuracy    <       0.00000033 Ry

     iteration # 46     ecut=    80.00 Ry     beta= 0.20
     Davidson diagonalization with overlap
     ethr =  3.19E-10,  avg # of iterations =  3.0

     negative rho (up, down):  2.049E-04 0.000E+00

     total cpu time spent up to now is     9781.5 secs

     total energy              =   -1978.37134216 Ry
     estimated scf accuracy    <       0.00000011 Ry

     iteration # 47     ecut=    80.00 Ry     beta= 0.20
     Davidson diagonalization with overlap
     ethr =  1.10E-10,  avg # of iterations =  2.2

     negative rho (up, down):  1.989E-04 0.000E+00

     total cpu time spent up to now is     9982.1 secs

     total energy              =   -1978.37134220 Ry
     estimated scf accuracy    <       0.00000006 Ry

     iteration # 48     ecut=    80.00 Ry     beta= 0.20
     Davidson diagonalization with overlap
     ethr =  6.03E-11,  avg # of iterations =  1.7

     negative rho (up, down):  1.970E-04 0.000E+00

     total cpu time spent up to now is    10170.9 secs

     total energy              =   -1978.37134127 Ry
     estimated scf accuracy    <       0.00000005 Ry

     iteration # 49     ecut=    80.00 Ry     beta= 0.20
     Davidson diagonalization with overlap
     ethr =  4.46E-11,  avg # of iterations =  2.3

     negative rho (up, down):  1.869E-04 0.000E+00

     total cpu time spent up to now is    10408.7 secs

     total energy              =   -1978.37134158 Ry
     estimated scf accuracy    <       0.00000003 Ry

     iteration # 50     ecut=    80.00 Ry     beta= 0.20
     Davidson diagonalization with overlap
     ethr =  3.08E-11,  avg # of iterations =  2.1

     negative rho (up, down):  1.875E-04 0.000E+00

     total cpu time spent up to now is    10616.9 secs

     total energy              =   -1978.37134183 Ry
     estimated scf accuracy    <       0.00000001 Ry

     iteration # 51     ecut=    80.00 Ry     beta= 0.20
     Davidson diagonalization with overlap
     ethr =  1.27E-11,  avg # of iterations =  2.2

     negative rho (up, down):  1.886E-04 0.000E+00

     total cpu time spent up to now is    10827.5 secs

     total energy              =   -1978.37134165 Ry
     estimated scf accuracy    <       0.00000001 Ry

     iteration # 52     ecut=    80.00 Ry     beta= 0.20
     Davidson diagonalization with overlap
     ethr =  1.04E-11,  avg # of iterations =  2.0

     negative rho (up, down):  1.801E-04 0.000E+00

     total cpu time spent up to now is    11020.0 secs

     End of self-consistent calculation

          k = 0.0000 0.0000 0.0000 ( 35507 PWs)   bands (ev):

   -58.9193 -58.8858 -58.8342 -58.7846 -33.0937 -33.0602 -33.0087 -32.9590
   -32.8569 -32.8569 -32.8223 -32.8223 -32.7707 -32.7707 -32.7223 -32.7223
   -12.2564 -12.1945 -12.1234 -12.0306 -11.0259 -10.9162 -10.8144 -10.6981
    -4.0748  -3.8451  -3.5951  -3.3210  -0.6779  -0.6533  -0.6533  -0.6103
    -0.6103  -0.5591  -0.5591  -0.5177  -0.5177  -0.2181   0.3084   0.4648
     0.4649   0.5043   0.5043   0.5551   0.5551   0.6007   0.6007   0.9164
     1.5556   1.9673   2.2612   2.4921   4.7119   4.7120   4.7424   4.7425
     4.7902   4.7902   4.8503   4.8504   4.9453   4.9476

          k = 0.0000 0.0722 0.0000 ( 35493 PWs)   bands (ev):

   -58.9177 -58.8842 -58.8326 -58.7831 -33.0907 -33.0572 -33.0057 -32.9559
   -32.8725 -32.8605 -32.8379 -32.8259 -32.7862 -32.7742 -32.7378 -32.7258
   -12.1967 -12.1350 -12.0642 -11.9715 -10.9982 -10.8903 -10.7899 -10.6750
    -4.0056  -3.7772  -3.5279  -3.2531  -0.8094  -0.7867  -0.7458  -0.6947
    -0.6522  -0.5909  -0.5480  -0.4969  -0.4552  -0.4081  -0.0401   0.2025
     0.3679   0.4073   0.4583   0.5044   0.5727   0.6506   0.7788   1.1267
     1.5610   1.9497   2.2082   2.4081   4.6340   4.6640   4.7131   4.7646
     4.7691   4.8087   4.8131   4.8264   4.8637   4.8796

          k = 0.0000 0.1443 0.0000 ( 35435 PWs)   bands (ev):

   -58.9133 -58.8798 -58.8282 -58.7786 -33.0820 -33.0485 -32.9970 -32.9473
   -32.9166 -32.8820 -32.8705 -32.8359 -32.8303 -32.7843 -32.7819 -32.7358
   -12.0226 -11.9618 -11.8915 -11.7993 -10.9174 -10.8146 -10.7184 -10.6079
    -3.8129  -3.5894  -3.3434  -3.0682  -1.1417  -1.1079  -1.0963  -1.0443
    -0.9982  -0.7871  -0.5182  -0.4112  -0.3689  -0.3178  -0.3123  -0.2751
     0.1171   0.1566   0.2077   0.2550   0.6322   0.7481   0.9372   1.2629
     1.5377   1.8381   2.0121   2.1431   4.3440   4.4247   4.4839   4.5178
     4.6096   4.6213   4.6571   4.6846   4.7045   4.7376

          k = 0.0000 0.2165 0.0000 ( 35345 PWs)   bands (ev):

   -58.9066 -58.8732 -58.8215 -58.7720 -33.0690 -33.0356 -32.9841 -32.9821
   -32.9473 -32.9343 -32.8957 -32.8855 -32.8509 -32.8474 -32.7992 -32.7508
   -11.7490 -11.6899 -11.6210 -11.5299 -10.7907 -10.6963 -10.6067 -10.5032
    -3.5506  -3.3412  -3.1093  -2.8437  -1.5723  -1.5343  -1.5017  -1.4681
    -1.4083  -1.2117  -1.0183  -0.8615  -0.2079  -0.1705  -0.1366  -0.1202
    -0.0926  -0.0701  -0.0399   0.0014   0.5413   0.6892   0.8944   1.1726
     1.3961   1.5615   1.6523   1.7306   3.9583   4.0989   4.2638   4.4353
     4.4483   4.4879   4.5487   4.5606   4.6309   4.7039

          k = 0.0000 0.2887 0.0000 ( 35323 PWs)   bands (ev):

   -58.8988 -58.8653 -58.8137 -58.7641 -33.0585 -33.0536 -33.0236 -33.0202
   -32.9720 -32.9687 -32.9238 -32.9189 -32.9032 -32.8685 -32.8169 -32.7685
   -11.4014 -11.3455 -11.2790 -11.1905 -10.6310 -10.5477 -10.4668 -10.3726
    -3.3454  -3.1754  -2.9931  -2.7868  -1.9615  -1.9178  -1.8512  -1.8319
    -1.7089  -1.6136  -1.5007  -1.4049  -0.5362  -0.4971  -0.4455  -0.3955
     0.1902   0.2311   0.2829   0.3235   0.3314   0.4920   0.6924   0.9227
     1.1197   1.2004   1.2567   1.3209   3.8167   3.9946   4.2103   4.2461
     4.2976   4.3582   4.4384   4.4612   4.7674   4.9487

          k = 0.0000 0.3608 0.0000 ( 35299 PWs)   bands (ev):

   -58.8909 -58.8574 -58.8058 -58.7563 -33.1339 -33.0990 -33.0474 -33.0382
   -33.0048 -32.9992 -32.9533 -32.9207 -32.9035 -32.8861 -32.8344 -32.7860
   -11.0182 -10.9677 -10.9052 -10.8214 -10.4575 -10.3877 -10.3166 -10.2333
    -3.3759  -3.2712  -3.1669  -3.0445  -2.3285  -2.2405  -2.1511  -2.0142
    -1.9681  -1.8714  -1.8006  -1.7087  -0.8243  -0.7851  -0.7332  -0.6825
     0.0885   0.2603   0.4438   0.5132   0.5539   0.6075   0.6425   0.6629
     0.8984   0.9704   1.0272   1.0906   3.9323   4.1041   4.1412   4.1865
     4.2437   4.3109   4.3173   4.5487   5.0909   5.2678

          k = 0.0000 0.4330 0.0000 ( 35224 PWs)   bands (ev):

   -58.8842 -58.8508 -58.7991 -58.7496 -33.1973 -33.1623 -33.1106 -33.0625
   -33.0251 -32.9917 -32.9402 -32.9356 -32.9009 -32.8904 -32.8492 -32.8009
   -10.6548 -10.6117 -10.5545 -10.4784 -10.2968 -10.2413 -10.1797 -10.1079
    -3.6064  -3.5444  -3.4813  -3.3935  -2.6654  -2.5849  -2.5114  -2.3955
    -2.0860  -1.9948  -1.9052  -1.7900  -1.0449  -1.0055  -0.9535  -0.9023
    -0.0841   0.0787   0.2450   0.4236   0.7713   0.8146   0.8716   0.9160
     0.9358   1.0001   1.0682   1.1438   4.1327   4.1706   4.1973   4.2238
     4.2875   4.3346   4.4938   4.6774   5.3951   5.5521

          k = 0.0000 0.5052 0.0000 ( 35152 PWs)   bands (ev):

   -58.8797 -58.8463 -58.7947 -58.7451 -33.2392 -33.2042 -33.1526 -33.1045
   -33.0163 -32.9830 -32.9455 -32.9315 -32.9108 -32.8816 -32.8591 -32.8108
   -10.3839 -10.3485 -10.2964 -10.2310 -10.1800 -10.1371 -10.0830 -10.0205
    -3.8340  -3.7895  -3.7391  -3.6599  -2.9002  -2.8388  -2.7821  -2.6763
    -2.1870  -2.1016  -2.0149  -1.9033  -1.1825  -1.1431  -1.0910  -1.0394
    -0.1769  -0.0230   0.1287   0.2901   0.9275   0.9754   1.0360   1.1049
     1.1076   1.1843   1.2525   1.3317   4.1778   4.2126   4.2640   4.3187
     4.4940   4.5856   4.6827   4.8022   5.5877   5.7243

          k = 0.0000-0.5774 0.0000 ( 35026 PWs)   bands (ev):

   -58.8782 -58.8447 -58.7931 -58.7435 -33.2539 -33.2189 -33.1672 -33.1192
   -33.0132 -32.9799 -32.9489 -32.9284 -32.9142 -32.8785 -32.8626 -32.8142
   -10.2815 -10.2494 -10.1995 -10.1462 -10.1317 -10.0989 -10.0484  -9.9894
    -3.9255  -3.8853  -3.8372  -3.7591  -2.9839  -2.9317  -2.8797  -2.7753
    -2.2348  -2.1506  -2.0653  -1.9558  -1.2292  -1.1898  -1.1376  -1.0859
    -0.2045  -0.0545   0.0909   0.2451   0.9780   1.0283   1.0905   1.1649
     1.2224   1.2874   1.3452   1.4188   4.2049   4.2396   4.2908   4.3422
     4.6520   4.7106   4.7682   4.8455   5.6482   5.7626

          k = 0.0625 0.1083 0.0000 ( 35467 PWs)   bands (ev):

   -58.9147 -58.8812 -58.8296 -58.7801 -33.0848 -33.0513 -32.9998 -32.9501
   -32.9019 -32.8677 -32.8672 -32.8331 -32.8156 -32.7814 -32.7672 -32.7330
   -12.0798 -12.0187 -11.9482 -11.8558 -10.9439 -10.8394 -10.7419 -10.6299
    -3.8742  -3.6488  -3.4013  -3.1258  -1.0329  -1.0096  -0.9865  -0.9351
    -0.8907  -0.6691  -0.4718  -0.4293  -0.3805  -0.3684  -0.3362  -0.1460
     0.1532   0.1921   0.2430   0.2894   0.6701   0.7711   0.9418   1.2679
     1.5540   1.8874   2.0843   2.2333   4.4701   4.5041   4.5214   4.5704
     4.6072   4.6409   4.6634   4.7308   4.7484   4.8171

          k = 0.0625 0.1804 0.0000 ( 35370 PWs)   bands (ev):

   -58.9092 -58.8757 -58.8241 -58.7745 -33.0740 -33.0405 -32.9890 -32.9555
   -32.9393 -32.9207 -32.8815 -32.8691 -32.8468 -32.8208 -32.7952 -32.7468
   -11.8558 -11.7959 -11.7264 -11.6348 -10.8400 -10.7422 -10.6501 -10.5438
    -3.6426  -3.4260  -3.1860  -2.9132  -1.4117  -1.3733  -1.3367  -1.3089
    -1.2619  -1.0244  -0.7920  -0.6079  -0.2548  -0.2201  -0.2055  -0.1796
    -0.1558  -0.1308  -0.1097  -0.0759   0.7191   0.8399   1.0193   1.2948
     1.4769   1.6932   1.8040   1.8916   4.0718   4.1861   4.3048   4.4060
     4.4642   4.5078   4.5510   4.5791   4.6215   4.6474

          k = 0.0625 0.2526 0.0000 ( 35362 PWs)   bands (ev):

   -58.9019 -58.8685 -58.8168 -58.7673 -33.0598 -33.0264 -33.0247 -32.9899
   -32.9749 -32.9383 -32.9251 -32.8994 -32.8900 -32.8648 -32.8131 -32.7647
   -11.5446 -11.4872 -11.4196 -11.3298 -10.6962 -10.6081 -10.5236 -10.4255
    -3.3954  -3.2032  -2.9919  -2.7492  -1.7961  -1.7619  -1.7141  -1.6863
    -1.5936  -1.4150  -1.2607  -1.1367  -0.5902  -0.5459  -0.4947  -0.4437
     0.0152   0.0553   0.1066   0.1540   0.6155   0.7469   0.9178   1.1350
     1.2658   1.3615   1.4185   1.4806   3.7988   3.9602   4.1327   4.2726
     4.3571   4.4061   4.4570   4.5006   4.5899   4.7372

          k = 0.0625 0.3248 0.0000 ( 35310 PWs)   bands (ev):

   -58.8941 -58.8606 -58.8090 -58.7594 -33.0989 -33.0640 -33.0444 -33.0123
   -33.0110 -32.9642 -32.9595 -32.9188 -32.9097 -32.8841 -32.8325 -32.7841
   -11.1776 -11.1246 -11.0602 -10.9740 -10.5282 -10.4525 -10.3772 -10.2891
    -3.2996  -3.1640  -3.0250  -2.8686  -2.1293  -2.0673  -1.9887  -1.9228
    -1.8010  -1.7633  -1.6809  -1.6352  -0.8939  -0.8409  -0.7861  -0.7252
     0.2537   0.2878   0.3377   0.3910   0.4091   0.5321   0.6866   0.8663
     1.0297   1.0835   1.1345   1.1917   3.7583   3.9248   4.0766   4.1880
     4.2870   4.3494   4.4117   4.5410   4.8264   5.0033

          k = 0.0625 0.3969 0.0000 ( 35243 PWs)   bands (ev):

   -58.8868 -58.8533 -58.8017 -58.7521 -33.1666 -33.1317 -33.0800 -33.0319
   -33.0301 -32.9967 -32.9452 -32.9366 -32.9020 -32.8954 -32.8503 -32.8020
   -10.8010 -10.7545 -10.6949 -10.6149 -10.3588 -10.2970 -10.2313 -10.1546
    -3.4498  -3.3705  -3.2916  -3.1915  -2.5011  -2.4193  -2.3431  -2.2265
    -2.0158  -1.9249  -1.8376  -1.7208  -1.0920  -1.0391  -0.9833  -0.9211
     0.1418   0.2737   0.3914   0.4031   0.4511   0.5052   0.5281   0.6187
     1.0365   1.0835   1.1341   1.1882   3.8944   4.0257   4.1259   4.2181
     4.3291   4.3983   4.4696   4.6246   5.1597   5.3180

          k = 0.0625 0.4691 0.0000 ( 35169 PWs)   bands (ev):

   -58.8812 -58.8477 -58.7961 -58.7466 -33.2180 -33.1830 -33.1313 -33.0833
   -33.0192 -32.9858 -32.9503 -32.9343 -32.9156 -32.8845 -32.8639 -32.8156
   -10.4787 -10.4401 -10.3860 -10.3155 -10.2170 -10.1689 -10.1119 -10.0458
    -3.6862  -3.6347  -3.5796  -3.4973  -2.8154  -2.7525  -2.6952  -2.5950
    -2.1144  -2.0293  -1.9407  -1.8251  -1.1988  -1.1558  -1.1031  -1.0444
    -0.0487   0.0853   0.2178   0.3626   0.5287   0.5691   0.6278   0.7004
     1.2101   1.2595   1.3112   1.3710   4.0918   4.1661   4.2230   4.2957
     4.4674   4.5386   4.6205   4.7460   5.4710   5.6016

          k = 0.0625 0.5413 0.0000 ( 35128 PWs)   bands (ev):

   -58.8782 -58.8447 -58.7931 -58.7435 -33.2456 -33.2106 -33.1589 -33.1109
   -33.0132 -32.9799 -32.9576 -32.9284 -32.9229 -32.8785 -32.8713 -32.8229
   -10.2870 -10.2544 -10.2042 -10.1478 -10.1311 -10.0955 -10.0445  -9.9852
    -3.8454  -3.8046  -3.7561  -3.6774  -2.9920  -2.9434  -2.8930  -2.7955
    -2.2032  -2.1188  -2.0324  -1.9215  -1.2422  -1.2079  -1.1573  -1.1029
    -0.1533  -0.0166   0.1147   0.2554   0.6212   0.6646   0.7231   0.7982
     1.3652   1.4176   1.4712   1.5369   4.2045   4.2376   4.2860   4.3391
     4.6452   4.7092   4.7726   4.8571   5.6973   5.7939

          k = 0.1250 0.2165 0.0000 ( 35331 PWs)   bands (ev):

   -58.9030 -58.8696 -58.8179 -58.7684 -33.0619 -33.0285 -33.0107 -32.9770
   -32.9759 -32.9272 -32.9243 -32.9003 -32.8760 -32.8656 -32.8140 -32.7656
   -11.5937 -11.5359 -11.4679 -11.3778 -10.7185 -10.6288 -10.5431 -10.4436
    -3.4155  -3.2159  -2.9948  -2.7397  -1.7277  -1.6975  -1.6496  -1.6088
    -1.5153  -1.2778  -1.0904  -0.9493  -0.7293  -0.6843  -0.6312  -0.5845
    -0.0643  -0.0250   0.0259   0.0730   0.8022   0.9150   1.0635   1.2504
     1.3453   1.4375   1.4925   1.5497   3.7883   3.9393   4.0930   4.2352
     4.3508   4.3832   4.4155   4.4668   4.5377   4.6389

          k = 0.1250 0.2887 0.0000 ( 35357 PWs)   bands (ev):

   -58.8958 -58.8623 -58.8107 -58.7611 -33.0741 -33.0477 -33.0393 -33.0143
   -32.9876 -32.9628 -32.9394 -32.9236 -32.9130 -32.8889 -32.8373 -32.7889
   -11.2615 -11.2072 -11.1419 -11.0547 -10.5649 -10.4860 -10.4084 -10.3179
    -3.2534  -3.0953  -2.9289  -2.7422  -1.9652  -1.9424  -1.8801  -1.8198
    -1.7075  -1.6020  -1.5197  -1.4546  -1.1568  -1.0822  -1.0032  -0.9051
     0.0434   0.0790   0.1301   0.1844   0.7298   0.8333   0.9552   1.0875
     1.1447   1.1719   1.2154   1.2658   3.6236   3.7955   3.9663   4.1103
     4.3448   4.3814   4.4374   4.4819   4.6093   4.7650

          k = 0.1250 0.3608 0.0000 ( 35341 PWs)   bands (ev):

   -58.8885 -58.8550 -58.8034 -58.7538 -33.1364 -33.1015 -33.0499 -33.0335
   -33.0017 -33.0001 -32.9486 -32.9473 -32.9126 -32.8988 -32.8610 -32.8126
   -10.8970 -10.8483 -10.7871 -10.7049 -10.3976 -10.3316 -10.2631 -10.1830
    -3.2953  -3.1948  -3.0950  -2.9773  -2.3007  -2.2346  -2.1716  -2.0758
    -1.9233  -1.8478  -1.7716  -1.6570  -1.3529  -1.2403  -1.1388  -1.0376
    -0.0104   0.0241   0.0760   0.1364   0.5114   0.6030   0.7004   0.8170
     1.0916   1.1249   1.1766   1.2290   3.6586   3.8351   4.0195   4.1795
     4.4163   4.4607   4.5167   4.6039   4.8211   4.9838

          k = 0.1250 0.4330 0.0000 ( 35215 PWs)   bands (ev):

   -58.8823 -58.8489 -58.7972 -58.7477 -33.1886 -33.1537 -33.1020 -33.0539
   -33.0214 -32.9880 -32.9675 -32.9365 -32.9328 -32.8867 -32.8811 -32.8328
   -10.5537 -10.5125 -10.4565 -10.3825 -10.2421 -10.1896 -10.1300 -10.0608
    -3.4736  -3.4090  -3.3434  -3.2536  -2.7134  -2.6648  -2.6163  -2.5338
    -1.9873  -1.9099  -1.8236  -1.7043  -1.3827  -1.2781  -1.1871  -1.0947
    -0.0620  -0.0157   0.0413   0.1174   0.2386   0.3246   0.4132   0.5233
     1.2292   1.2661   1.3180   1.3708   3.8686   4.0266   4.1961   4.3472
     4.5251   4.5704   4.6268   4.6878   5.1270   5.2587

          k = 0.1250 0.5052 0.0000 ( 35141 PWs)   bands (ev):

   -58.8782 -58.8447 -58.7931 -58.7435 -33.2232 -33.1882 -33.1366 -33.0885
   -33.0133 -32.9810 -32.9799 -32.9463 -32.9284 -32.8946 -32.8785 -32.8463
   -10.3001 -10.2661 -10.2151 -10.1544 -10.1270 -10.0876 -10.0354  -9.9751
    -3.6355  -3.5903  -3.5390  -3.4576  -3.0075  -2.9704  -2.9234  -2.8424
    -2.1066  -2.0214  -1.9345  -1.8236  -1.3313  -1.2579  -1.1903  -1.1133
    -0.0677   0.0080   0.0468   0.0691   0.1194   0.1624   0.2051   0.3121
     1.4163   1.4613   1.5144   1.5741   4.0954   4.1847   4.2631   4.3475
     4.6776   4.7361   4.7978   4.8873   5.4126   5.5026

          k = 0.1250 0.5774 0.0000 ( 35180 PWs)   bands (ev):

   -58.8767 -58.8433 -58.7916 -58.7421 -33.2353 -33.2003 -33.1487 -33.1006
   -33.0104 -32.9858 -32.9771 -32.9510 -32.9256 -32.8994 -32.8757 -32.8511
   -10.2050 -10.1738 -10.1253 -10.0914 -10.0680 -10.0473 -10.0012  -9.9444
    -3.6981  -3.6601  -3.6128  -3.5327  -3.1122  -3.0789  -3.0316  -2.9503
    -2.1671  -2.0810  -1.9938  -1.8847  -1.2826  -1.2401  -1.1868  -1.1188
    -0.1272  -0.0103   0.0159   0.0653   0.0916   0.1374   0.1794   0.2565
     1.5092   1.5593   1.6145   1.6794   4.1717   4.2045   4.2527   4.3076
     4.7893   4.8556   4.9113   4.9860   5.5284   5.6032

          k = 0.1875 0.3248 0.0000 ( 35337 PWs)   bands (ev):

   -58.8891 -58.8556 -58.8040 -58.7544 -33.1228 -33.0879 -33.0363 -33.0347
   -33.0013 -32.9881 -32.9541 -32.9498 -32.9194 -32.8999 -32.8677 -32.8194
   -10.9303 -10.8809 -10.8192 -10.7363 -10.4108 -10.3433 -10.2738 -10.1926
    -3.2300  -3.1186  -3.0075  -2.8801  -2.1696  -2.1229  -2.0751  -2.0080
    -1.8744  -1.8132  -1.7480  -1.6753  -1.4860  -1.3558  -1.2252  -1.1064
    -0.1842  -0.1504  -0.0993  -0.0373   0.6759   0.7523   0.8282   0.9250
     1.0989   1.1323   1.1850   1.2410   3.5685   3.7591   3.9660   4.1579
     4.4396   4.4705   4.5257   4.5677   4.6926   4.8480

          k = 0.1875 0.3969 0.0000 ( 35241 PWs)   bands (ev):

   -58.8829 -58.8495 -58.7978 -58.7483 -33.1648 -33.1299 -33.0782 -33.0301
   -33.0226 -32.9892 -32.9849 -32.9502 -32.9377 -32.8986 -32.8878 -32.8503
   -10.5949 -10.5522 -10.4952 -10.4194 -10.2545 -10.1996 -10.1384 -10.0674
    -3.3132  -3.2347  -3.1563  -3.0579  -2.6237  -2.5976  -2.5549  -2.4906
    -1.8431  -1.7941  -1.7316  -1.6418  -1.4783  -1.3625  -1.2420  -1.1328
    -0.5007  -0.4614  -0.4072  -0.3391   0.4531   0.5054   0.5584   0.6445
     1.2005   1.2398   1.2940   1.3518   3.7230   3.9166   4.1449   4.3983
     4.5550   4.5848   4.6339   4.6859   4.8525   5.0006

          k = 0.1875 0.4691 0.0000 ( 35167 PWs)   bands (ev):

   -58.8782 -58.8447 -58.7931 -58.7435 -33.1953 -33.1604 -33.1087 -33.0606
   -33.0133 -33.0099 -32.9799 -32.9752 -32.9284 -32.9235 -32.8786 -32.8752
   -10.3129 -10.2776 -10.2258 -10.1621 -10.1218 -10.0797 -10.0263  -9.9649
    -3.3973  -3.3398  -3.2795  -3.1931  -3.0209  -2.9945  -2.9484  -2.8854
    -1.9350  -1.8486  -1.7722  -1.6862  -1.4334  -1.3124  -1.2058  -1.1006
    -0.6827  -0.6225  -0.5518  -0.4566   0.1534   0.2160   0.2727   0.3579
     1.4004   1.4388   1.4921   1.5458   3.9490   4.0814   4.2165   4.3493
     4.7195   4.7700   4.8263   4.9228   5.0690   5.1634

          k = 0.1875 0.5413 0.0000 ( 35162 PWs)   bands (ev):

   -58.8756 -58.8422 -58.7905 -58.7410 -33.2114 -33.1764 -33.1247 -33.0766
   -33.0238 -33.0083 -32.9891 -32.9749 -32.9374 -32.9234 -32.8892 -32.8735
   -10.1482 -10.1175 -10.0709 -10.0495 -10.0220 -10.0010  -9.9618  -9.9073
    -3.4314  -3.3946  -3.3463  -3.2603  -3.2372  -3.2089  -3.1611  -3.0967
    -2.0797  -1.9893  -1.9030  -1.8040  -1.3004  -1.2243  -1.1542  -1.0659
    -0.7275  -0.6480  -0.5677  -0.4679  -0.0578   0.0113   0.0725   0.1569
     1.5852   1.6283   1.6824   1.7417   4.0245   4.0729   4.1254   4.1903
     4.9076   4.9789   5.0494   5.1643   5.1951   5.2508

          k = 0.2500 0.4330 0.0000 ( 35195 PWs)   bands (ev):

   -58.8782 -58.8447 -58.7931 -58.7435 -33.1808 -33.1459 -33.0942 -33.0461
   -33.0248 -33.0133 -32.9901 -32.9800 -32.9384 -32.9285 -32.8902 -32.8786
   -10.3181 -10.2823 -10.2301 -10.1654 -10.1195 -10.0765 -10.0226  -9.9607
    -3.2887  -3.2223  -3.1545  -3.0721  -3.0256  -2.9979  -2.9532  -2.9030
    -1.7362  -1.7271  -1.6642  -1.6176  -1.4143  -1.3083  -1.1939  -1.0838
    -1.0044  -0.9668  -0.9133  -0.8586   0.2355   0.2509   0.3093   0.3932
     1.3837   1.4224   1.4763   1.5292   3.8873   4.0331   4.1878   4.3430
     4.7317   4.7740   4.8246   4.9221   4.9472   5.0546

          k = 0.2500 0.5052 0.0000 ( 35193 PWs)   bands (ev):

   -58.8750 -58.8416 -58.7899 -58.7404 -33.1856 -33.1506 -33.0989 -33.0574
   -33.0509 -33.0227 -33.0071 -32.9738 -32.9710 -32.9227 -32.9223 -32.8724
   -10.1200 -10.0893 -10.0442 -10.0251  -9.9979  -9.9745  -9.9380  -9.8849
    -3.3262  -3.3047  -3.2609  -3.2041  -3.1741  -3.1190  -3.0617  -2.9814
    -1.9085  -1.8178  -1.7524  -1.6932  -1.3565  -1.3053  -1.2578  -1.2044
    -1.1756  -1.1047  -1.0299  -0.9690  -0.0469  -0.0116   0.0485   0.1322
     1.6244   1.6619   1.7150   1.7672   3.8924   3.9525   4.0133   4.0897
     4.8819   4.9194   4.9785   4.9893   5.1656   5.2254

          k = 0.2500 0.5774 0.0000 ( 35190 PWs)   bands (ev):

   -58.8739 -58.8405 -58.7888 -58.7393 -33.1854 -33.1504 -33.0988 -33.0707
   -33.0507 -33.0359 -33.0049 -32.9843 -32.9716 -32.9360 -32.9201 -32.8702
   -10.0472 -10.0176  -9.9943  -9.9728  -9.9579  -9.9237  -9.9020  -9.8572
    -3.4282  -3.4053  -3.3610  -3.3023  -3.0875  -3.0530  -3.0060  -2.9312
    -2.0643  -1.9765  -1.8995  -1.8180  -1.3919  -1.3211  -1.2511  -1.1639
    -1.1339  -1.0609  -0.9872  -0.9356  -0.1691  -0.1385  -0.0800  -0.0043
     1.7517   1.7905   1.8438   1.8992   3.8175   3.8526   3.9031   3.9529
     4.9038   4.9548   4.9825   5.0420   5.3168   5.3702

          k = 0.3125 0.5413 0.0000 ( 35172 PWs)   bands (ev):

   -58.8733 -58.8399 -58.7882 -58.7387 -33.1644 -33.1294 -33.0991 -33.0777
   -33.0643 -33.0296 -33.0127 -33.0037 -32.9704 -32.9644 -32.9189 -32.8690
   -10.0118  -9.9824  -9.9719  -9.9471  -9.9298  -9.8997  -9.8761  -9.8382
    -3.4979  -3.4732  -3.4278  -3.3707  -2.8616  -2.8176  -2.7681  -2.6873
    -2.0517  -2.0469  -2.0120  -1.9440  -1.5745  -1.5576  -1.5270  -1.4831
    -1.0736  -1.0077  -0.9489  -0.8787  -0.2542  -0.2186  -0.1548  -0.0746
     1.8337   1.8694   1.9224   1.9746   3.7006   3.7376   3.7883   3.8373
     4.8426   4.8729   4.8886   4.9654   5.4125   5.4894

     the Fermi energy is     2.9631 ev

!    total energy              =   -1978.37134175 Ry
     total all-electron energy =    -38771.692187 Ry
     estimated scf accuracy    <          7.7E-09 Ry
     smearing contrib. (-TS)   =       0.00005120 Ry
     internal energy E=F+TS    =   -1978.37139295 Ry

     The total energy is F=E-TS. E is the sum of the following terms:
     one-electron contribution =  -18081.73878263 Ry
     hartree contribution      =    9062.47947522 Ry
     xc contribution           =    -119.25146816 Ry
     ewald contribution        =    8429.99149564 Ry
     one-center paw contrib.   =   -1269.85211303 Ry

     convergence has been achieved in  52 iterations

     Writing all to output data dir ./tmp/cleave2/cleave_dz001_dz0p2/mos2_cleave.save/ :
     XML data file, charge density, pseudopotentials, collected wavefunctions

     init_run     :    120.54s CPU    122.61s WALL (       1 calls)
     electrons    :  10731.62s CPU  10897.28s WALL (       1 calls)

     Called by init_run:
     wfcinit      :     73.32s CPU     73.98s WALL (       1 calls)
     potinit      :     43.66s CPU     44.07s WALL (       1 calls)
     hinit0       :      0.36s CPU      0.39s WALL (       1 calls)

     Called by electrons:
     c_bands      :   8976.62s CPU   9024.74s WALL (      53 calls)
     sum_band     :   1338.19s CPU   1392.77s WALL (      53 calls)
     v_of_rho     :    210.46s CPU    226.92s WALL (      53 calls)
     newd         :    159.70s CPU    206.47s WALL (      53 calls)
     PAW_pot      :     21.15s CPU     21.16s WALL (      53 calls)
     mix_rho      :     70.06s CPU     71.13s WALL (      53 calls)
     vdW_kernel   :     40.01s CPU     40.02s WALL (       1 calls)

     Called by c_bands:
     init_us_2    :     39.52s CPU     39.56s WALL (    3210 calls)
     init_us_2:cp :     39.51s CPU     39.55s WALL (    3210 calls)
     cegterg      :   8591.74s CPU   8639.49s WALL (    1590 calls)

     Called by *egterg:
     cdiaghg      :     13.52s CPU     13.53s WALL (    5519 calls)
     h_psi        :   4554.91s CPU   4574.56s WALL (    5579 calls)
     s_psi        :   1337.65s CPU   1338.03s WALL (    5579 calls)
     g_psi        :     19.95s CPU     19.96s WALL (    3959 calls)

     Called by h_psi:
     h_psi:calbec :   1738.79s CPU   1739.23s WALL (    5579 calls)
     vloc_psi     :   1470.29s CPU   1471.36s WALL (    5579 calls)
     add_vuspsi   :   1337.90s CPU   1338.27s WALL (    5579 calls)

     General routines
     calbec       :   2511.37s CPU   2512.03s WALL (    7169 calls)
     fft          :     65.30s CPU     65.34s WALL (    3338 calls)
     ffts         :     34.35s CPU     34.37s WALL (    6379 calls)
     fftw         :   1321.29s CPU   1322.06s WALL (  542700 calls)
     interpolate  :      1.52s CPU      1.53s WALL (      53 calls)

     Parallel routines

     PWSCF        :      3h 0m CPU      3h 3m WALL


   This run was terminated on:   2:26:41  10Jun2026            

=------------------------------------------------------------------------------=
   JOB DONE.
=------------------------------------------------------------------------------=
Note: The following floating-point exceptions are signalling: IEEE_UNDERFLOW_FLAG IEEE_DENORMAL
