Authorization required, but no authorization protocol specified

Authorization required, but no authorization protocol specified

Authorization required, but no authorization protocol specified

Authorization required, but no authorization protocol specified

Authorization required, but no authorization protocol specified

Authorization required, but no authorization protocol specified

Authorization required, but no authorization protocol specified

Authorization required, but no authorization protocol specified


     Program PWSCF v.7.3 starts on 11Jun2026 at  6:44:58 

     This program is part of the open-source Quantum ESPRESSO suite
     for quantum simulation of materials; please cite
         "P. Giannozzi et al., J. Phys.:Condens. Matter 21 395502 (2009);
         "P. Giannozzi et al., J. Phys.:Condens. Matter 29 465901 (2017);
         "P. Giannozzi et al., J. Chem. Phys. 152 154105 (2020);
          URL http://www.quantum-espresso.org", 
     in publications or presentations arising from this work. More details at
     http://www.quantum-espresso.org/quote

     Parallel version (MPI), running on     1 processors

     MPI processes distributed on     1 nodes
     52516 MiB available memory on the printing compute node when the environment starts

     Waiting for input...
     Reading input from standard input

     Current dimensions of program PWSCF are:
     Max number of different atomic species (ntypx) = 10
     Max number of k-points (npk) =  40000
     Max angular momentum in pseudopotentials (lmaxx) =  4
     file Mo.pbe-spn-kjpaw_psl.1.0.0.UPF: wavefunction(s)  4S 4D renormalized
     file S.pbe-n-kjpaw_psl.1.0.0.UPF: wavefunction(s)  3S 3P renormalized

     IMPORTANT: XC functional enforced from input :
     Exchange-correlation= VDW-DF2-B86R
                           (   1   4  26   0   2   0   0)
     Any further DFT definition will be discarded
     Please, verify this is what you really want


     Subspace diagonalization in iterative solution of the eigenvalue problem:
     a serial algorithm will be used


     G-vector sticks info
     --------------------
     sticks:   dense  smooth     PW     G-vecs:    dense   smooth      PW
     Sum        1573     769    223               797393   281171   43435

     Using Slab Decomposition



     bravais-lattice index     =            4
     lattice parameter (alat)  =       5.9715  a.u.
     unit-cell volume          =    2917.9067 (a.u.)^3
     number of atoms/cell      =           12
     number of atomic types    =            2
     number of electrons       =       104.00
     number of Kohn-Sham states=           62
     kinetic-energy cutoff     =      80.0000  Ry
     charge density cutoff     =     640.0000  Ry
     scf convergence threshold =      1.0E-08
     mixing beta               =       0.2000
     number of iterations used =            8  local-TF  mixing
     Exchange-correlation= VDW-DF2-B86R
                           (   1   4  26   0   2   0   0)

     celldm(1)=   5.971535  celldm(2)=   0.000000  celldm(3)=  15.822785
     celldm(4)=   0.000000  celldm(5)=   0.000000  celldm(6)=   0.000000

     crystal axes: (cart. coord. in units of alat)
               a(1) = (   1.000000   0.000000   0.000000 )  
               a(2) = (  -0.500000   0.866025   0.000000 )  
               a(3) = (   0.000000   0.000000  15.822785 )  

     reciprocal axes: (cart. coord. in units 2 pi/alat)
               b(1) = (  1.000000  0.577350 -0.000000 )  
               b(2) = (  0.000000  1.154701  0.000000 )  
               b(3) = (  0.000000 -0.000000  0.063200 )  


     PseudoPot. # 1 for Mo read from file:
     ./pseudo/Mo.pbe-spn-kjpaw_psl.1.0.0.UPF
     MD5 check sum: 4396e0c640fcce5c25f020efccf1ab12
     Pseudo is Projector augmented-wave + core cor, Zval = 14.0
     Generated using &quot;atomic&quot; code by A. Dal Corso  v.6.3
     Shape of augmentation charge: PSQ
     Using radial grid of 1229 points,  6 beta functions with: 
                l(1) =   0
                l(2) =   0
                l(3) =   1
                l(4) =   1
                l(5) =   2
                l(6) =   2
     Q(r) pseudized with 0 coefficients 


     PseudoPot. # 2 for S  read from file:
     ./pseudo/S.pbe-n-kjpaw_psl.1.0.0.UPF
     MD5 check sum: fb45dfebcf3e72a4e1bd4a866ec2e262
     Pseudo is Projector augmented-wave + core cor, Zval =  6.0
     Generated using &quot;atomic&quot; code by A. Dal Corso  v.6.3
     Shape of augmentation charge: PSQ
     Using radial grid of 1151 points,  6 beta functions with: 
                l(1) =   0
                l(2) =   0
                l(3) =   1
                l(4) =   1
                l(5) =   2
                l(6) =   2
     Q(r) pseudized with 0 coefficients 


     atomic species   valence    mass     pseudopotential
     Mo               14.00    95.96000     Mo( 1.00)
     S                 6.00    32.06000     S ( 1.00)

      6 Sym. Ops. (no inversion) found



   Cartesian axes

     site n.     atom                  positions (alat units)
         1        S      tau(   1) = (  -0.0000005   0.5773503  -0.9967195  )
         2        Mo     tau(   2) = (   0.0000000   0.0000000  -0.4993332  )
         3        S      tau(   3) = (  -0.0000005   0.5773503  -0.0017175  )
         4        S      tau(   4) = (   0.5000003   0.2886747   0.9835827  )
         5        Mo     tau(   5) = (  -0.0000005   0.5773503   1.4818950  )
         6        S      tau(   6) = (   0.5000003   0.2886747   1.9798512  )
         7        S      tau(   7) = (   0.0000000   0.0000000   2.9586848  )
         8        Mo     tau(   8) = (   0.5000003   0.2886747   3.4569999  )
         9        S      tau(   9) = (   0.0000000   0.0000000   3.9548385  )
        10        S      tau(  10) = (  -0.0000005   0.5773503   5.5536730  )
        11        Mo     tau(  11) = (   0.0000000   0.0000000   6.0513096  )
        12        S      tau(  12) = (  -0.0000005   0.5773503   6.5484437  )

     number of k points=    30  Methfessel-Paxton smearing, width (Ry)=  0.0200
                       cart. coord. in units 2pi/alat
        k(    1) = (   0.0000000   0.0000000   0.0000000), wk =   0.0078125
        k(    2) = (   0.0000000   0.0721688   0.0000000), wk =   0.0468750
        k(    3) = (   0.0000000   0.1443376   0.0000000), wk =   0.0468750
        k(    4) = (   0.0000000   0.2165064   0.0000000), wk =   0.0468750
        k(    5) = (   0.0000000   0.2886751   0.0000000), wk =   0.0468750
        k(    6) = (   0.0000000   0.3608439   0.0000000), wk =   0.0468750
        k(    7) = (   0.0000000   0.4330127   0.0000000), wk =   0.0468750
        k(    8) = (   0.0000000   0.5051815   0.0000000), wk =   0.0468750
        k(    9) = (   0.0000000  -0.5773503   0.0000000), wk =   0.0234375
        k(   10) = (   0.0625000   0.1082532   0.0000000), wk =   0.0468750
        k(   11) = (   0.0625000   0.1804220   0.0000000), wk =   0.0937500
        k(   12) = (   0.0625000   0.2525907   0.0000000), wk =   0.0937500
        k(   13) = (   0.0625000   0.3247595   0.0000000), wk =   0.0937500
        k(   14) = (   0.0625000   0.3969283   0.0000000), wk =   0.0937500
        k(   15) = (   0.0625000   0.4690971   0.0000000), wk =   0.0937500
        k(   16) = (   0.0625000   0.5412659   0.0000000), wk =   0.0937500
        k(   17) = (   0.1250000   0.2165064   0.0000000), wk =   0.0468750
        k(   18) = (   0.1250000   0.2886751   0.0000000), wk =   0.0937500
        k(   19) = (   0.1250000   0.3608439   0.0000000), wk =   0.0937500
        k(   20) = (   0.1250000   0.4330127   0.0000000), wk =   0.0937500
        k(   21) = (   0.1250000   0.5051815   0.0000000), wk =   0.0937500
        k(   22) = (   0.1250000   0.5773503   0.0000000), wk =   0.0468750
        k(   23) = (   0.1875000   0.3247595   0.0000000), wk =   0.0468750
        k(   24) = (   0.1875000   0.3969283   0.0000000), wk =   0.0937500
        k(   25) = (   0.1875000   0.4690971   0.0000000), wk =   0.0937500
        k(   26) = (   0.1875000   0.5412659   0.0000000), wk =   0.0937500
        k(   27) = (   0.2500000   0.4330127   0.0000000), wk =   0.0468750
        k(   28) = (   0.2500000   0.5051815   0.0000000), wk =   0.0937500
        k(   29) = (   0.2500000   0.5773503   0.0000000), wk =   0.0468750
        k(   30) = (   0.3125000   0.5412659   0.0000000), wk =   0.0468750

     Dense  grid:   797393 G-vectors     FFT dimensions: (  50,  50, 768)

     Smooth grid:   281171 G-vectors     FFT dimensions: (  36,  36, 540)

     Estimated max dynamical RAM per process >       3.90 GB

     Initial potential from superposition of free atoms

     starting charge     103.9962, renormalised to     104.0000

     negative rho (up, down):  1.504E-04 0.000E+00


     %%%%%%%%%%%%%%%%%%%%%%%%%%%%%%%%%%%%%%%%%%%%%%%%%%%%%%%%%%%%%%%%%%%%%%%%
     %                                                                      %
     % You are using vdW-DF, which was implemented by the Thonhauser group. %
     % Please cite the following two papers that made this development      %
     % possible and the two reviews that describe the various versions:     %
     %                                                                      %
     %   T. Thonhauser et al., PRL 115, 136402 (2015).                      %
     %   T. Thonhauser et al., PRB 76, 125112 (2007).                       %
     %   K. Berland et al., Rep. Prog. Phys. 78, 066501 (2015).             %
     %   D.C. Langreth et al., J. Phys.: Condens. Matter 21, 084203 (2009). %
     %                                                                      %
     % If you are calculating stress with vdW-DF, please also cite:         %
     %                                                                      %
     %   R. Sabatini et al., J. Phys.: Condens. Matter 24, 424209 (2012).   %
     %                                                                      %
     %%%%%%%%%%%%%%%%%%%%%%%%%%%%%%%%%%%%%%%%%%%%%%%%%%%%%%%%%%%%%%%%%%%%%%%%

     %%%%%%%%%%%%%%%%%%%%%%%%%%%%%%%%%%%%%%%%%%%%%%%%%%%%%%%%%%%%%%%%%%%%%%%%
     %                                                                      %
     %  vdW-DF NEWS:                                                        %
     %                                                                      %
     %  * vdW-DF3 is now available. DOI: 10.1021/acs.jctc.0c00471           %
     %    use with input_dft = 'vdW-DF3-opt1' or 'vdW-DF3-opt2'             %
     %                                                                      %
     %  * Unscreened and range-separated hybrid vdW-DF-cx functionals       %
     %    DOI: 10.1063/1.4986522 and 10.1088/1361-648X/ac2ad2               %
     %    use with input_dft = 'vdW-DF-cx0'    and 'vdW-DF-ahcx'            %
     %  * Unscreened and range-separated hybrid vdW-DF2-b86r functionals    %
     %    DOI: 10.1063/1.4986522 and DOI: 10.1103/PhysRevX.12.041003        %
     %    use with input_dft = 'vdW-DF2-br0' and 'vdW-DF2-ahbr'             %
     %                                                                      %
     %%%%%%%%%%%%%%%%%%%%%%%%%%%%%%%%%%%%%%%%%%%%%%%%%%%%%%%%%%%%%%%%%%%%%%%%


     Starting wfcs are   72 randomized atomic wfcs
     Checking if some PAW data can be deallocated... 

     total cpu time spent up to now is      124.5 secs

     Self-consistent Calculation

     iteration #  1     ecut=    80.00 Ry     beta= 0.20
     Davidson diagonalization with overlap
     ethr =  1.00E-02,  avg # of iterations =  2.3

     Threshold (ethr) on eigenvalues was too large:
     Diagonalizing with lowered threshold

     Davidson diagonalization with overlap
     ethr =  2.86E-04,  avg # of iterations =  3.6

     negative rho (up, down):  2.843E-05 0.000E+00

     total cpu time spent up to now is      600.7 secs

     total energy              =   -1978.45661787 Ry
     estimated scf accuracy    <       0.44763358 Ry

     iteration #  2     ecut=    80.00 Ry     beta= 0.20
     Davidson diagonalization with overlap
     ethr =  4.30E-04,  avg # of iterations =  1.0

     negative rho (up, down):  1.294E-06 0.000E+00

     total cpu time spent up to now is      780.2 secs

     total energy              =   -1978.27784506 Ry
     estimated scf accuracy    <       0.36926968 Ry

     iteration #  3     ecut=    80.00 Ry     beta= 0.20
     Davidson diagonalization with overlap
     ethr =  3.55E-04,  avg # of iterations =  2.0

     negative rho (up, down):  3.267E-07 0.000E+00

     total cpu time spent up to now is     1016.9 secs

     total energy              =   -1978.35777680 Ry
     estimated scf accuracy    <       0.04720633 Ry

     iteration #  4     ecut=    80.00 Ry     beta= 0.20
     Davidson diagonalization with overlap
     ethr =  4.54E-05,  avg # of iterations =  2.2

     negative rho (up, down):  1.682E-07 0.000E+00

     total cpu time spent up to now is     1248.6 secs

     total energy              =   -1978.36066369 Ry
     estimated scf accuracy    <       0.01888179 Ry

     iteration #  5     ecut=    80.00 Ry     beta= 0.20
     Davidson diagonalization with overlap
     ethr =  1.82E-05,  avg # of iterations =  3.4

     negative rho (up, down):  1.326E-07 0.000E+00

     total cpu time spent up to now is     1462.3 secs

     total energy              =   -1978.36233437 Ry
     estimated scf accuracy    <       0.00431097 Ry

     iteration #  6     ecut=    80.00 Ry     beta= 0.20
     Davidson diagonalization with overlap
     c_bands:  1 eigenvalues not converged
     ethr =  4.15E-06,  avg # of iterations =  5.6

     negative rho (up, down):  7.854E-07 0.000E+00

     total cpu time spent up to now is     1677.0 secs

     total energy              =   -1978.36111714 Ry
     estimated scf accuracy    <       0.00379923 Ry

     iteration #  7     ecut=    80.00 Ry     beta= 0.20
     Davidson diagonalization with overlap
     c_bands:  1 eigenvalues not converged
     c_bands:  1 eigenvalues not converged
     ethr =  3.65E-06,  avg # of iterations =  6.4

     negative rho (up, down):  2.379E-07 0.000E+00

     total cpu time spent up to now is     1955.3 secs

     total energy              =   -1978.36036298 Ry
     estimated scf accuracy    <       0.01186444 Ry

     iteration #  8     ecut=    80.00 Ry     beta= 0.20
     Davidson diagonalization with overlap
     c_bands:  1 eigenvalues not converged
     ethr =  3.65E-06,  avg # of iterations =  4.1

     negative rho (up, down):  7.258E-07 0.000E+00

     total cpu time spent up to now is     2185.5 secs

     total energy              =   -1978.36102054 Ry
     estimated scf accuracy    <       0.00233256 Ry

     iteration #  9     ecut=    80.00 Ry     beta= 0.20
     Davidson diagonalization with overlap
     ethr =  2.24E-06,  avg # of iterations =  7.1

     negative rho (up, down):  6.963E-05 0.000E+00

     total cpu time spent up to now is     2423.5 secs

     total energy              =   -1978.36118893 Ry
     estimated scf accuracy    <       0.00265311 Ry

     iteration # 10     ecut=    80.00 Ry     beta= 0.20
     Davidson diagonalization with overlap
     ethr =  2.24E-06,  avg # of iterations =  2.3

     negative rho (up, down):  3.268E-03 0.000E+00

     total cpu time spent up to now is     2624.2 secs

     total energy              =   -1978.36070694 Ry
     estimated scf accuracy    <       0.00197083 Ry

     iteration # 11     ecut=    80.00 Ry     beta= 0.20
     Davidson diagonalization with overlap
     ethr =  1.90E-06,  avg # of iterations =  4.3

     negative rho (up, down):  5.036E-03 0.000E+00

     total cpu time spent up to now is     2846.6 secs

     total energy              =   -1978.36104826 Ry
     estimated scf accuracy    <       0.00066998 Ry

     iteration # 12     ecut=    80.00 Ry     beta= 0.20
     Davidson diagonalization with overlap
     c_bands:  1 eigenvalues not converged
     ethr =  6.44E-07,  avg # of iterations =  6.0

     negative rho (up, down):  1.732E-04 0.000E+00

     total cpu time spent up to now is     3075.8 secs

     total energy              =   -1978.36098101 Ry
     estimated scf accuracy    <       0.00181120 Ry

     iteration # 13     ecut=    80.00 Ry     beta= 0.20
     Davidson diagonalization with overlap
     ethr =  6.44E-07,  avg # of iterations =  3.2

     negative rho (up, down):  3.295E-03 0.000E+00

     total cpu time spent up to now is     3303.4 secs

     total energy              =   -1978.36107602 Ry
     estimated scf accuracy    <       0.00063405 Ry

     iteration # 14     ecut=    80.00 Ry     beta= 0.20
     Davidson diagonalization with overlap
     ethr =  6.10E-07,  avg # of iterations =  1.1

     negative rho (up, down):  2.702E-03 0.000E+00

     total cpu time spent up to now is     3484.9 secs

     total energy              =   -1978.36093451 Ry
     estimated scf accuracy    <       0.00055427 Ry

     iteration # 15     ecut=    80.00 Ry     beta= 0.20
     Davidson diagonalization with overlap
     ethr =  5.33E-07,  avg # of iterations =  3.3

     negative rho (up, down):  2.191E-03 0.000E+00

     total cpu time spent up to now is     3697.0 secs

     total energy              =   -1978.36101066 Ry
     estimated scf accuracy    <       0.00022622 Ry

     iteration # 16     ecut=    80.00 Ry     beta= 0.20
     Davidson diagonalization with overlap
     ethr =  2.18E-07,  avg # of iterations =  1.3

     negative rho (up, down):  2.027E-03 0.000E+00

     total cpu time spent up to now is     3882.8 secs

     total energy              =   -1978.36098112 Ry
     estimated scf accuracy    <       0.00020678 Ry

     iteration # 17     ecut=    80.00 Ry     beta= 0.20
     Davidson diagonalization with overlap
     ethr =  1.99E-07,  avg # of iterations =  2.9

     negative rho (up, down):  1.041E-03 0.000E+00

     total cpu time spent up to now is     4075.4 secs

     total energy              =   -1978.36102866 Ry
     estimated scf accuracy    <       0.00009798 Ry

     iteration # 18     ecut=    80.00 Ry     beta= 0.20
     Davidson diagonalization with overlap
     ethr =  9.42E-08,  avg # of iterations =  1.5

     negative rho (up, down):  3.948E-04 0.000E+00

     total cpu time spent up to now is     4263.9 secs

     total energy              =   -1978.36105296 Ry
     estimated scf accuracy    <       0.00007660 Ry

     iteration # 19     ecut=    80.00 Ry     beta= 0.20
     Davidson diagonalization with overlap
     ethr =  7.36E-08,  avg # of iterations =  1.1

     negative rho (up, down):  3.559E-04 0.000E+00

     total cpu time spent up to now is     4445.9 secs

     total energy              =   -1978.36105662 Ry
     estimated scf accuracy    <       0.00006891 Ry

     iteration # 20     ecut=    80.00 Ry     beta= 0.20
     Davidson diagonalization with overlap
     ethr =  6.63E-08,  avg # of iterations =  1.1

     negative rho (up, down):  4.259E-04 0.000E+00

     total cpu time spent up to now is     4628.0 secs

     total energy              =   -1978.36105348 Ry
     estimated scf accuracy    <       0.00006093 Ry

     iteration # 21     ecut=    80.00 Ry     beta= 0.20
     Davidson diagonalization with overlap
     ethr =  5.86E-08,  avg # of iterations =  1.1

     negative rho (up, down):  4.177E-04 0.000E+00

     total cpu time spent up to now is     4809.0 secs

     total energy              =   -1978.36105495 Ry
     estimated scf accuracy    <       0.00005773 Ry

     iteration # 22     ecut=    80.00 Ry     beta= 0.20
     Davidson diagonalization with overlap
     ethr =  5.55E-08,  avg # of iterations =  1.0

     negative rho (up, down):  4.192E-04 0.000E+00

     total cpu time spent up to now is     4989.6 secs

     total energy              =   -1978.36105832 Ry
     estimated scf accuracy    <       0.00005613 Ry

     iteration # 23     ecut=    80.00 Ry     beta= 0.20
     Davidson diagonalization with overlap
     ethr =  5.40E-08,  avg # of iterations =  1.1

     negative rho (up, down):  4.860E-04 0.000E+00

     total cpu time spent up to now is     5170.9 secs

     total energy              =   -1978.36105743 Ry
     estimated scf accuracy    <       0.00005101 Ry

     iteration # 24     ecut=    80.00 Ry     beta= 0.20
     Davidson diagonalization with overlap
     ethr =  4.90E-08,  avg # of iterations =  1.1

     negative rho (up, down):  6.368E-04 0.000E+00

     total cpu time spent up to now is     5355.4 secs

     total energy              =   -1978.36104533 Ry
     estimated scf accuracy    <       0.00004870 Ry

     iteration # 25     ecut=    80.00 Ry     beta= 0.20
     Davidson diagonalization with overlap
     ethr =  4.68E-08,  avg # of iterations =  2.0

     negative rho (up, down):  4.999E-04 0.000E+00

     total cpu time spent up to now is     5553.2 secs

     total energy              =   -1978.36103691 Ry
     estimated scf accuracy    <       0.00004463 Ry

     iteration # 26     ecut=    80.00 Ry     beta= 0.20
     Davidson diagonalization with overlap
     ethr =  4.29E-08,  avg # of iterations =  2.0

     negative rho (up, down):  3.839E-04 0.000E+00

     total cpu time spent up to now is     5752.2 secs

     total energy              =   -1978.36104055 Ry
     estimated scf accuracy    <       0.00004163 Ry

     iteration # 27     ecut=    80.00 Ry     beta= 0.20
     Davidson diagonalization with overlap
     ethr =  4.00E-08,  avg # of iterations =  1.5

     negative rho (up, down):  2.286E-04 0.000E+00

     total cpu time spent up to now is     5941.8 secs

     total energy              =   -1978.36104281 Ry
     estimated scf accuracy    <       0.00003109 Ry

     iteration # 28     ecut=    80.00 Ry     beta= 0.20
     Davidson diagonalization with overlap
     ethr =  2.99E-08,  avg # of iterations =  1.8

     negative rho (up, down):  3.311E-04 0.000E+00

     total cpu time spent up to now is     6135.8 secs

     total energy              =   -1978.36103141 Ry
     estimated scf accuracy    <       0.00002975 Ry

     iteration # 29     ecut=    80.00 Ry     beta= 0.20
     Davidson diagonalization with overlap
     ethr =  2.86E-08,  avg # of iterations =  3.8

     negative rho (up, down):  3.388E-04 0.000E+00

     total cpu time spent up to now is     6385.2 secs

     total energy              =   -1978.36103363 Ry
     estimated scf accuracy    <       0.00005074 Ry

     iteration # 30     ecut=    80.00 Ry     beta= 0.20
     Davidson diagonalization with overlap
     ethr =  2.86E-08,  avg # of iterations =  2.1

     negative rho (up, down):  3.318E-04 0.000E+00

     total cpu time spent up to now is     6590.7 secs

     total energy              =   -1978.36103775 Ry
     estimated scf accuracy    <       0.00001570 Ry

     iteration # 31     ecut=    80.00 Ry     beta= 0.20
     Davidson diagonalization with overlap
     ethr =  1.51E-08,  avg # of iterations =  1.0

     negative rho (up, down):  2.366E-04 0.000E+00

     total cpu time spent up to now is     6772.4 secs

     total energy              =   -1978.36103642 Ry
     estimated scf accuracy    <       0.00001378 Ry

     iteration # 32     ecut=    80.00 Ry     beta= 0.20
     Davidson diagonalization with overlap
     ethr =  1.33E-08,  avg # of iterations =  1.4

     negative rho (up, down):  1.869E-04 0.000E+00

     total cpu time spent up to now is     6960.2 secs

     total energy              =   -1978.36103715 Ry
     estimated scf accuracy    <       0.00001076 Ry

     iteration # 33     ecut=    80.00 Ry     beta= 0.20
     Davidson diagonalization with overlap
     ethr =  1.03E-08,  avg # of iterations =  1.1

     negative rho (up, down):  2.139E-04 0.000E+00

     total cpu time spent up to now is     7141.0 secs

     total energy              =   -1978.36103647 Ry
     estimated scf accuracy    <       0.00000961 Ry

     iteration # 34     ecut=    80.00 Ry     beta= 0.20
     Davidson diagonalization with overlap
     ethr =  9.24E-09,  avg # of iterations =  1.0

     negative rho (up, down):  2.431E-04 0.000E+00

     total cpu time spent up to now is     7322.2 secs

     total energy              =   -1978.36103706 Ry
     estimated scf accuracy    <       0.00000909 Ry

     iteration # 35     ecut=    80.00 Ry     beta= 0.20
     Davidson diagonalization with overlap
     ethr =  8.74E-09,  avg # of iterations =  1.0

     negative rho (up, down):  2.069E-04 0.000E+00

     total cpu time spent up to now is     7501.4 secs

     total energy              =   -1978.36103926 Ry
     estimated scf accuracy    <       0.00000885 Ry

     iteration # 36     ecut=    80.00 Ry     beta= 0.20
     Davidson diagonalization with overlap
     ethr =  8.51E-09,  avg # of iterations =  1.2

     negative rho (up, down):  2.444E-04 0.000E+00

     total cpu time spent up to now is     7683.9 secs

     total energy              =   -1978.36104026 Ry
     estimated scf accuracy    <       0.00000840 Ry

     iteration # 37     ecut=    80.00 Ry     beta= 0.20
     Davidson diagonalization with overlap
     ethr =  8.08E-09,  avg # of iterations =  1.0

     negative rho (up, down):  3.004E-04 0.000E+00

     total cpu time spent up to now is     7863.9 secs

     total energy              =   -1978.36103876 Ry
     estimated scf accuracy    <       0.00000800 Ry

     iteration # 38     ecut=    80.00 Ry     beta= 0.20
     Davidson diagonalization with overlap
     ethr =  7.69E-09,  avg # of iterations =  2.4

     negative rho (up, down):  3.805E-04 0.000E+00

     total cpu time spent up to now is     8053.4 secs

     total energy              =   -1978.36103883 Ry
     estimated scf accuracy    <       0.00000717 Ry

     iteration # 39     ecut=    80.00 Ry     beta= 0.20
     Davidson diagonalization with overlap
     ethr =  6.89E-09,  avg # of iterations =  1.0

     negative rho (up, down):  5.308E-04 0.000E+00

     total cpu time spent up to now is     8233.4 secs

     total energy              =   -1978.36103684 Ry
     estimated scf accuracy    <       0.00000624 Ry

     iteration # 40     ecut=    80.00 Ry     beta= 0.20
     Davidson diagonalization with overlap
     c_bands:  1 eigenvalues not converged
     ethr =  6.00E-09,  avg # of iterations =  2.6

     negative rho (up, down):  4.184E-04 0.000E+00

     total cpu time spent up to now is     8436.0 secs

     total energy              =   -1978.36103695 Ry
     estimated scf accuracy    <       0.00000612 Ry

     iteration # 41     ecut=    80.00 Ry     beta= 0.20
     Davidson diagonalization with overlap
     ethr =  5.89E-09,  avg # of iterations =  1.3

     negative rho (up, down):  3.532E-04 0.000E+00

     total cpu time spent up to now is     8620.1 secs

     total energy              =   -1978.36103504 Ry
     estimated scf accuracy    <       0.00000497 Ry

     iteration # 42     ecut=    80.00 Ry     beta= 0.20
     Davidson diagonalization with overlap
     ethr =  4.78E-09,  avg # of iterations =  1.9

     negative rho (up, down):  4.569E-04 0.000E+00

     total cpu time spent up to now is     8815.6 secs

     total energy              =   -1978.36103779 Ry
     estimated scf accuracy    <       0.00000402 Ry

     iteration # 43     ecut=    80.00 Ry     beta= 0.20
     Davidson diagonalization with overlap
     ethr =  3.87E-09,  avg # of iterations =  1.2

     negative rho (up, down):  3.884E-04 0.000E+00

     total cpu time spent up to now is     9000.9 secs

     total energy              =   -1978.36103575 Ry
     estimated scf accuracy    <       0.00000314 Ry

     iteration # 44     ecut=    80.00 Ry     beta= 0.20
     Davidson diagonalization with overlap
     ethr =  3.02E-09,  avg # of iterations =  2.8

     negative rho (up, down):  2.761E-04 0.000E+00

     total cpu time spent up to now is     9209.4 secs

     total energy              =   -1978.36103603 Ry
     estimated scf accuracy    <       0.00000193 Ry

     iteration # 45     ecut=    80.00 Ry     beta= 0.20
     Davidson diagonalization with overlap
     ethr =  1.85E-09,  avg # of iterations =  1.2

     negative rho (up, down):  1.584E-04 0.000E+00

     total cpu time spent up to now is     9392.1 secs

     total energy              =   -1978.36103660 Ry
     estimated scf accuracy    <       0.00000123 Ry

     iteration # 46     ecut=    80.00 Ry     beta= 0.20
     Davidson diagonalization with overlap
     ethr =  1.18E-09,  avg # of iterations =  2.0

     negative rho (up, down):  2.330E-04 0.000E+00

     total cpu time spent up to now is     9595.5 secs

     total energy              =   -1978.36103565 Ry
     estimated scf accuracy    <       0.00000076 Ry

     iteration # 47     ecut=    80.00 Ry     beta= 0.20
     Davidson diagonalization with overlap
     ethr =  7.32E-10,  avg # of iterations =  2.0

     negative rho (up, down):  1.694E-04 0.000E+00

     total cpu time spent up to now is     9794.7 secs

     total energy              =   -1978.36103616 Ry
     estimated scf accuracy    <       0.00000061 Ry

     iteration # 48     ecut=    80.00 Ry     beta= 0.20
     Davidson diagonalization with overlap
     ethr =  5.82E-10,  avg # of iterations =  2.0

     negative rho (up, down):  1.208E-04 0.000E+00

     total cpu time spent up to now is     9995.5 secs

     total energy              =   -1978.36103669 Ry
     estimated scf accuracy    <       0.00000034 Ry

     iteration # 49     ecut=    80.00 Ry     beta= 0.20
     Davidson diagonalization with overlap
     ethr =  3.25E-10,  avg # of iterations =  2.9

     negative rho (up, down):  1.545E-04 0.000E+00

     total cpu time spent up to now is    10212.4 secs

     total energy              =   -1978.36103509 Ry
     estimated scf accuracy    <       0.00000047 Ry

     iteration # 50     ecut=    80.00 Ry     beta= 0.20
     Davidson diagonalization with overlap
     ethr =  3.25E-10,  avg # of iterations =  2.1

     negative rho (up, down):  1.620E-04 0.000E+00

     total cpu time spent up to now is    10417.2 secs

     total energy              =   -1978.36103471 Ry
     estimated scf accuracy    <       0.00000019 Ry

     iteration # 51     ecut=    80.00 Ry     beta= 0.20
     Davidson diagonalization with overlap
     ethr =  1.80E-10,  avg # of iterations =  1.5

     negative rho (up, down):  1.748E-04 0.000E+00

     total cpu time spent up to now is    10606.4 secs

     total energy              =   -1978.36103493 Ry
     estimated scf accuracy    <       0.00000015 Ry

     iteration # 52     ecut=    80.00 Ry     beta= 0.20
     Davidson diagonalization with overlap
     ethr =  1.47E-10,  avg # of iterations =  2.9

     negative rho (up, down):  1.737E-04 0.000E+00

     total cpu time spent up to now is    10823.0 secs

     total energy              =   -1978.36103593 Ry
     estimated scf accuracy    <       0.00000014 Ry

     iteration # 53     ecut=    80.00 Ry     beta= 0.20
     Davidson diagonalization with overlap
     ethr =  1.35E-10,  avg # of iterations =  2.3

     negative rho (up, down):  1.695E-04 0.000E+00

     total cpu time spent up to now is    11025.4 secs

     total energy              =   -1978.36103600 Ry
     estimated scf accuracy    <       0.00000005 Ry

     iteration # 54     ecut=    80.00 Ry     beta= 0.20
     Davidson diagonalization with overlap
     ethr =  4.86E-11,  avg # of iterations =  2.4

     negative rho (up, down):  1.786E-04 0.000E+00

     total cpu time spent up to now is    11227.4 secs

     total energy              =   -1978.36103584 Ry
     estimated scf accuracy    <       0.00000003 Ry

     iteration # 55     ecut=    80.00 Ry     beta= 0.20
     Davidson diagonalization with overlap
     ethr =  3.27E-11,  avg # of iterations =  2.2

     negative rho (up, down):  1.744E-04 0.000E+00

     total cpu time spent up to now is    11434.1 secs

     End of self-consistent calculation

          k = 0.0000 0.0000 0.0000 ( 35507 PWs)   bands (ev):

   -58.9005 -58.8895 -58.8521 -58.8024 -33.0744 -33.0632 -33.0266 -32.9768
   -32.8371 -32.8371 -32.8274 -32.8274 -32.7886 -32.7886 -32.7401 -32.7401
   -12.2437 -12.1641 -12.1456 -12.0480 -11.0088 -10.8770 -10.8508 -10.7169
    -4.0420  -3.7125  -3.6861  -3.3556  -0.6228  -0.6228  -0.6214  -0.6214
    -0.6059  -0.5768  -0.5768  -0.5355  -0.5355   0.0096   0.1016   0.4918
     0.4918   0.4979   0.4979   0.5374   0.5375   0.5829   0.5830   0.8204
     1.5919   1.8287   2.1339   2.4589   4.7236   4.7236   4.7577   4.7577
     4.7752   4.7752   4.8331   4.8331   4.9382   4.9383

          k = 0.0000 0.0722 0.0000 ( 35493 PWs)   bands (ev):

   -58.8989 -58.8880 -58.8506 -58.8009 -33.0714 -33.0602 -33.0236 -32.9737
   -32.8526 -32.8430 -32.8406 -32.8309 -32.8042 -32.7921 -32.7556 -32.7436
   -12.1841 -12.1047 -12.0863 -11.9889 -10.9812 -10.8521 -10.8256 -10.6938
    -3.9731  -3.6447  -3.6173  -3.2877  -0.7601  -0.7558  -0.7412  -0.7124
    -0.6696  -0.5606  -0.5589  -0.5146  -0.4730  -0.2428  -0.1812   0.1764
     0.3946   0.4013   0.4406   0.4866   0.5960   0.6852   0.7154   1.0611
     1.5942   1.8097   2.0988   2.3790   4.6478   4.6670   4.6952   4.7496
     4.7812   4.8084   4.8434   4.8623   4.8650   4.8912

          k = 0.0000 0.1443 0.0000 ( 35435 PWs)   bands (ev):

   -58.8945 -58.8835 -58.8461 -58.7964 -33.0627 -33.0515 -33.0150 -32.9650
   -32.8967 -32.8871 -32.8506 -32.8482 -32.8410 -32.8022 -32.7997 -32.7536
   -12.0101 -11.9316 -11.9135 -11.8166 -10.9007 -10.7796 -10.7520 -10.6264
    -3.7814  -3.4581  -3.4273  -3.1025  -1.1114  -1.1019  -1.0678  -1.0543
    -1.0103  -0.6855  -0.6264  -0.3814  -0.3787  -0.3388  -0.3354  -0.2929
     0.1433   0.1512   0.1902   0.2372   0.6562   0.8254   0.8703   1.2112
     1.5637   1.7199   1.9437   2.1217   4.3498   4.4076   4.4666   4.5143
     4.5479   4.5923   4.6651   4.6658   4.7198   4.7439

          k = 0.0000 0.2165 0.0000 ( 35345 PWs)   bands (ev):

   -58.8878 -58.8769 -58.8395 -58.7898 -33.0497 -33.0385 -33.0020 -32.9620
   -32.9525 -32.9520 -32.9136 -32.8656 -32.8652 -32.8560 -32.8172 -32.7686
   -11.7366 -11.6602 -11.6424 -11.5472 -10.7743 -10.6662 -10.6371 -10.5215
    -3.5216  -3.2162  -3.1809  -2.8760  -1.5480  -1.5243  -1.5011  -1.4698
    -1.3962  -1.1671  -1.0945  -0.8837  -0.1832  -0.1724  -0.1377  -0.1067
    -0.1037  -0.0876  -0.0576  -0.0164   0.5692   0.7762   0.8184   1.1300
     1.4163   1.4973   1.6213   1.7128   3.9781   4.0984   4.1919   4.4135
     4.4452   4.5099   4.5286   4.5607   4.6071   4.6133

          k = 0.0000 0.2887 0.0000 ( 35323 PWs)   bands (ev):

   -58.8800 -58.8690 -58.8316 -58.7819 -33.0383 -33.0344 -33.0289 -33.0232
   -32.9899 -32.9866 -32.9416 -32.9367 -32.8832 -32.8736 -32.8348 -32.7863
   -11.3892 -11.3171 -11.2996 -11.2077 -10.6148 -10.5240 -10.4930 -10.3906
    -3.3217  -3.0729  -3.0440  -2.8108  -1.9469  -1.8729  -1.8382  -1.8131
    -1.7119  -1.6559  -1.5386  -1.4228  -0.5113  -0.5002  -0.4627  -0.4133
     0.2167   0.2258   0.2656   0.3136   0.3541   0.5752   0.6109   0.8875
     1.1385   1.1766   1.2378   1.3031   3.8455   4.0241   4.1167   4.2570
     4.3169   4.3384   4.4128   4.4207   4.7774   4.8655

          k = 0.0000 0.3608 0.0000 ( 35299 PWs)   bands (ev):

   -58.8721 -58.8612 -58.8238 -58.7740 -33.1137 -33.1043 -33.0653 -33.0190
   -33.0170 -33.0077 -32.9712 -32.9212 -32.9008 -32.8912 -32.8523 -32.8038
   -11.0061 -10.9416 -10.9242 -10.8385 -10.4412 -10.3709 -10.3385 -10.2511
    -3.3587  -3.2062  -3.1988  -3.0618  -2.3115  -2.1886  -2.1238  -2.0220
    -1.9530  -1.9187  -1.8238  -1.7278  -0.7997  -0.7876  -0.7504  -0.7002
     0.1191   0.3408   0.3690   0.5359   0.5540   0.5905   0.6133   0.6452
     0.9186   0.9554   1.0090   1.0729   3.9624   4.1496   4.1536   4.2005
     4.2220   4.2253   4.2997   4.5059   5.1078   5.2206

          k = 0.0000 0.4330 0.0000 ( 35224 PWs)   bands (ev):

   -58.8654 -58.8545 -58.8171 -58.7673 -33.1769 -33.1676 -33.1286 -33.0803
   -33.0059 -32.9946 -32.9581 -32.9156 -32.9081 -32.9060 -32.8672 -32.8187
   -10.6421 -10.5893 -10.5716 -10.4953 -10.2796 -10.2309 -10.1982 -10.1256
    -3.5916  -3.5046  -3.4996  -3.4105  -2.6494  -2.5389  -2.5187  -2.4134
    -2.0646  -1.9707  -1.9389  -1.8092  -1.0204  -1.0077  -0.9707  -0.9200
    -0.0558   0.1583   0.1785   0.3981   0.7899   0.8211   0.8544   0.9181
     0.9385   0.9958   1.0448   1.1259   4.1478   4.1776   4.2065   4.2235
     4.2698   4.3778   4.4262   4.6459   5.4179   5.5389

          k = 0.0000 0.5052 0.0000 ( 35152 PWs)   bands (ev):

   -58.8610 -58.8500 -58.8126 -58.7629 -33.2188 -33.2096 -33.1705 -33.1223
   -32.9972 -32.9859 -32.9494 -32.9255 -32.9159 -32.8994 -32.8771 -32.8286
   -10.3699 -10.3305 -10.3119 -10.2470 -10.1614 -10.1312 -10.1000 -10.0383
    -3.8200  -3.7559  -3.7535  -3.6774  -2.8866  -2.8021  -2.7862  -2.6940
    -2.1677  -2.0688  -2.0458  -1.9219  -1.1581  -1.1451  -1.1081  -1.0572
    -0.1510   0.0527   0.0683   0.2673   0.9436   0.9871   1.0181   1.0900
     1.1272   1.1943   1.2290   1.3139   4.1964   4.2134   4.2465   4.3009
     4.5147   4.6133   4.6436   4.7809   5.6114   5.7781

          k = 0.0000-0.5774 0.0000 ( 35026 PWs)   bands (ev):

   -58.8594 -58.8484 -58.8110 -58.7613 -33.2335 -33.2243 -33.1851 -33.1370
   -32.9941 -32.9828 -32.9463 -32.9289 -32.9194 -32.8963 -32.8805 -32.8320
   -10.2663 -10.2340 -10.2147 -10.1565 -10.1169 -10.0949 -10.0654 -10.0071
    -3.9119  -3.8521  -3.8509  -3.7767  -2.9716  -2.8981  -2.8810  -2.7930
    -2.2158  -2.1176  -2.0950  -1.9742  -1.2049  -1.1917  -1.1548  -1.1037
    -0.1795   0.0188   0.0331   0.2233   0.9935   1.0419   1.0721   1.1473
     1.2436   1.3009   1.3261   1.4012   4.2249   4.2379   4.2731   4.3244
     4.6690   4.7238   4.7500   4.8278   5.6714   5.8265

          k = 0.0625 0.1083 0.0000 ( 35467 PWs)   bands (ev):

   -58.8959 -58.8850 -58.8476 -58.7979 -33.0655 -33.0543 -33.0178 -32.9679
   -32.8820 -32.8723 -32.8478 -32.8382 -32.8335 -32.7994 -32.7850 -32.7508
   -12.0673 -11.9884 -11.9702 -11.8732 -10.9271 -10.8034 -10.7761 -10.6485
    -3.8424  -3.5169  -3.4872  -3.1603  -1.0007  -0.9939  -0.9597  -0.9505
    -0.9059  -0.5487  -0.4908  -0.4417  -0.4396  -0.3957  -0.3540  -0.1741
     0.1797   0.1868   0.2254   0.2717   0.6929   0.8385   0.8798   1.2150
     1.5815   1.7556   2.0053   2.2101   4.4706   4.5036   4.5352   4.5530
     4.5553   4.6230   4.6395   4.7128   4.7365   4.8049

          k = 0.0625 0.1804 0.0000 ( 35370 PWs)   bands (ev):

   -58.8904 -58.8794 -58.8420 -58.7923 -33.0547 -33.0435 -33.0069 -32.9570
   -32.9354 -32.9259 -32.8870 -32.8616 -32.8519 -32.8386 -32.8131 -32.7646
   -11.8434 -11.7660 -11.7481 -11.6522 -10.8235 -10.7102 -10.6817 -10.5622
    -3.6124  -3.2973  -3.2632  -2.9468  -1.3847  -1.3720  -1.3413  -1.3051
    -1.2473  -0.9520  -0.8857  -0.6325  -0.2260  -0.2220  -0.1936  -0.1787
    -0.1721  -0.1485  -0.1274  -0.0937   0.7441   0.9175   0.9611   1.2554
     1.4957   1.5980   1.7656   1.8735   4.0865   4.1789   4.2567   4.3991
     4.4572   4.4807   4.5253   4.5810   4.6234   4.6863

          k = 0.0625 0.2526 0.0000 ( 35362 PWs)   bands (ev):

   -58.8831 -58.8722 -58.8348 -58.7851 -33.0405 -33.0293 -33.0046 -32.9951
   -32.9928 -32.9562 -32.9428 -32.9078 -32.8795 -32.8699 -32.8311 -32.7825
   -11.5323 -11.4581 -11.4405 -11.3471 -10.6799 -10.5818 -10.5516 -10.4436
    -3.3689  -3.0875  -3.0525  -2.7778  -1.7771  -1.7333  -1.7239  -1.6855
    -1.5764  -1.4043  -1.3175  -1.1558  -0.5642  -0.5527  -0.5124  -0.4614
     0.0422   0.0501   0.0891   0.1362   0.6419   0.8195   0.8535   1.1039
     1.2807   1.3200   1.4005   1.4628   3.8243   3.9799   4.0633   4.2542
     4.3748   4.3991   4.4390   4.4840   4.5832   4.6227

          k = 0.0625 0.3248 0.0000 ( 35310 PWs)   bands (ev):

   -58.8753 -58.8643 -58.8269 -58.7772 -33.0787 -33.0693 -33.0303 -33.0252
   -33.0139 -32.9819 -32.9774 -32.9274 -32.8989 -32.8892 -32.8504 -32.8019
   -11.1655 -11.0973 -11.0799 -10.9912 -10.5120 -10.4328 -10.4009 -10.3070
    -3.2797  -3.0816  -3.0650  -2.8878  -2.1152  -2.0217  -1.9083  -1.8882
    -1.8821  -1.8184  -1.6956  -1.6539  -0.8695  -0.8452  -0.8042  -0.7429
     0.2762   0.2934   0.3218   0.3747   0.4313   0.5929   0.6223   0.8381
     1.0490   1.0716   1.1169   1.1739   3.7876   3.9619   4.0228   4.1696
     4.3053   4.3309   4.3865   4.5028   4.8389   4.9293

          k = 0.0625 0.3969 0.0000 ( 35243 PWs)   bands (ev):

   -58.8680 -58.8570 -58.8196 -58.7699 -33.1463 -33.1370 -33.0979 -33.0497
   -33.0109 -32.9997 -32.9632 -32.9167 -32.9132 -32.9071 -32.8683 -32.8198
   -10.7887 -10.7303 -10.7128 -10.6319 -10.3421 -10.2840 -10.2511 -10.1723
    -3.4343  -3.3207  -3.3159  -3.2084  -2.4842  -2.3719  -2.3471  -2.2445
    -1.9928  -1.9085  -1.8720  -1.7406  -1.0685  -1.0391  -1.0010  -0.9388
     0.1669   0.3389   0.3562   0.4218   0.4412   0.4809   0.5054   0.5954
     1.0588   1.0764   1.1168   1.1704   3.9208   4.0595   4.0945   4.2006
     4.3499   4.3869   4.4323   4.5912   5.1787   5.2864

          k = 0.0625 0.4691 0.0000 ( 35169 PWs)   bands (ev):

   -58.8624 -58.8515 -58.8141 -58.7643 -33.1976 -33.1884 -33.1493 -33.1011
   -33.0000 -32.9887 -32.9522 -32.9303 -32.9207 -32.9022 -32.8819 -32.8334
   -10.4655 -10.4201 -10.4020 -10.3320 -10.1990 -10.1615 -10.1292 -10.0635
    -3.6719  -3.5991  -3.5953  -3.5146  -2.8003  -2.7147  -2.7036  -2.6126
    -2.0954  -1.9923  -1.9732  -1.8439  -1.1759  -1.1520  -1.1202  -1.0621
    -0.0247   0.1497   0.1661   0.3416   0.5447   0.5810   0.6081   0.6823
     1.2325   1.2568   1.2935   1.3533   4.1126   4.1812   4.2063   4.2781
     4.4874   4.5462   4.5830   4.7219   5.4941   5.6492

          k = 0.0625 0.5413 0.0000 ( 35128 PWs)   bands (ev):

   -58.8594 -58.8484 -58.8110 -58.7613 -33.2252 -33.2160 -33.1769 -33.1287
   -32.9941 -32.9828 -32.9463 -32.9376 -32.9281 -32.8963 -32.8892 -32.8407
   -10.2721 -10.2384 -10.2193 -10.1601 -10.1145 -10.0916 -10.0615 -10.0030
    -3.8319  -3.7711  -3.7699  -3.6949  -2.9788  -2.9102  -2.8987  -2.8132
    -2.1847  -2.0821  -2.0626  -1.9399  -1.2190  -1.2028  -1.1749  -1.1206
    -0.1296   0.0470   0.0631   0.2349   0.6349   0.6838   0.7060   0.7805
     1.3866   1.4219   1.4534   1.5192   4.2244   4.2412   4.2690   4.3214
     4.6636   4.7218   4.7502   4.8388   5.7181   5.8383

          k = 0.1250 0.2165 0.0000 ( 35331 PWs)   bands (ev):

   -58.8842 -58.8733 -58.8359 -58.7862 -33.0427 -33.0315 -32.9949 -32.9906
   -32.9811 -32.9450 -32.9422 -32.8938 -32.8804 -32.8707 -32.8319 -32.7834
   -11.5815 -11.5066 -11.4890 -11.3951 -10.7022 -10.6016 -10.5716 -10.4617
    -3.3881  -3.0958  -3.0592  -2.7701  -1.7052  -1.6812  -1.6646  -1.6181
    -1.4809  -1.2431  -1.1619  -0.9687  -0.7027  -0.6959  -0.6498  -0.6024
    -0.0372  -0.0297   0.0083   0.0552   0.8271   0.9819   1.0166   1.2343
     1.3476   1.3786   1.4765   1.5319   3.8121   3.9569   4.0326   4.2145
     4.3618   4.3968   4.4312   4.4500   4.4743   4.5202

          k = 0.1250 0.2887 0.0000 ( 35357 PWs)   bands (ev):

   -58.8770 -58.8660 -58.8286 -58.7789 -33.0539 -33.0445 -33.0285 -33.0173
   -33.0055 -32.9807 -32.9572 -32.9308 -32.9036 -32.8940 -32.8552 -32.8067
   -11.2494 -11.1794 -11.1620 -11.0719 -10.5487 -10.4647 -10.4331 -10.3358
    -3.2313  -2.9999  -2.9754  -2.7639  -1.9578  -1.9012  -1.8520  -1.8077
    -1.7055  -1.6448  -1.5374  -1.4723  -1.1333  -1.0904  -1.0352  -0.9243
     0.0658   0.0826   0.1130   0.1666   0.7541   0.8820   0.9079   1.0738
     1.1545   1.1596   1.1969   1.2480   3.6533   3.8347   3.9000   4.0897
     4.3658   4.3877   4.4171   4.4766   4.5969   4.6281

          k = 0.1250 0.3608 0.0000 ( 35341 PWs)   bands (ev):

   -58.8697 -58.8588 -58.8213 -58.7716 -33.1162 -33.1068 -33.0678 -33.0195
   -33.0143 -33.0030 -32.9665 -32.9273 -32.9177 -32.9165 -32.8789 -32.8304
   -10.8848 -10.8229 -10.8056 -10.7220 -10.3811 -10.3168 -10.2840 -10.2008
    -3.2786  -3.1325  -3.1267  -2.9944  -2.2841  -2.1934  -2.1674  -2.0921
    -1.8997  -1.8289  -1.8032  -1.6767  -1.3283  -1.2417  -1.1755  -1.0563
     0.0078   0.0352   0.0596   0.1187   0.5336   0.6387   0.6612   0.7963
     1.1119   1.1256   1.1587   1.2112   3.6899   3.8917   3.9469   4.1572
     4.4364   4.4580   4.4930   4.5770   4.8360   4.9206

          k = 0.1250 0.4330 0.0000 ( 35215 PWs)   bands (ev):

   -58.8635 -58.8526 -58.8152 -58.7654 -33.1683 -33.1590 -33.1199 -33.0717
   -33.0022 -32.9909 -32.9544 -32.9475 -32.9379 -32.9044 -32.8991 -32.8506
   -10.5409 -10.4908 -10.4731 -10.3992 -10.2245 -10.1809 -10.1479 -10.0785
    -3.4591  -3.3680  -3.3627  -3.2705  -2.6965  -2.6318  -2.6294  -2.5515
    -1.9707  -1.8592  -1.8529  -1.7223  -1.3582  -1.2685  -1.2182  -1.1128
    -0.0470   0.0054   0.0241   0.1000   0.2586   0.3576   0.3787   0.5037
     1.2507   1.2653   1.3004   1.3530   3.8975   4.0863   4.1289   4.3263
     4.5459   4.5600   4.6048   4.6668   5.1478   5.3053

          k = 0.1250 0.5052 0.0000 ( 35141 PWs)   bands (ev):

   -58.8594 -58.8484 -58.8110 -58.7613 -33.2029 -33.1936 -33.1545 -33.1063
   -32.9941 -32.9828 -32.9610 -32.9515 -32.9463 -32.9126 -32.8963 -32.8641
   -10.2858 -10.2489 -10.2303 -10.1687 -10.1089 -10.0836 -10.0523  -9.9928
    -3.6222  -3.5551  -3.5535  -3.4751  -2.9917  -2.9394  -2.9384  -2.8601
    -2.0894  -1.9757  -1.9644  -1.8415  -1.3101  -1.2416  -1.2108  -1.1309
    -0.0511   0.0357   0.0560   0.0863   0.1290   0.1365   0.1781   0.2923
     1.4375   1.4619   1.4969   1.5563   4.1171   4.2062   4.2364   4.3303
     4.6968   4.7442   4.7738   4.8678   5.4237   5.5384

          k = 0.1250 0.5774 0.0000 ( 35180 PWs)   bands (ev):

   -58.8580 -58.8470 -58.8096 -58.7599 -33.2149 -33.2057 -33.1666 -33.1184
   -32.9913 -32.9800 -32.9657 -32.9562 -32.9435 -32.9173 -32.8935 -32.8689
   -10.1893 -10.1594 -10.1398 -10.0875 -10.0634 -10.0480 -10.0183  -9.9622
    -3.6854  -3.6273  -3.6243  -3.5502  -3.0970  -3.0479  -3.0469  -2.9680
    -2.1495  -2.0382  -2.0235  -1.9026  -1.2632  -1.2215  -1.2040  -1.1366
    -0.1073   0.0259   0.0444   0.0618   0.0850   0.1104   0.1620   0.2366
     1.5298   1.5626   1.5966   1.6616   4.1919   4.2093   4.2354   4.2899
     4.8083   4.8714   4.8952   4.9684   5.5370   5.6541

          k = 0.1875 0.3248 0.0000 ( 35337 PWs)   bands (ev):

   -58.8703 -58.8594 -58.8219 -58.7722 -33.1026 -33.0932 -33.0542 -33.0155
   -33.0059 -33.0042 -32.9677 -32.9341 -32.9245 -32.9177 -32.8857 -32.8372
   -10.9182 -10.8552 -10.8379 -10.7533 -10.3944 -10.3279 -10.2951 -10.2103
    -3.2124  -3.0501  -3.0429  -2.8974  -2.1554  -2.0863  -2.0639  -2.0213
    -1.8543  -1.7879  -1.7717  -1.6812  -1.4697  -1.3715  -1.2740  -1.1261
    -0.1662  -0.1383  -0.1158  -0.0551   0.6980   0.7799   0.7986   0.9061
     1.1180   1.1359   1.1676   1.2233   3.6018   3.8249   3.8839   4.1308
     4.4618   4.4794   4.5039   4.5582   4.6931   4.7517

          k = 0.1875 0.3969 0.0000 ( 35241 PWs)   bands (ev):

   -58.8641 -58.8532 -58.8158 -58.7660 -33.1445 -33.1352 -33.0961 -33.0479
   -33.0034 -32.9921 -32.9649 -32.9556 -32.9554 -32.9165 -32.9056 -32.8680
   -10.5823 -10.5296 -10.5122 -10.4362 -10.2372 -10.1900 -10.1568 -10.0850
    -3.2981  -3.1872  -3.1806  -3.0746  -2.6034  -2.5738  -2.5705  -2.5084
    -1.8351  -1.7571  -1.7003  -1.6365  -1.4675  -1.3847  -1.2857  -1.1518
    -0.4845  -0.4460  -0.4237  -0.3568   0.4699   0.5316   0.5400   0.6266
     1.2208   1.2399   1.2762   1.3340   3.7564   4.0041   4.0546   4.3591
     4.5741   4.5867   4.6151   4.6682   4.8740   5.0520

          k = 0.1875 0.4691 0.0000 ( 35167 PWs)   bands (ev):

   -58.8594 -58.8484 -58.8110 -58.7613 -33.1750 -33.1657 -33.1266 -33.0784
   -32.9941 -32.9899 -32.9828 -32.9803 -32.9464 -32.9414 -32.8963 -32.8930
   -10.2991 -10.2593 -10.2411 -10.1772 -10.1033 -10.0755 -10.0433  -9.9827
    -3.3842  -3.3003  -3.2969  -3.2098  -3.0001  -2.9755  -2.9656  -2.9032
    -1.9197  -1.7964  -1.7903  -1.6978  -1.4091  -1.2929  -1.2441  -1.1191
    -0.6691  -0.5942  -0.5752  -0.4748   0.1697   0.2406   0.2556   0.3402
     1.4216   1.4369   1.4744   1.5280   3.9747   4.1363   4.1651   4.3288
     4.7383   4.7839   4.8044   4.9027   5.0843   5.2041

          k = 0.1875 0.5413 0.0000 ( 35162 PWs)   bands (ev):

   -58.8568 -58.8459 -58.8085 -58.7587 -33.1910 -33.1817 -33.1426 -33.0944
   -33.0038 -32.9943 -32.9891 -32.9778 -32.9554 -32.9413 -32.9070 -32.8913
   -10.1322 -10.1036 -10.0839 -10.0394 -10.0171 -10.0097  -9.9791  -9.9251
    -3.4215  -3.3618  -3.3521  -3.2773  -3.2162  -3.1928  -3.1785  -3.1144
    -2.0628  -1.9431  -1.9305  -1.8199  -1.2813  -1.1922  -1.1770  -1.0838
    -0.7132  -0.6128  -0.5937  -0.4856  -0.0386   0.0300   0.0532   0.1393
     1.6057   1.6286   1.6646   1.7240   4.0443   4.0794   4.1082   4.1726
     4.9258   5.0211   5.0437   5.1456   5.1979   5.3014

          k = 0.2500 0.4330 0.0000 ( 35195 PWs)   bands (ev):

   -58.8594 -58.8484 -58.8110 -58.7613 -33.1605 -33.1512 -33.1121 -33.0639
   -33.0048 -32.9953 -32.9942 -32.9828 -32.9564 -32.9464 -32.9079 -32.8963
   -10.3045 -10.2635 -10.2455 -10.1807 -10.1010 -10.0722 -10.0396  -9.9784
    -3.2757  -3.1793  -3.1741  -3.0856  -3.0011  -2.9899  -2.9707  -2.9208
    -1.7382  -1.6917  -1.6226  -1.6067  -1.4000  -1.3165  -1.2349  -1.1027
    -0.9843  -0.9585  -0.9295  -0.8766   0.2398   0.2910   0.2916   0.3755
     1.4050   1.4191   1.4585   1.5114   3.9146   4.1012   4.1299   4.3200
     4.7492   4.8003   4.8071   4.9092   4.9560   5.1004

          k = 0.2500 0.5052 0.0000 ( 35193 PWs)   bands (ev):

   -58.8562 -58.8453 -58.8079 -58.7581 -33.1652 -33.1560 -33.1169 -33.0686
   -33.0373 -33.0279 -32.9889 -32.9880 -32.9767 -32.9405 -32.9402 -32.8902
   -10.1041 -10.0754 -10.0558 -10.0149  -9.9907  -9.9871  -9.9553  -9.9026
    -3.3086  -3.2823  -3.2772  -3.2206  -3.1564  -3.0918  -3.0788  -2.9990
    -1.8921  -1.7764  -1.7638  -1.7063  -1.3436  -1.2775  -1.2186  -1.2052
    -1.1612  -1.1481  -1.0564  -0.9870  -0.0374   0.0193   0.0304   0.1145
     1.6455   1.6592   1.6973   1.7495   3.9121   3.9655   3.9930   4.0720
     4.8938   4.9644   4.9843   5.0359   5.1479   5.1794

          k = 0.2500 0.5774 0.0000 ( 35190 PWs)   bands (ev):

   -58.8551 -58.8442 -58.8068 -58.7570 -33.1651 -33.1558 -33.1167 -33.0685
   -33.0506 -33.0411 -33.0022 -32.9858 -32.9745 -32.9538 -32.9380 -32.8880
   -10.0292 -10.0072  -9.9870  -9.9706  -9.9557  -9.9411  -9.9197  -9.8749
    -3.4080  -3.3863  -3.3780  -3.3201  -3.0719  -3.0219  -3.0210  -2.9489
    -2.0469  -1.9395  -1.9208  -1.8333  -1.3810  -1.2754  -1.2492  -1.1793
    -1.1033  -1.0664  -1.0096  -0.9534  -0.1573  -0.1164  -0.0979  -0.0220
     1.7721   1.7895   1.8261   1.8814   3.8401   3.8513   3.8855   3.9351
     4.9200   4.9810   5.0248   5.0410   5.3355   5.3744

          k = 0.3125 0.5413 0.0000 ( 35172 PWs)   bands (ev):

   -58.8545 -58.8436 -58.8062 -58.7564 -33.1440 -33.1347 -33.0956 -33.0790
   -33.0695 -33.0474 -33.0306 -32.9846 -32.9822 -32.9733 -32.9368 -32.8868
    -9.9927  -9.9735  -9.9554  -9.9456  -9.9358  -9.9173  -9.8939  -9.8560
    -3.4758  -3.4578  -3.4455  -3.3885  -2.8480  -2.7845  -2.7828  -2.7050
    -2.0387  -2.0270  -2.0003  -1.9606  -1.5582  -1.5331  -1.5293  -1.5003
    -1.0534  -0.9931  -0.9655  -0.8962  -0.2453  -0.1949  -0.1724  -0.0923
     1.8541   1.8678   1.9046   1.9568   3.7241   3.7340   3.7707   3.8195
     4.8574   4.8866   4.9475   4.9510   5.4301   5.4977

     the Fermi energy is     2.9660 ev

!    total energy              =   -1978.36103581 Ry
     total all-electron energy =    -38771.681881 Ry
     estimated scf accuracy    <          7.8E-09 Ry
     smearing contrib. (-TS)   =       0.00003420 Ry
     internal energy E=F+TS    =   -1978.36107001 Ry

     The total energy is F=E-TS. E is the sum of the following terms:
     one-electron contribution =  -15509.53269562 Ry
     hartree contribution      =    7776.35431534 Ry
     xc contribution           =    -119.22600628 Ry
     ewald contribution        =    7143.89574737 Ry
     one-center paw contrib.   =   -1269.85243083 Ry

     convergence has been achieved in  55 iterations

     Writing all to output data dir ./tmp/cleave2/cleave_dz010_dz2p0/mos2_cleave.save/ :
     XML data file, charge density, pseudopotentials, collected wavefunctions

     init_run     :    122.28s CPU    124.40s WALL (       1 calls)
     electrons    :  11125.02s CPU  11309.64s WALL (       1 calls)

     Called by init_run:
     wfcinit      :     75.37s CPU     76.05s WALL (       1 calls)
     potinit      :     43.37s CPU     43.78s WALL (       1 calls)
     hinit0       :      0.35s CPU      0.37s WALL (       1 calls)

     Called by electrons:
     c_bands      :   9256.81s CPU   9310.43s WALL (      56 calls)
     sum_band     :   1423.33s CPU   1483.94s WALL (      56 calls)
     v_of_rho     :    220.63s CPU    239.00s WALL (      56 calls)
     newd         :    170.73s CPU    222.97s WALL (      56 calls)
     PAW_pot      :     22.54s CPU     22.55s WALL (      56 calls)
     mix_rho      :     75.14s CPU     76.28s WALL (      56 calls)
     vdW_kernel   :     39.72s CPU     39.73s WALL (       1 calls)

     Called by c_bands:
     init_us_2    :     42.69s CPU     42.73s WALL (    3390 calls)
     init_us_2:cp :     42.68s CPU     42.72s WALL (    3390 calls)
     cegterg      :   8848.13s CPU   8901.32s WALL (    1680 calls)

     Called by *egterg:
     cdiaghg      :     13.56s CPU     13.57s WALL (    5474 calls)
     h_psi        :   4717.89s CPU   4738.83s WALL (    5534 calls)
     s_psi        :   1386.14s CPU   1386.56s WALL (    5534 calls)
     g_psi        :     20.25s CPU     20.26s WALL (    3824 calls)

     Called by h_psi:
     h_psi:calbec :   1798.87s CPU   1799.34s WALL (    5534 calls)
     vloc_psi     :   1523.75s CPU   1524.79s WALL (    5534 calls)
     add_vuspsi   :   1385.81s CPU   1386.16s WALL (    5534 calls)

     General routines
     calbec       :   2620.16s CPU   2620.86s WALL (    7214 calls)
     fft          :     69.02s CPU     69.06s WALL (    3527 calls)
     ffts         :     36.77s CPU     36.79s WALL (    6754 calls)
     fftw         :   1381.70s CPU   1382.46s WALL (  560572 calls)
     interpolate  :      1.63s CPU      1.63s WALL (      56 calls)

     Parallel routines

     PWSCF        :      3h 7m CPU      3h10m WALL


   This run was terminated on:   9:55:32  11Jun2026            

=------------------------------------------------------------------------------=
   JOB DONE.
=------------------------------------------------------------------------------=
Note: The following floating-point exceptions are signalling: IEEE_UNDERFLOW_FLAG IEEE_DENORMAL
