Authorization required, but no authorization protocol specified

Authorization required, but no authorization protocol specified

Authorization required, but no authorization protocol specified

Authorization required, but no authorization protocol specified

Authorization required, but no authorization protocol specified

Authorization required, but no authorization protocol specified

Authorization required, but no authorization protocol specified

Authorization required, but no authorization protocol specified


     Program PWSCF v.7.3 starts on 10Jun2026 at 15:49: 1 

     This program is part of the open-source Quantum ESPRESSO suite
     for quantum simulation of materials; please cite
         "P. Giannozzi et al., J. Phys.:Condens. Matter 21 395502 (2009);
         "P. Giannozzi et al., J. Phys.:Condens. Matter 29 465901 (2017);
         "P. Giannozzi et al., J. Chem. Phys. 152 154105 (2020);
          URL http://www.quantum-espresso.org", 
     in publications or presentations arising from this work. More details at
     http://www.quantum-espresso.org/quote

     Parallel version (MPI), running on     1 processors

     MPI processes distributed on     1 nodes
     57241 MiB available memory on the printing compute node when the environment starts

     Waiting for input...
     Reading input from standard input

     Current dimensions of program PWSCF are:
     Max number of different atomic species (ntypx) = 10
     Max number of k-points (npk) =  40000
     Max angular momentum in pseudopotentials (lmaxx) =  4
     file Mo.pbe-spn-kjpaw_psl.1.0.0.UPF: wavefunction(s)  4S 4D renormalized
     file S.pbe-n-kjpaw_psl.1.0.0.UPF: wavefunction(s)  3S 3P renormalized

     IMPORTANT: XC functional enforced from input :
     Exchange-correlation= VDW-DF2-B86R
                           (   1   4  26   0   2   0   0)
     Any further DFT definition will be discarded
     Please, verify this is what you really want


     Subspace diagonalization in iterative solution of the eigenvalue problem:
     a serial algorithm will be used


     G-vector sticks info
     --------------------
     sticks:   dense  smooth     PW     G-vecs:    dense   smooth      PW
     Sum        1573     769    223               797393   281171   43435

     Using Slab Decomposition



     bravais-lattice index     =            4
     lattice parameter (alat)  =       5.9715  a.u.
     unit-cell volume          =    2917.9067 (a.u.)^3
     number of atoms/cell      =           12
     number of atomic types    =            2
     number of electrons       =       104.00
     number of Kohn-Sham states=           62
     kinetic-energy cutoff     =      80.0000  Ry
     charge density cutoff     =     640.0000  Ry
     scf convergence threshold =      1.0E-08
     mixing beta               =       0.2000
     number of iterations used =            8  local-TF  mixing
     Exchange-correlation= VDW-DF2-B86R
                           (   1   4  26   0   2   0   0)

     celldm(1)=   5.971535  celldm(2)=   0.000000  celldm(3)=  15.822785
     celldm(4)=   0.000000  celldm(5)=   0.000000  celldm(6)=   0.000000

     crystal axes: (cart. coord. in units of alat)
               a(1) = (   1.000000   0.000000   0.000000 )  
               a(2) = (  -0.500000   0.866025   0.000000 )  
               a(3) = (   0.000000   0.000000  15.822785 )  

     reciprocal axes: (cart. coord. in units 2 pi/alat)
               b(1) = (  1.000000  0.577350 -0.000000 )  
               b(2) = (  0.000000  1.154701  0.000000 )  
               b(3) = (  0.000000 -0.000000  0.063200 )  


     PseudoPot. # 1 for Mo read from file:
     ./pseudo/Mo.pbe-spn-kjpaw_psl.1.0.0.UPF
     MD5 check sum: 4396e0c640fcce5c25f020efccf1ab12
     Pseudo is Projector augmented-wave + core cor, Zval = 14.0
     Generated using &quot;atomic&quot; code by A. Dal Corso  v.6.3
     Shape of augmentation charge: PSQ
     Using radial grid of 1229 points,  6 beta functions with: 
                l(1) =   0
                l(2) =   0
                l(3) =   1
                l(4) =   1
                l(5) =   2
                l(6) =   2
     Q(r) pseudized with 0 coefficients 


     PseudoPot. # 2 for S  read from file:
     ./pseudo/S.pbe-n-kjpaw_psl.1.0.0.UPF
     MD5 check sum: fb45dfebcf3e72a4e1bd4a866ec2e262
     Pseudo is Projector augmented-wave + core cor, Zval =  6.0
     Generated using &quot;atomic&quot; code by A. Dal Corso  v.6.3
     Shape of augmentation charge: PSQ
     Using radial grid of 1151 points,  6 beta functions with: 
                l(1) =   0
                l(2) =   0
                l(3) =   1
                l(4) =   1
                l(5) =   2
                l(6) =   2
     Q(r) pseudized with 0 coefficients 


     atomic species   valence    mass     pseudopotential
     Mo               14.00    95.96000     Mo( 1.00)
     S                 6.00    32.06000     S ( 1.00)

      6 Sym. Ops. (no inversion) found



   Cartesian axes

     site n.     atom                  positions (alat units)
         1        S      tau(   1) = (  -0.0000005   0.5773503  -0.9967195  )
         2        Mo     tau(   2) = (   0.0000000   0.0000000  -0.4993332  )
         3        S      tau(   3) = (  -0.0000005   0.5773503  -0.0017175  )
         4        S      tau(   4) = (   0.5000003   0.2886747   0.9835827  )
         5        Mo     tau(   5) = (  -0.0000005   0.5773503   1.4818950  )
         6        S      tau(   6) = (   0.5000003   0.2886747   1.9798512  )
         7        S      tau(   7) = (   0.0000000   0.0000000   2.9586848  )
         8        Mo     tau(   8) = (   0.5000003   0.2886747   3.4569999  )
         9        S      tau(   9) = (   0.0000000   0.0000000   3.9548385  )
        10        S      tau(  10) = (  -0.0000005   0.5773503   5.3005085  )
        11        Mo     tau(  11) = (   0.0000000   0.0000000   5.7981450  )
        12        S      tau(  12) = (  -0.0000005   0.5773503   6.2952792  )

     number of k points=    30  Methfessel-Paxton smearing, width (Ry)=  0.0200
                       cart. coord. in units 2pi/alat
        k(    1) = (   0.0000000   0.0000000   0.0000000), wk =   0.0078125
        k(    2) = (   0.0000000   0.0721688   0.0000000), wk =   0.0468750
        k(    3) = (   0.0000000   0.1443376   0.0000000), wk =   0.0468750
        k(    4) = (   0.0000000   0.2165064   0.0000000), wk =   0.0468750
        k(    5) = (   0.0000000   0.2886751   0.0000000), wk =   0.0468750
        k(    6) = (   0.0000000   0.3608439   0.0000000), wk =   0.0468750
        k(    7) = (   0.0000000   0.4330127   0.0000000), wk =   0.0468750
        k(    8) = (   0.0000000   0.5051815   0.0000000), wk =   0.0468750
        k(    9) = (   0.0000000  -0.5773503   0.0000000), wk =   0.0234375
        k(   10) = (   0.0625000   0.1082532   0.0000000), wk =   0.0468750
        k(   11) = (   0.0625000   0.1804220   0.0000000), wk =   0.0937500
        k(   12) = (   0.0625000   0.2525907   0.0000000), wk =   0.0937500
        k(   13) = (   0.0625000   0.3247595   0.0000000), wk =   0.0937500
        k(   14) = (   0.0625000   0.3969283   0.0000000), wk =   0.0937500
        k(   15) = (   0.0625000   0.4690971   0.0000000), wk =   0.0937500
        k(   16) = (   0.0625000   0.5412659   0.0000000), wk =   0.0937500
        k(   17) = (   0.1250000   0.2165064   0.0000000), wk =   0.0468750
        k(   18) = (   0.1250000   0.2886751   0.0000000), wk =   0.0937500
        k(   19) = (   0.1250000   0.3608439   0.0000000), wk =   0.0937500
        k(   20) = (   0.1250000   0.4330127   0.0000000), wk =   0.0937500
        k(   21) = (   0.1250000   0.5051815   0.0000000), wk =   0.0937500
        k(   22) = (   0.1250000   0.5773503   0.0000000), wk =   0.0468750
        k(   23) = (   0.1875000   0.3247595   0.0000000), wk =   0.0468750
        k(   24) = (   0.1875000   0.3969283   0.0000000), wk =   0.0937500
        k(   25) = (   0.1875000   0.4690971   0.0000000), wk =   0.0937500
        k(   26) = (   0.1875000   0.5412659   0.0000000), wk =   0.0937500
        k(   27) = (   0.2500000   0.4330127   0.0000000), wk =   0.0468750
        k(   28) = (   0.2500000   0.5051815   0.0000000), wk =   0.0937500
        k(   29) = (   0.2500000   0.5773503   0.0000000), wk =   0.0468750
        k(   30) = (   0.3125000   0.5412659   0.0000000), wk =   0.0468750

     Dense  grid:   797393 G-vectors     FFT dimensions: (  50,  50, 768)

     Smooth grid:   281171 G-vectors     FFT dimensions: (  36,  36, 540)

     Estimated max dynamical RAM per process >       3.90 GB

     Initial potential from superposition of free atoms

     starting charge     103.9962, renormalised to     104.0000

     negative rho (up, down):  1.596E-04 0.000E+00


     %%%%%%%%%%%%%%%%%%%%%%%%%%%%%%%%%%%%%%%%%%%%%%%%%%%%%%%%%%%%%%%%%%%%%%%%
     %                                                                      %
     % You are using vdW-DF, which was implemented by the Thonhauser group. %
     % Please cite the following two papers that made this development      %
     % possible and the two reviews that describe the various versions:     %
     %                                                                      %
     %   T. Thonhauser et al., PRL 115, 136402 (2015).                      %
     %   T. Thonhauser et al., PRB 76, 125112 (2007).                       %
     %   K. Berland et al., Rep. Prog. Phys. 78, 066501 (2015).             %
     %   D.C. Langreth et al., J. Phys.: Condens. Matter 21, 084203 (2009). %
     %                                                                      %
     % If you are calculating stress with vdW-DF, please also cite:         %
     %                                                                      %
     %   R. Sabatini et al., J. Phys.: Condens. Matter 24, 424209 (2012).   %
     %                                                                      %
     %%%%%%%%%%%%%%%%%%%%%%%%%%%%%%%%%%%%%%%%%%%%%%%%%%%%%%%%%%%%%%%%%%%%%%%%

     %%%%%%%%%%%%%%%%%%%%%%%%%%%%%%%%%%%%%%%%%%%%%%%%%%%%%%%%%%%%%%%%%%%%%%%%
     %                                                                      %
     %  vdW-DF NEWS:                                                        %
     %                                                                      %
     %  * vdW-DF3 is now available. DOI: 10.1021/acs.jctc.0c00471           %
     %    use with input_dft = 'vdW-DF3-opt1' or 'vdW-DF3-opt2'             %
     %                                                                      %
     %  * Unscreened and range-separated hybrid vdW-DF-cx functionals       %
     %    DOI: 10.1063/1.4986522 and 10.1088/1361-648X/ac2ad2               %
     %    use with input_dft = 'vdW-DF-cx0'    and 'vdW-DF-ahcx'            %
     %  * Unscreened and range-separated hybrid vdW-DF2-b86r functionals    %
     %    DOI: 10.1063/1.4986522 and DOI: 10.1103/PhysRevX.12.041003        %
     %    use with input_dft = 'vdW-DF2-br0' and 'vdW-DF2-ahbr'             %
     %                                                                      %
     %%%%%%%%%%%%%%%%%%%%%%%%%%%%%%%%%%%%%%%%%%%%%%%%%%%%%%%%%%%%%%%%%%%%%%%%


     Starting wfcs are   72 randomized atomic wfcs
     Checking if some PAW data can be deallocated... 

     total cpu time spent up to now is      122.9 secs

     Self-consistent Calculation

     iteration #  1     ecut=    80.00 Ry     beta= 0.20
     Davidson diagonalization with overlap
     ethr =  1.00E-02,  avg # of iterations =  2.2

     Threshold (ethr) on eigenvalues was too large:
     Diagonalizing with lowered threshold

     Davidson diagonalization with overlap
     ethr =  2.84E-04,  avg # of iterations =  3.6

     negative rho (up, down):  3.929E-05 0.000E+00

     total cpu time spent up to now is      598.4 secs

     total energy              =   -1978.45982604 Ry
     estimated scf accuracy    <       0.44625273 Ry

     iteration #  2     ecut=    80.00 Ry     beta= 0.20
     Davidson diagonalization with overlap
     ethr =  4.29E-04,  avg # of iterations =  1.0

     negative rho (up, down):  3.102E-06 0.000E+00

     total cpu time spent up to now is      780.3 secs

     total energy              =   -1978.28083031 Ry
     estimated scf accuracy    <       0.36758189 Ry

     iteration #  3     ecut=    80.00 Ry     beta= 0.20
     Davidson diagonalization with overlap
     ethr =  3.53E-04,  avg # of iterations =  2.0

     negative rho (up, down):  6.262E-07 0.000E+00

     total cpu time spent up to now is     1018.8 secs

     total energy              =   -1978.36110299 Ry
     estimated scf accuracy    <       0.04604307 Ry

     iteration #  4     ecut=    80.00 Ry     beta= 0.20
     Davidson diagonalization with overlap
     ethr =  4.43E-05,  avg # of iterations =  2.2

     negative rho (up, down):  3.002E-07 0.000E+00

     total cpu time spent up to now is     1249.8 secs

     total energy              =   -1978.36414791 Ry
     estimated scf accuracy    <       0.01762937 Ry

     iteration #  5     ecut=    80.00 Ry     beta= 0.20
     Davidson diagonalization with overlap
     ethr =  1.70E-05,  avg # of iterations =  3.9

     negative rho (up, down):  2.093E-07 0.000E+00

     total cpu time spent up to now is     1468.0 secs

     total energy              =   -1978.36585094 Ry
     estimated scf accuracy    <       0.00398135 Ry

     iteration #  6     ecut=    80.00 Ry     beta= 0.20
     Davidson diagonalization with overlap
     c_bands:  2 eigenvalues not converged
     c_bands:  1 eigenvalues not converged
     ethr =  3.83E-06,  avg # of iterations =  6.3

     negative rho (up, down):  5.541E-07 0.000E+00

     total cpu time spent up to now is     1681.0 secs

     total energy              =   -1978.36492743 Ry
     estimated scf accuracy    <       0.00356774 Ry

     iteration #  7     ecut=    80.00 Ry     beta= 0.20
     Davidson diagonalization with overlap
     c_bands:  1 eigenvalues not converged
     c_bands:  1 eigenvalues not converged
     ethr =  3.43E-06,  avg # of iterations =  5.0

     negative rho (up, down):  2.064E-07 0.000E+00

     total cpu time spent up to now is     1957.3 secs

     total energy              =   -1978.36394885 Ry
     estimated scf accuracy    <       0.01281522 Ry

     iteration #  8     ecut=    80.00 Ry     beta= 0.20
     Davidson diagonalization with overlap
     c_bands:  1 eigenvalues not converged
     c_bands:  5 eigenvalues not converged
     ethr =  3.43E-06,  avg # of iterations =  5.8

     negative rho (up, down):  8.001E-07 0.000E+00

     total cpu time spent up to now is     2203.4 secs

     total energy              =   -1978.36467707 Ry
     estimated scf accuracy    <       0.00234460 Ry

     iteration #  9     ecut=    80.00 Ry     beta= 0.20
     Davidson diagonalization with overlap
     ethr =  2.25E-06,  avg # of iterations =  5.4

     negative rho (up, down):  6.972E-04 0.000E+00

     total cpu time spent up to now is     2426.2 secs

     total energy              =   -1978.36486516 Ry
     estimated scf accuracy    <       0.00175487 Ry

     iteration # 10     ecut=    80.00 Ry     beta= 0.20
     Davidson diagonalization with overlap
     ethr =  1.69E-06,  avg # of iterations =  3.1

     negative rho (up, down):  3.500E-03 0.000E+00

     total cpu time spent up to now is     2634.9 secs

     total energy              =   -1978.36449197 Ry
     estimated scf accuracy    <       0.00224024 Ry

     iteration # 11     ecut=    80.00 Ry     beta= 0.20
     Davidson diagonalization with overlap
     ethr =  1.69E-06,  avg # of iterations =  3.7

     negative rho (up, down):  4.537E-03 0.000E+00

     total cpu time spent up to now is     2841.7 secs

     total energy              =   -1978.36459733 Ry
     estimated scf accuracy    <       0.00052740 Ry

     iteration # 12     ecut=    80.00 Ry     beta= 0.20
     Davidson diagonalization with overlap
     ethr =  5.07E-07,  avg # of iterations =  5.8

     negative rho (up, down):  1.074E-03 0.000E+00

     total cpu time spent up to now is     3076.5 secs

     total energy              =   -1978.36462205 Ry
     estimated scf accuracy    <       0.00109449 Ry

     iteration # 13     ecut=    80.00 Ry     beta= 0.20
     Davidson diagonalization with overlap
     ethr =  5.07E-07,  avg # of iterations =  3.1

     negative rho (up, down):  2.760E-03 0.000E+00

     total cpu time spent up to now is     3300.3 secs

     total energy              =   -1978.36473151 Ry
     estimated scf accuracy    <       0.00041322 Ry

     iteration # 14     ecut=    80.00 Ry     beta= 0.20
     Davidson diagonalization with overlap
     ethr =  3.97E-07,  avg # of iterations =  1.3

     negative rho (up, down):  2.729E-03 0.000E+00

     total cpu time spent up to now is     3483.1 secs

     total energy              =   -1978.36465646 Ry
     estimated scf accuracy    <       0.00041706 Ry

     iteration # 15     ecut=    80.00 Ry     beta= 0.20
     Davidson diagonalization with overlap
     ethr =  3.97E-07,  avg # of iterations =  2.7

     negative rho (up, down):  1.880E-03 0.000E+00

     total cpu time spent up to now is     3697.1 secs

     total energy              =   -1978.36468676 Ry
     estimated scf accuracy    <       0.00046402 Ry

     iteration # 16     ecut=    80.00 Ry     beta= 0.20
     Davidson diagonalization with overlap
     ethr =  3.97E-07,  avg # of iterations =  1.1

     negative rho (up, down):  1.987E-03 0.000E+00

     total cpu time spent up to now is     3876.8 secs

     total energy              =   -1978.36464109 Ry
     estimated scf accuracy    <       0.00030975 Ry

     iteration # 17     ecut=    80.00 Ry     beta= 0.20
     Davidson diagonalization with overlap
     ethr =  2.98E-07,  avg # of iterations =  2.3

     negative rho (up, down):  1.852E-03 0.000E+00

     total cpu time spent up to now is     4073.1 secs

     total energy              =   -1978.36466711 Ry
     estimated scf accuracy    <       0.00015975 Ry

     iteration # 18     ecut=    80.00 Ry     beta= 0.20
     Davidson diagonalization with overlap
     ethr =  1.54E-07,  avg # of iterations =  1.0

     negative rho (up, down):  7.488E-04 0.000E+00

     total cpu time spent up to now is     4250.6 secs

     total energy              =   -1978.36470180 Ry
     estimated scf accuracy    <       0.00013503 Ry

     iteration # 19     ecut=    80.00 Ry     beta= 0.20
     Davidson diagonalization with overlap
     ethr =  1.30E-07,  avg # of iterations =  2.0

     negative rho (up, down):  7.710E-04 0.000E+00

     total cpu time spent up to now is     4449.5 secs

     total energy              =   -1978.36470862 Ry
     estimated scf accuracy    <       0.00016360 Ry

     iteration # 20     ecut=    80.00 Ry     beta= 0.20
     Davidson diagonalization with overlap
     ethr =  1.30E-07,  avg # of iterations =  1.1

     negative rho (up, down):  6.882E-04 0.000E+00

     total cpu time spent up to now is     4627.8 secs

     total energy              =   -1978.36470376 Ry
     estimated scf accuracy    <       0.00010912 Ry

     iteration # 21     ecut=    80.00 Ry     beta= 0.20
     Davidson diagonalization with overlap
     ethr =  1.05E-07,  avg # of iterations =  1.5

     negative rho (up, down):  4.261E-04 0.000E+00

     total cpu time spent up to now is     4814.0 secs

     total energy              =   -1978.36471245 Ry
     estimated scf accuracy    <       0.00007559 Ry

     iteration # 22     ecut=    80.00 Ry     beta= 0.20
     Davidson diagonalization with overlap
     ethr =  7.27E-08,  avg # of iterations =  1.6

     negative rho (up, down):  4.986E-04 0.000E+00

     total cpu time spent up to now is     5002.8 secs

     total energy              =   -1978.36471348 Ry
     estimated scf accuracy    <       0.00007347 Ry

     iteration # 23     ecut=    80.00 Ry     beta= 0.20
     Davidson diagonalization with overlap
     ethr =  7.06E-08,  avg # of iterations =  1.0

     negative rho (up, down):  5.439E-04 0.000E+00

     total cpu time spent up to now is     5180.0 secs

     total energy              =   -1978.36471335 Ry
     estimated scf accuracy    <       0.00007120 Ry

     iteration # 24     ecut=    80.00 Ry     beta= 0.20
     Davidson diagonalization with overlap
     ethr =  6.85E-08,  avg # of iterations =  1.0

     negative rho (up, down):  5.881E-04 0.000E+00

     total cpu time spent up to now is     5357.2 secs

     total energy              =   -1978.36471280 Ry
     estimated scf accuracy    <       0.00006759 Ry

     iteration # 25     ecut=    80.00 Ry     beta= 0.20
     Davidson diagonalization with overlap
     ethr =  6.50E-08,  avg # of iterations =  1.0

     negative rho (up, down):  3.705E-04 0.000E+00

     total cpu time spent up to now is     5534.8 secs

     total energy              =   -1978.36471476 Ry
     estimated scf accuracy    <       0.00006900 Ry

     iteration # 26     ecut=    80.00 Ry     beta= 0.20
     Davidson diagonalization with overlap
     ethr =  6.50E-08,  avg # of iterations =  1.0

     negative rho (up, down):  7.232E-04 0.000E+00

     total cpu time spent up to now is     5713.4 secs

     total energy              =   -1978.36471319 Ry
     estimated scf accuracy    <       0.00006965 Ry

     iteration # 27     ecut=    80.00 Ry     beta= 0.20
     Davidson diagonalization with overlap
     ethr =  6.50E-08,  avg # of iterations =  1.0

     negative rho (up, down):  7.474E-04 0.000E+00

     total cpu time spent up to now is     5890.6 secs

     total energy              =   -1978.36470858 Ry
     estimated scf accuracy    <       0.00007506 Ry

     iteration # 28     ecut=    80.00 Ry     beta= 0.20
     Davidson diagonalization with overlap
     ethr =  6.50E-08,  avg # of iterations =  1.1

     negative rho (up, down):  9.389E-04 0.000E+00

     total cpu time spent up to now is     6070.6 secs

     total energy              =   -1978.36471709 Ry
     estimated scf accuracy    <       0.00007604 Ry

     iteration # 29     ecut=    80.00 Ry     beta= 0.20
     Davidson diagonalization with overlap
     ethr =  6.50E-08,  avg # of iterations =  1.0

     negative rho (up, down):  9.443E-04 0.000E+00

     total cpu time spent up to now is     6249.4 secs

     total energy              =   -1978.36471600 Ry
     estimated scf accuracy    <       0.00007176 Ry

     iteration # 30     ecut=    80.00 Ry     beta= 0.20
     Davidson diagonalization with overlap
     ethr =  6.50E-08,  avg # of iterations =  1.0

     negative rho (up, down):  5.704E-04 0.000E+00

     total cpu time spent up to now is     6426.7 secs

     total energy              =   -1978.36471433 Ry
     estimated scf accuracy    <       0.00006904 Ry

     iteration # 31     ecut=    80.00 Ry     beta= 0.20
     Davidson diagonalization with overlap
     ethr =  6.50E-08,  avg # of iterations =  1.1

     negative rho (up, down):  8.913E-04 0.000E+00

     total cpu time spent up to now is     6605.3 secs

     total energy              =   -1978.36471848 Ry
     estimated scf accuracy    <       0.00007149 Ry

     iteration # 32     ecut=    80.00 Ry     beta= 0.20
     Davidson diagonalization with overlap
     ethr =  6.50E-08,  avg # of iterations =  1.0

     negative rho (up, down):  8.094E-04 0.000E+00

     total cpu time spent up to now is     6782.5 secs

     total energy              =   -1978.36471302 Ry
     estimated scf accuracy    <       0.00007429 Ry

     iteration # 33     ecut=    80.00 Ry     beta= 0.20
     Davidson diagonalization with overlap
     ethr =  6.50E-08,  avg # of iterations =  1.0

     negative rho (up, down):  8.621E-04 0.000E+00

     total cpu time spent up to now is     6961.5 secs

     total energy              =   -1978.36471539 Ry
     estimated scf accuracy    <       0.00006939 Ry

     iteration # 34     ecut=    80.00 Ry     beta= 0.20
     Davidson diagonalization with overlap
     ethr =  6.50E-08,  avg # of iterations =  1.0

     negative rho (up, down):  6.388E-04 0.000E+00

     total cpu time spent up to now is     7138.8 secs

     total energy              =   -1978.36471145 Ry
     estimated scf accuracy    <       0.00006973 Ry

     iteration # 35     ecut=    80.00 Ry     beta= 0.20
     Davidson diagonalization with overlap
     ethr =  6.50E-08,  avg # of iterations =  1.1

     negative rho (up, down):  5.834E-04 0.000E+00

     total cpu time spent up to now is     7317.3 secs

     total energy              =   -1978.36471011 Ry
     estimated scf accuracy    <       0.00006661 Ry

     iteration # 36     ecut=    80.00 Ry     beta= 0.20
     Davidson diagonalization with overlap
     ethr =  6.40E-08,  avg # of iterations =  1.0

     negative rho (up, down):  6.530E-04 0.000E+00

     total cpu time spent up to now is     7495.3 secs

     total energy              =   -1978.36469024 Ry
     estimated scf accuracy    <       0.00006364 Ry

     iteration # 37     ecut=    80.00 Ry     beta= 0.20
     Davidson diagonalization with overlap
     ethr =  6.12E-08,  avg # of iterations =  1.6

     negative rho (up, down):  8.516E-04 0.000E+00

     total cpu time spent up to now is     7684.1 secs

     total energy              =   -1978.36468390 Ry
     estimated scf accuracy    <       0.00004576 Ry

     iteration # 38     ecut=    80.00 Ry     beta= 0.20
     Davidson diagonalization with overlap
     ethr =  4.40E-08,  avg # of iterations =  1.9

     negative rho (up, down):  1.168E-03 0.000E+00

     total cpu time spent up to now is     7878.2 secs

     total energy              =   -1978.36469302 Ry
     estimated scf accuracy    <       0.00003595 Ry

     iteration # 39     ecut=    80.00 Ry     beta= 0.20
     Davidson diagonalization with overlap
     ethr =  3.46E-08,  avg # of iterations =  1.0

     negative rho (up, down):  1.229E-03 0.000E+00

     total cpu time spent up to now is     8056.8 secs

     total energy              =   -1978.36469256 Ry
     estimated scf accuracy    <       0.00002931 Ry

     iteration # 40     ecut=    80.00 Ry     beta= 0.20
     Davidson diagonalization with overlap
     ethr =  2.82E-08,  avg # of iterations =  1.1

     negative rho (up, down):  8.281E-04 0.000E+00

     total cpu time spent up to now is     8236.0 secs

     total energy              =   -1978.36468646 Ry
     estimated scf accuracy    <       0.00002490 Ry

     iteration # 41     ecut=    80.00 Ry     beta= 0.20
     Davidson diagonalization with overlap
     ethr =  2.39E-08,  avg # of iterations =  2.7

     negative rho (up, down):  1.100E-03 0.000E+00

     total cpu time spent up to now is     8445.7 secs

     total energy              =   -1978.36469029 Ry
     estimated scf accuracy    <       0.00001477 Ry

     iteration # 42     ecut=    80.00 Ry     beta= 0.20
     Davidson diagonalization with overlap
     c_bands:  1 eigenvalues not converged
     ethr =  1.42E-08,  avg # of iterations =  1.8

     negative rho (up, down):  7.723E-04 0.000E+00

     total cpu time spent up to now is     8629.3 secs

     total energy              =   -1978.36469077 Ry
     estimated scf accuracy    <       0.00001135 Ry

     iteration # 43     ecut=    80.00 Ry     beta= 0.20
     Davidson diagonalization with overlap
     ethr =  1.09E-08,  avg # of iterations =  2.0

     negative rho (up, down):  5.046E-04 0.000E+00

     total cpu time spent up to now is     8825.9 secs

     total energy              =   -1978.36469036 Ry
     estimated scf accuracy    <       0.00001052 Ry

     iteration # 44     ecut=    80.00 Ry     beta= 0.20
     Davidson diagonalization with overlap
     ethr =  1.01E-08,  avg # of iterations =  1.5

     negative rho (up, down):  4.161E-04 0.000E+00

     total cpu time spent up to now is     9010.7 secs

     total energy              =   -1978.36469133 Ry
     estimated scf accuracy    <       0.00000844 Ry

     iteration # 45     ecut=    80.00 Ry     beta= 0.20
     Davidson diagonalization with overlap
     ethr =  8.11E-09,  avg # of iterations =  1.0

     negative rho (up, down):  4.978E-04 0.000E+00

     total cpu time spent up to now is     9195.7 secs

     total energy              =   -1978.36469184 Ry
     estimated scf accuracy    <       0.00000776 Ry

     iteration # 46     ecut=    80.00 Ry     beta= 0.20
     Davidson diagonalization with overlap
     ethr =  7.46E-09,  avg # of iterations =  1.0

     negative rho (up, down):  4.583E-04 0.000E+00

     total cpu time spent up to now is     9378.9 secs

     total energy              =   -1978.36469199 Ry
     estimated scf accuracy    <       0.00000724 Ry

     iteration # 47     ecut=    80.00 Ry     beta= 0.20
     Davidson diagonalization with overlap
     ethr =  6.97E-09,  avg # of iterations =  1.1

     negative rho (up, down):  3.454E-04 0.000E+00

     total cpu time spent up to now is     9562.8 secs

     total energy              =   -1978.36469219 Ry
     estimated scf accuracy    <       0.00000700 Ry

     iteration # 48     ecut=    80.00 Ry     beta= 0.20
     Davidson diagonalization with overlap
     ethr =  6.73E-09,  avg # of iterations =  1.0

     negative rho (up, down):  3.472E-04 0.000E+00

     total cpu time spent up to now is     9746.7 secs

     total energy              =   -1978.36469219 Ry
     estimated scf accuracy    <       0.00000686 Ry

     iteration # 49     ecut=    80.00 Ry     beta= 0.20
     Davidson diagonalization with overlap
     ethr =  6.60E-09,  avg # of iterations =  1.1

     negative rho (up, down):  3.103E-04 0.000E+00

     total cpu time spent up to now is     9927.2 secs

     total energy              =   -1978.36468942 Ry
     estimated scf accuracy    <       0.00000658 Ry

     iteration # 50     ecut=    80.00 Ry     beta= 0.20
     Davidson diagonalization with overlap
     ethr =  6.33E-09,  avg # of iterations =  1.6

     negative rho (up, down):  3.004E-04 0.000E+00

     total cpu time spent up to now is    10116.5 secs

     total energy              =   -1978.36468984 Ry
     estimated scf accuracy    <       0.00000602 Ry

     iteration # 51     ecut=    80.00 Ry     beta= 0.20
     Davidson diagonalization with overlap
     ethr =  5.79E-09,  avg # of iterations =  1.0

     negative rho (up, down):  3.030E-04 0.000E+00

     total cpu time spent up to now is    10297.1 secs

     total energy              =   -1978.36469009 Ry
     estimated scf accuracy    <       0.00000597 Ry

     iteration # 52     ecut=    80.00 Ry     beta= 0.20
     Davidson diagonalization with overlap
     ethr =  5.75E-09,  avg # of iterations =  1.0

     negative rho (up, down):  2.148E-04 0.000E+00

     total cpu time spent up to now is    10479.7 secs

     total energy              =   -1978.36468853 Ry
     estimated scf accuracy    <       0.00000588 Ry

     iteration # 53     ecut=    80.00 Ry     beta= 0.20
     Davidson diagonalization with overlap
     ethr =  5.65E-09,  avg # of iterations =  1.3

     negative rho (up, down):  2.405E-04 0.000E+00

     total cpu time spent up to now is    10666.1 secs

     total energy              =   -1978.36468615 Ry
     estimated scf accuracy    <       0.00000469 Ry

     iteration # 54     ecut=    80.00 Ry     beta= 0.20
     Davidson diagonalization with overlap
     ethr =  4.51E-09,  avg # of iterations =  2.4

     negative rho (up, down):  2.676E-04 0.000E+00

     total cpu time spent up to now is    10858.3 secs

     total energy              =   -1978.36468542 Ry
     estimated scf accuracy    <       0.00000354 Ry

     iteration # 55     ecut=    80.00 Ry     beta= 0.20
     Davidson diagonalization with overlap
     ethr =  3.40E-09,  avg # of iterations =  2.3

     negative rho (up, down):  1.377E-04 0.000E+00

     total cpu time spent up to now is    11043.6 secs

     total energy              =   -1978.36468856 Ry
     estimated scf accuracy    <       0.00000310 Ry

     iteration # 56     ecut=    80.00 Ry     beta= 0.20
     Davidson diagonalization with overlap
     ethr =  2.98E-09,  avg # of iterations =  2.0

     negative rho (up, down):  1.945E-04 0.000E+00

     total cpu time spent up to now is    11248.2 secs

     total energy              =   -1978.36468762 Ry
     estimated scf accuracy    <       0.00000155 Ry

     iteration # 57     ecut=    80.00 Ry     beta= 0.20
     Davidson diagonalization with overlap
     ethr =  1.49E-09,  avg # of iterations =  2.6

     negative rho (up, down):  1.911E-04 0.000E+00

     total cpu time spent up to now is    11451.4 secs

     total energy              =   -1978.36468875 Ry
     estimated scf accuracy    <       0.00000107 Ry

     iteration # 58     ecut=    80.00 Ry     beta= 0.20
     Davidson diagonalization with overlap
     ethr =  1.03E-09,  avg # of iterations =  2.5

     negative rho (up, down):  1.848E-04 0.000E+00

     total cpu time spent up to now is    11654.4 secs

     total energy              =   -1978.36468924 Ry
     estimated scf accuracy    <       0.00000049 Ry

     iteration # 59     ecut=    80.00 Ry     beta= 0.20
     Davidson diagonalization with overlap
     ethr =  4.75E-10,  avg # of iterations =  3.0

     negative rho (up, down):  1.975E-04 0.000E+00

     total cpu time spent up to now is    11864.1 secs

     total energy              =   -1978.36468802 Ry
     estimated scf accuracy    <       0.00000039 Ry

     iteration # 60     ecut=    80.00 Ry     beta= 0.20
     Davidson diagonalization with overlap
     ethr =  3.78E-10,  avg # of iterations =  2.1

     negative rho (up, down):  2.150E-04 0.000E+00

     total cpu time spent up to now is    12067.1 secs

     total energy              =   -1978.36468872 Ry
     estimated scf accuracy    <       0.00000023 Ry

     iteration # 61     ecut=    80.00 Ry     beta= 0.20
     Davidson diagonalization with overlap
     ethr =  2.21E-10,  avg # of iterations =  2.1

     negative rho (up, down):  2.006E-04 0.000E+00

     total cpu time spent up to now is    12268.3 secs

     total energy              =   -1978.36468894 Ry
     estimated scf accuracy    <       0.00000014 Ry

     iteration # 62     ecut=    80.00 Ry     beta= 0.20
     Davidson diagonalization with overlap
     ethr =  1.37E-10,  avg # of iterations =  2.1

     negative rho (up, down):  1.889E-04 0.000E+00

     total cpu time spent up to now is    12469.5 secs

     total energy              =   -1978.36468840 Ry
     estimated scf accuracy    <       0.00000009 Ry

     iteration # 63     ecut=    80.00 Ry     beta= 0.20
     Davidson diagonalization with overlap
     ethr =  9.07E-11,  avg # of iterations =  2.1

     negative rho (up, down):  1.798E-04 0.000E+00

     total cpu time spent up to now is    12671.2 secs

     total energy              =   -1978.36468855 Ry
     estimated scf accuracy    <       0.00000007 Ry

     iteration # 64     ecut=    80.00 Ry     beta= 0.20
     Davidson diagonalization with overlap
     ethr =  7.10E-11,  avg # of iterations =  2.0

     negative rho (up, down):  1.851E-04 0.000E+00

     total cpu time spent up to now is    12877.4 secs

     total energy              =   -1978.36468862 Ry
     estimated scf accuracy    <       0.00000003 Ry

     iteration # 65     ecut=    80.00 Ry     beta= 0.20
     Davidson diagonalization with overlap
     ethr =  3.05E-11,  avg # of iterations =  2.1

     negative rho (up, down):  1.795E-04 0.000E+00

     total cpu time spent up to now is    13079.7 secs

     total energy              =   -1978.36468871 Ry
     estimated scf accuracy    <       0.00000003 Ry

     iteration # 66     ecut=    80.00 Ry     beta= 0.20
     Davidson diagonalization with overlap
     ethr =  2.47E-11,  avg # of iterations =  2.0

     negative rho (up, down):  1.798E-04 0.000E+00

     total cpu time spent up to now is    13277.0 secs

     total energy              =   -1978.36468876 Ry
     estimated scf accuracy    <       0.00000002 Ry

     iteration # 67     ecut=    80.00 Ry     beta= 0.20
     Davidson diagonalization with overlap
     ethr =  1.57E-11,  avg # of iterations =  1.2

     negative rho (up, down):  1.788E-04 0.000E+00

     total cpu time spent up to now is    13462.0 secs

     total energy              =   -1978.36468892 Ry
     estimated scf accuracy    <       0.00000001 Ry

     iteration # 68     ecut=    80.00 Ry     beta= 0.20
     Davidson diagonalization with overlap
     ethr =  1.26E-11,  avg # of iterations =  1.6

     negative rho (up, down):  1.778E-04 0.000E+00

     total cpu time spent up to now is    13652.4 secs

     total energy              =   -1978.36468893 Ry
     estimated scf accuracy    <       0.00000001 Ry

     iteration # 69     ecut=    80.00 Ry     beta= 0.20
     Davidson diagonalization with overlap
     ethr =  1.04E-11,  avg # of iterations =  1.2

     negative rho (up, down):  1.871E-04 0.000E+00

     total cpu time spent up to now is    13833.9 secs

     End of self-consistent calculation

          k = 0.0000 0.0000 0.0000 ( 35507 PWs)   bands (ev):

   -58.9000 -58.8951 -58.8509 -58.8015 -33.0740 -33.0689 -33.0254 -32.9758
   -32.8366 -32.8366 -32.8330 -32.8329 -32.7874 -32.7874 -32.7391 -32.7391
   -12.2433 -12.1703 -12.1445 -12.0471 -11.0087 -10.8840 -10.8490 -10.7160
    -4.0435  -3.7375  -3.6711  -3.3541  -0.6269  -0.6269  -0.6223  -0.6223
    -0.6141  -0.5757  -0.5757  -0.5346  -0.5346  -0.0603   0.1569   0.4921
     0.4921   0.4928   0.4929   0.5385   0.5385   0.5838   0.5838   0.8303
     1.5795   1.8531   2.1464   2.4614   4.7242   4.7242   4.7525   4.7525
     4.7762   4.7762   4.8343   4.8343   4.9390   4.9390

          k = 0.0000 0.0722 0.0000 ( 35493 PWs)   bands (ev):

   -58.8985 -58.8936 -58.8493 -58.7999 -33.0709 -33.0658 -33.0224 -32.9728
   -32.8521 -32.8485 -32.8401 -32.8365 -32.8029 -32.7909 -32.7547 -32.7427
   -12.1837 -12.1109 -12.0852 -11.9880 -10.9811 -10.8590 -10.8238 -10.6928
    -3.9746  -3.6692  -3.6028  -3.2861  -0.7621  -0.7599  -0.7473  -0.7113
    -0.6688  -0.5644  -0.5601  -0.5135  -0.4721  -0.2916  -0.1451   0.1783
     0.3950   0.3962   0.4417   0.4875   0.5927   0.6663   0.7311   1.0684
     1.5826   1.8343   2.1090   2.3811   4.6491   4.6628   4.6966   4.7505
     4.7721   4.8016   4.8116   4.8452   4.8647   4.8922

          k = 0.0000 0.1443 0.0000 ( 35435 PWs)   bands (ev):

   -58.8940 -58.8891 -58.8449 -58.7955 -33.0623 -33.0572 -33.0137 -32.9641
   -32.8962 -32.8926 -32.8502 -32.8470 -32.8465 -32.8010 -32.7988 -32.7527
   -12.0097 -11.9378 -11.9123 -11.8158 -10.9005 -10.7862 -10.7504 -10.6255
    -3.7828  -3.4809  -3.4148  -3.1009  -1.1113  -1.1075  -1.0694  -1.0560
    -1.0105  -0.7137  -0.6055  -0.3842  -0.3809  -0.3372  -0.3344  -0.2920
     0.1438   0.1461   0.1913   0.2381   0.6528   0.7964   0.8889   1.2176
     1.5543   1.7401   1.9496   2.1231   4.3414   4.4108   4.4748   4.5133
     4.5629   4.5932   4.6664   4.6665   4.7208   4.7453

          k = 0.0000 0.2165 0.0000 ( 35345 PWs)   bands (ev):

   -58.8874 -58.8825 -58.8382 -58.7888 -33.0493 -33.0442 -33.0008 -32.9616
   -32.9581 -32.9511 -32.9124 -32.8651 -32.8642 -32.8615 -32.8159 -32.7677
   -11.7362 -11.6663 -11.6413 -11.5464 -10.7741 -10.6725 -10.6356 -10.5206
    -3.5227  -3.2355  -3.1721  -2.8746  -1.5477  -1.5309  -1.5006  -1.4702
    -1.3988  -1.1803  -1.0853  -0.8825  -0.1827  -0.1776  -0.1367  -0.1092
    -0.1060  -0.0867  -0.0565  -0.0155   0.5652   0.7449   0.8400   1.1348
     1.4094   1.5072   1.6239   1.7138   3.9668   4.0918   4.2122   4.4196
     4.4458   4.5044   4.5297   4.5559   4.6142   4.6245

          k = 0.0000 0.2887 0.0000 ( 35323 PWs)   bands (ev):

   -58.8795 -58.8746 -58.8304 -58.7810 -33.0378 -33.0344 -33.0340 -33.0288
   -32.9887 -32.9854 -32.9406 -32.9358 -32.8828 -32.8792 -32.8336 -32.7853
   -11.3887 -11.3231 -11.2985 -11.2069 -10.6145 -10.5299 -10.4918 -10.3897
    -3.3225  -3.0870  -3.0395  -2.8098  -1.9467  -1.8742  -1.8502  -1.8117
    -1.7136  -1.6562  -1.5365  -1.4218  -0.5108  -0.5054  -0.4617  -0.4124
     0.2170   0.2207   0.2666   0.3145   0.3500   0.5467   0.6324   0.8906
     1.1341   1.1790   1.2390   1.3041   3.8350   4.0055   4.1424   4.2576
     4.3114   4.3395   4.4194   4.4216   4.7694   4.8887

          k = 0.0000 0.3608 0.0000 ( 35299 PWs)   bands (ev):

   -58.8717 -58.8668 -58.8225 -58.7731 -33.1132 -33.1099 -33.0641 -33.0186
   -33.0161 -33.0134 -32.9700 -32.9203 -32.9003 -32.8967 -32.8511 -32.8029
   -11.0056 -10.9475 -10.9232 -10.8376 -10.4409 -10.3764 -10.3375 -10.2502
    -3.3590  -3.2176  -3.1949  -3.0610  -2.3119  -2.1910  -2.1327  -2.0213
    -1.9575  -1.9169  -1.8227  -1.7268  -0.7992  -0.7928  -0.7494  -0.6993
     0.1157   0.3161   0.3868   0.5364   0.5488   0.5914   0.6153   0.6461
     0.9152   0.9547   1.0100   1.0738   3.9541   4.1270   4.1541   4.1951
     4.2263   4.2452   4.3006   4.5106   5.0973   5.2305

          k = 0.0000 0.4330 0.0000 ( 35224 PWs)   bands (ev):

   -58.8650 -58.8601 -58.8158 -58.7664 -33.1765 -33.1732 -33.1273 -33.0794
   -33.0055 -33.0003 -32.9569 -32.9151 -32.9116 -32.9072 -32.8659 -32.8177
   -10.6416 -10.5949 -10.5706 -10.4944 -10.2793 -10.2362 -10.1972 -10.1246
    -3.5917  -3.5129  -3.4976  -3.4096  -2.6499  -2.5425  -2.5222  -2.4125
    -2.0661  -1.9779  -1.9364  -1.8082  -1.0200  -1.0130  -0.9697  -0.9191
    -0.0583   0.1366   0.1927   0.3996   0.7905   0.8159   0.8554   0.9190
     0.9353   0.9926   1.0466   1.1269   4.1482   4.1722   4.2075   4.2178
     4.2707   4.3587   4.4421   4.6486   5.4079   5.5362

          k = 0.0000 0.5052 0.0000 ( 35152 PWs)   bands (ev):

   -58.8605 -58.8556 -58.8114 -58.7619 -33.2184 -33.2152 -33.1693 -33.1214
   -32.9967 -32.9915 -32.9482 -32.9250 -32.9215 -32.8985 -32.8758 -32.8276
   -10.3693 -10.3360 -10.3110 -10.2462 -10.1610 -10.1363 -10.0991 -10.0374
    -3.8200  -3.7630  -3.7524  -3.6765  -2.8870  -2.8038  -2.7911  -2.6931
    -2.1685  -2.0768  -2.0435  -1.9209  -1.1577  -1.1503  -1.1071  -1.0563
    -0.1527   0.0340   0.0792   0.2685   0.9442   0.9819   1.0191   1.0909
     1.1247   1.1885   1.2313   1.3149   4.1967   4.2079   4.2476   4.3019
     4.5113   4.6017   4.6504   4.7823   5.6046   5.7237

          k = 0.0000-0.5774 0.0000 ( 35026 PWs)   bands (ev):

   -58.8589 -58.8540 -58.8098 -58.7604 -33.2330 -33.2298 -33.1839 -33.1360
   -32.9937 -32.9884 -32.9451 -32.9285 -32.9249 -32.8954 -32.8793 -32.8311
   -10.2657 -10.2395 -10.2137 -10.1556 -10.1165 -10.1000 -10.0645 -10.0063
    -3.9119  -3.8588  -3.8502  -3.7758  -2.9719  -2.8988  -2.8869  -2.7921
    -2.2164  -2.1255  -2.0930  -1.9733  -1.2044  -1.1969  -1.1538  -1.1028
    -0.1810   0.0016   0.0425   0.2244   0.9941   1.0367   1.0730   1.1482
     1.2415   1.2947   1.3279   1.4021   4.2252   4.2324   4.2742   4.3254
     4.6672   4.7172   4.7510   4.8287   5.6676   5.8050

          k = 0.0625 0.1083 0.0000 ( 35467 PWs)   bands (ev):

   -58.8955 -58.8906 -58.8463 -58.7969 -33.0651 -33.0600 -33.0166 -32.9669
   -32.8815 -32.8779 -32.8474 -32.8437 -32.8323 -32.7982 -32.7841 -32.7499
   -12.0669 -11.9946 -11.9691 -11.8723 -10.9269 -10.8101 -10.7744 -10.6476
    -3.8438  -3.5403  -3.4740  -3.1587  -1.0010  -0.9991  -0.9639  -0.9505
    -0.9055  -0.5828  -0.4654  -0.4450  -0.4412  -0.3946  -0.3531  -0.1722
     0.1803   0.1814   0.2264   0.2726   0.6897   0.8119   0.8967   1.2216
     1.5715   1.7783   2.0121   2.2117   4.4641   4.5043   4.5309   4.5542
     4.5743   4.6240   4.6419   4.7139   4.7383   4.8060

          k = 0.0625 0.1804 0.0000 ( 35370 PWs)   bands (ev):

   -58.8899 -58.8850 -58.8408 -58.7914 -33.0543 -33.0492 -33.0057 -32.9561
   -32.9350 -32.9315 -32.8858 -32.8611 -32.8575 -32.8376 -32.8119 -32.7636
   -11.8430 -11.7721 -11.7470 -11.6513 -10.8233 -10.7167 -10.6802 -10.5612
    -3.6137  -3.3181  -3.2528  -2.9453  -1.3843  -1.3780  -1.3405  -1.3054
    -1.2506  -0.9716  -0.8715  -0.6311  -0.2275  -0.2255  -0.1930  -0.1839
    -0.1711  -0.1475  -0.1265  -0.0928   0.7405   0.8894   0.9775   1.2606
     1.4883   1.6135   1.7686   1.8746   4.0762   4.1760   4.2713   4.4016
     4.4559   4.4951   4.5283   4.5832   4.6242   4.6791

          k = 0.0625 0.2526 0.0000 ( 35362 PWs)   bands (ev):

   -58.8827 -58.8778 -58.8335 -58.7841 -33.0401 -33.0350 -33.0041 -33.0007
   -32.9916 -32.9550 -32.9419 -32.9069 -32.8790 -32.8754 -32.8298 -32.7816
   -11.5319 -11.4642 -11.4395 -11.3462 -10.6797 -10.5878 -10.5503 -10.4427
    -3.3699  -3.1039  -3.0464  -2.7766  -1.7768  -1.7417  -1.7226  -1.6855
    -1.5790  -1.4116  -1.3127  -1.1548  -0.5667  -0.5553  -0.5113  -0.4605
     0.0425   0.0449   0.0902   0.1371   0.6381   0.7928   0.8719   1.1074
     1.2754   1.3263   1.4017   1.4637   3.8138   3.9658   4.0837   4.2560
     4.3721   4.3974   4.4430   4.4851   4.5793   4.6439

          k = 0.0625 0.3248 0.0000 ( 35310 PWs)   bands (ev):

   -58.8748 -58.8699 -58.8257 -58.7763 -33.0782 -33.0748 -33.0290 -33.0247
   -33.0196 -32.9810 -32.9762 -32.9265 -32.8984 -32.8948 -32.8492 -32.8010
   -11.1650 -11.1032 -11.0788 -10.9903 -10.5117 -10.4384 -10.3998 -10.3060
    -3.2802  -3.0937  -3.0613  -2.8869  -2.1153  -2.0226  -1.9366  -1.8937
    -1.8610  -1.8175  -1.6949  -1.6529  -0.8714  -0.8487  -0.8031  -0.7420
     0.2765   0.2880   0.3226   0.3755   0.4280   0.5712   0.6384   0.8404
     1.0456   1.0714   1.1179   1.1749   3.7790   3.9435   4.0392   4.1709
     4.2998   4.3326   4.3898   4.5076   4.8301   4.9443

          k = 0.0625 0.3969 0.0000 ( 35243 PWs)   bands (ev):

   -58.8675 -58.8626 -58.8184 -58.7690 -33.1458 -33.1426 -33.0967 -33.0488
   -33.0105 -33.0053 -32.9619 -32.9162 -32.9126 -32.9123 -32.8670 -32.8188
   -10.7882 -10.7360 -10.7118 -10.6310 -10.3417 -10.2894 -10.2501 -10.1713
    -3.4345  -3.3306  -3.3127  -3.2075  -2.4847  -2.3756  -2.3510  -2.2435
    -1.9948  -1.9150  -1.8693  -1.7396  -1.0698  -1.0434  -1.0000  -0.9379
     0.1643   0.3199   0.3658   0.4237   0.4363   0.4827   0.5067   0.5968
     1.0556   1.0746   1.1178   1.1713   3.9149   4.0452   4.1032   4.2016
     4.3438   4.3855   4.4381   4.5944   5.1689   5.2910

          k = 0.0625 0.4691 0.0000 ( 35169 PWs)   bands (ev):

   -58.8620 -58.8571 -58.8128 -58.7634 -33.1972 -33.1939 -33.1480 -33.1001
   -32.9996 -32.9944 -32.9510 -32.9298 -32.9263 -32.9013 -32.8806 -32.8324
   -10.4649 -10.4256 -10.4011 -10.3312 -10.1986 -10.1667 -10.1283 -10.0626
    -3.6720  -3.6066  -3.5938  -3.5137  -2.8007  -2.7178  -2.7070  -2.6117
    -2.0961  -2.0011  -1.9702  -1.8430  -1.1765  -1.1568  -1.1192  -1.0612
    -0.0265   0.1325   0.1760   0.3428   0.5449   0.5755   0.6093   0.6832
     1.2298   1.2536   1.2946   1.3542   4.1093   4.1746   4.2085   4.2791
     4.4835   4.5390   4.5888   4.7236   5.4851   5.5982

          k = 0.0625 0.5413 0.0000 ( 35128 PWs)   bands (ev):

   -58.8589 -58.8540 -58.8098 -58.7604 -33.2248 -33.2216 -33.1757 -33.1278
   -32.9937 -32.9884 -32.9451 -32.9372 -32.9336 -32.8954 -32.8880 -32.8398
   -10.2715 -10.2439 -10.2184 -10.1592 -10.1141 -10.0966 -10.0606 -10.0021
    -3.8319  -3.7777  -3.7692  -3.6941  -2.9791  -2.9114  -2.9038  -2.8123
    -2.1852  -2.0904  -2.0603  -1.9390  -1.2189  -1.2082  -1.1738  -1.1197
    -0.1311   0.0315   0.0712   0.2359   0.6353   0.6780   0.7068   0.7814
     1.3846   1.4172   1.4545   1.5201   4.2228   4.2367   4.2700   4.3223
     4.6614   4.7149   4.7523   4.8398   5.7145   5.8287

          k = 0.1250 0.2165 0.0000 ( 35331 PWs)   bands (ev):

   -58.8838 -58.8789 -58.8346 -58.7852 -33.0423 -33.0371 -32.9937 -32.9901
   -32.9867 -32.9441 -32.9410 -32.8929 -32.8799 -32.8763 -32.8307 -32.7825
   -11.5810 -11.5127 -11.4879 -11.3942 -10.7019 -10.6077 -10.5702 -10.4608
    -3.3891  -3.1130  -3.0523  -2.7687  -1.7050  -1.6881  -1.6635  -1.6177
    -1.4846  -1.2541  -1.1545  -0.9677  -0.7061  -0.6971  -0.6487  -0.6015
    -0.0369  -0.0350   0.0094   0.0561   0.8234   0.9572   1.0302   1.2372
     1.3431   1.3883   1.4774   1.5328   3.8019   3.9441   4.0506   4.2164
     4.3549   4.3947   4.4277   4.4505   4.5062   4.5212

          k = 0.1250 0.2887 0.0000 ( 35357 PWs)   bands (ev):

   -58.8765 -58.8716 -58.8274 -58.7780 -33.0535 -33.0501 -33.0281 -33.0229
   -33.0043 -32.9795 -32.9563 -32.9299 -32.9032 -32.8996 -32.8540 -32.8058
   -11.2489 -11.1854 -11.1610 -11.0710 -10.5484 -10.4705 -10.4320 -10.3348
    -3.2319  -3.0130  -2.9715  -2.7630  -1.9573  -1.9010  -1.8653  -1.8060
    -1.7075  -1.6453  -1.5365  -1.4714  -1.1356  -1.0941  -1.0329  -0.9233
     0.0662   0.0772   0.1140   0.1675   0.7504   0.8623   0.9216   1.0758
     1.1504   1.1615   1.1980   1.2489   3.6445   3.8153   3.9188   4.0913
     4.3592   4.3803   4.4217   4.4800   4.5948   4.6519

          k = 0.1250 0.3608 0.0000 ( 35341 PWs)   bands (ev):

   -58.8693 -58.8644 -58.8201 -58.7707 -33.1157 -33.1124 -33.0666 -33.0186
   -33.0139 -33.0087 -32.9653 -32.9269 -32.9233 -32.9156 -32.8777 -32.8295
   -10.8843 -10.8287 -10.8046 -10.7211 -10.3808 -10.3223 -10.2830 -10.1998
    -3.2788  -3.1439  -3.1224  -2.9935  -2.2845  -2.1962  -2.1722  -2.0913
    -1.9016  -1.8369  -1.7994  -1.6757  -1.3304  -1.2466  -1.1731  -1.0553
     0.0081   0.0296   0.0605   0.1196   0.5304   0.6254   0.6707   0.7977
     1.1116   1.1207   1.1598   1.2121   3.6830   3.8679   3.9664   4.1590
     4.4309   4.4557   4.4964   4.5800   4.8280   4.9357

          k = 0.1250 0.4330 0.0000 ( 35215 PWs)   bands (ev):

   -58.8631 -58.8582 -58.8139 -58.7645 -33.1678 -33.1646 -33.1187 -33.0708
   -33.0018 -32.9966 -32.9532 -32.9470 -32.9435 -32.9035 -32.8979 -32.8497
   -10.5404 -10.4964 -10.4722 -10.3984 -10.2241 -10.1861 -10.1470 -10.0775
    -3.4592  -3.3764  -3.3606  -3.2697  -2.6970  -2.6379  -2.6292  -2.5506
    -1.9711  -1.8704  -1.8484  -1.7214  -1.3596  -1.2744  -1.2161  -1.1118
    -0.0469  -0.0007   0.0250   0.1009   0.2565   0.3468   0.3847   0.5048
     1.2499   1.2605   1.3014   1.3540   3.8926   4.0635   4.1457   4.3280
     4.5423   4.5583   4.6066   4.6681   5.1396   5.2479

          k = 0.1250 0.5052 0.0000 ( 35141 PWs)   bands (ev):

   -58.8589 -58.8540 -58.8098 -58.7604 -33.2024 -33.1992 -33.1533 -33.1054
   -32.9937 -32.9885 -32.9605 -32.9570 -32.9451 -32.9114 -32.8954 -32.8632
   -10.2852 -10.2544 -10.2294 -10.1678 -10.1084 -10.0886 -10.0514  -9.9919
    -3.6222  -3.5620  -3.5525  -3.4742  -2.9921  -2.9455  -2.9379  -2.8592
    -2.0897  -1.9852  -1.9612  -1.8406  -1.3109  -1.2477  -1.2095  -1.1300
    -0.0514   0.0344   0.0505   0.0860   0.1190   0.1406   0.1799   0.2933
     1.4360   1.4573   1.4979   1.5572   4.1143   4.1972   4.2406   4.3313
     4.6942   4.7379   4.7765   4.8690   5.4214   5.5349

          k = 0.1250 0.5774 0.0000 ( 35180 PWs)   bands (ev):

   -58.8575 -58.8526 -58.8083 -58.7589 -33.2145 -33.2113 -33.1654 -33.1175
   -32.9908 -32.9856 -32.9653 -32.9618 -32.9423 -32.9161 -32.8926 -32.8679
   -10.1887 -10.1648 -10.1388 -10.0867 -10.0629 -10.0530 -10.0174  -9.9613
    -3.6854  -3.6317  -3.6257  -3.5494  -3.0974  -3.0538  -3.0466  -2.9671
    -2.1498  -2.0471  -2.0209  -1.9017  -1.2636  -1.2275  -1.2030  -1.1357
    -0.1084   0.0262   0.0327   0.0654   0.0800   0.1115   0.1629   0.2376
     1.5284   1.5576   1.5976   1.6626   4.1904   4.2043   4.2365   4.2908
     4.8061   4.8645   4.8962   4.9694   5.5370   5.6528

          k = 0.1875 0.3248 0.0000 ( 35337 PWs)   bands (ev):

   -58.8699 -58.8650 -58.8207 -58.7713 -33.1021 -33.0988 -33.0530 -33.0150
   -33.0098 -33.0050 -32.9665 -32.9336 -32.9301 -32.9168 -32.8844 -32.8363
   -10.9177 -10.8610 -10.8369 -10.7524 -10.3940 -10.3333 -10.2940 -10.2094
    -3.2127  -3.0621  -3.0383  -2.8966  -2.1553  -2.0887  -2.0690  -2.0206
    -1.8550  -1.7988  -1.7678  -1.6802  -1.4717  -1.3753  -1.2710  -1.1251
    -0.1659  -0.1439  -0.1149  -0.0542   0.6940   0.7688   0.8071   0.9074
     1.1183   1.1303   1.1686   1.2242   3.5946   3.7976   3.9065   4.1333
     4.4577   4.4711   4.5084   4.5600   4.6878   4.7703

          k = 0.1875 0.3969 0.0000 ( 35241 PWs)   bands (ev):

   -58.8637 -58.8588 -58.8145 -58.7651 -33.1440 -33.1408 -33.0949 -33.0470
   -33.0030 -32.9978 -32.9644 -32.9609 -32.9544 -32.9153 -32.9047 -32.8671
   -10.5818 -10.5353 -10.5112 -10.4353 -10.2368 -10.1952 -10.1558 -10.0841
    -3.2982  -3.1966  -3.1778  -3.0737  -2.6040  -2.5798  -2.5697  -2.5075
    -1.8347  -1.7577  -1.7109  -1.6352  -1.4691  -1.3880  -1.2833  -1.1508
    -0.4842  -0.4518  -0.4229  -0.3559   0.4670   0.5243   0.5438   0.6276
     1.2209   1.2343   1.2772   1.3349   3.7509   3.9718   4.0791   4.3630
     4.5742   4.5811   4.6163   4.6691   4.8645   4.9674

          k = 0.1875 0.4691 0.0000 ( 35167 PWs)   bands (ev):

   -58.8590 -58.8540 -58.8098 -58.7604 -33.1745 -33.1713 -33.1254 -33.0775
   -32.9937 -32.9894 -32.9885 -32.9859 -32.9451 -32.9402 -32.8954 -32.8921
   -10.2985 -10.2648 -10.2402 -10.1763 -10.1029 -10.0806 -10.0424  -9.9818
    -3.3842  -3.3081  -3.2952  -3.2090  -3.0006  -2.9815  -2.9646  -2.9023
    -1.9197  -1.8052  -1.7888  -1.6972  -1.4103  -1.3001  -1.2415  -1.1182
    -0.6688  -0.6007  -0.5740  -0.4739   0.1683   0.2336   0.2572   0.3411
     1.4214   1.4314   1.4755   1.5289   3.9714   4.1174   4.1769   4.3301
     4.7359   4.7762   4.8072   4.9040   5.0814   5.2013

          k = 0.1875 0.5413 0.0000 ( 35162 PWs)   bands (ev):

   -58.8564 -58.8515 -58.8072 -58.7578 -33.1905 -33.1873 -33.1414 -33.0935
   -33.0033 -32.9998 -32.9887 -32.9835 -32.9541 -32.9401 -32.9060 -32.8904
   -10.1317 -10.1090 -10.0830 -10.0386 -10.0169 -10.0143  -9.9782  -9.9242
    -3.4214  -3.3625  -3.3574  -3.2764  -3.2167  -3.1988  -3.1775  -3.1135
    -2.0629  -1.9522  -1.9279  -1.8192  -1.2818  -1.2000  -1.1750  -1.0829
    -0.7129  -0.6194  -0.5925  -0.4848  -0.0402   0.0231   0.0545   0.1402
     1.6049   1.6234   1.6656   1.7249   4.0427   4.0743   4.1093   4.1735
     4.9239   5.0126   5.0407   5.1469   5.2004   5.2997

          k = 0.2500 0.4330 0.0000 ( 35195 PWs)   bands (ev):

   -58.8590 -58.8540 -58.8098 -58.7604 -33.1600 -33.1568 -33.1109 -33.0630
   -33.0043 -33.0008 -32.9937 -32.9885 -32.9551 -32.9452 -32.9070 -32.8954
   -10.3039 -10.2690 -10.2446 -10.1798 -10.1006 -10.0772 -10.0387  -9.9775
    -3.2756  -3.1877  -3.1720  -3.0849  -3.0013  -2.9957  -2.9697  -2.9199
    -1.7376  -1.6918  -1.6343  -1.6040  -1.4013  -1.3215  -1.2327  -1.1018
    -0.9844  -0.9643  -0.9287  -0.8757   0.2387   0.2851   0.2920   0.3764
     1.4052   1.4134   1.4596   1.5123   3.9111   4.0785   4.1444   4.3216
     4.7477   4.7899   4.8086   4.9106   4.9546   5.0998

          k = 0.2500 0.5052 0.0000 ( 35193 PWs)   bands (ev):

   -58.8558 -58.8509 -58.8066 -58.7572 -33.1648 -33.1615 -33.1156 -33.0677
   -33.0369 -33.0334 -32.9877 -32.9875 -32.9823 -32.9396 -32.9390 -32.8892
   -10.1036 -10.0808 -10.0549 -10.0142  -9.9926  -9.9895  -9.9544  -9.9018
    -3.3085  -3.2884  -3.2763  -3.2197  -3.1567  -3.0985  -3.0778  -2.9981
    -1.8921  -1.7843  -1.7624  -1.7056  -1.3436  -1.2782  -1.2261  -1.2036
    -1.1719  -1.1429  -1.0552  -0.9861  -0.0378   0.0122   0.0312   0.1154
     1.6454   1.6536   1.6984   1.7504   3.9105   3.9593   3.9948   4.0730
     4.8935   4.9597   4.9757   5.0276   5.1601   5.1943

          k = 0.2500 0.5774 0.0000 ( 35190 PWs)   bands (ev):

   -58.8547 -58.8498 -58.8055 -58.7561 -33.1646 -33.1614 -33.1155 -33.0676
   -33.0501 -33.0467 -33.0010 -32.9854 -32.9801 -32.9529 -32.9368 -32.8871
   -10.0287 -10.0125  -9.9861  -9.9699  -9.9609  -9.9401  -9.9188  -9.8741
    -3.4080  -3.3924  -3.3770  -3.3192  -3.0721  -3.0284  -3.0202  -2.9480
    -2.0470  -1.9472  -1.9192  -1.8325  -1.3809  -1.2768  -1.2544  -1.1786
    -1.1047  -1.0716  -1.0085  -0.9525  -0.1582  -0.1233  -0.0969  -0.0212
     1.7717   1.7840   1.8272   1.8824   3.8397   3.8460   3.8866   3.9360
     4.9189   4.9751   5.0256   5.0306   5.3316   5.3659

          k = 0.3125 0.5413 0.0000 ( 35172 PWs)   bands (ev):

   -58.8541 -58.8492 -58.8049 -58.7555 -33.1435 -33.1403 -33.0944 -33.0785
   -33.0751 -33.0465 -33.0294 -32.9842 -32.9813 -32.9790 -32.9356 -32.8859
    -9.9922  -9.9789  -9.9546  -9.9447  -9.9409  -9.9163  -9.8930  -9.8551
    -3.4759  -3.4639  -3.4445  -3.3876  -2.8481  -2.7911  -2.7819  -2.7041
    -2.0385  -2.0270  -2.0066  -1.9598  -1.5581  -1.5394  -1.5297  -1.4994
    -1.0539  -0.9994  -0.9647  -0.8953  -0.2455  -0.2023  -0.1715  -0.0914
     1.8542   1.8619   1.9058   1.9577   3.7235   3.7291   3.7718   3.8204
     4.8580   4.8797   4.9405   4.9486   5.4275   5.4874

     the Fermi energy is     2.9628 ev

!    total energy              =   -1978.36468889 Ry
     total all-electron energy =    -38771.685534 Ry
     estimated scf accuracy    <          9.0E-09 Ry
     smearing contrib. (-TS)   =       0.00003647 Ry
     internal energy E=F+TS    =   -1978.36472536 Ry

     The total energy is F=E-TS. E is the sum of the following terms:
     one-electron contribution =  -16602.83777818 Ry
     hartree contribution      =    8323.00561852 Ry
     xc contribution           =    -119.22978528 Ry
     ewald contribution        =    7690.54933213 Ry
     one-center paw contrib.   =   -1269.85211256 Ry

     convergence has been achieved in  69 iterations

     Writing all to output data dir ./tmp/cleave2/cleave_dz006_dz1p2/mos2_cleave.save/ :
     XML data file, charge density, pseudopotentials, collected wavefunctions

     init_run     :    120.65s CPU    122.78s WALL (       1 calls)
     electrons    :  13484.45s CPU  13711.04s WALL (       1 calls)

     Called by init_run:
     wfcinit      :     73.35s CPU     74.02s WALL (       1 calls)
     potinit      :     43.78s CPU     44.21s WALL (       1 calls)
     hinit0       :      0.34s CPU      0.37s WALL (       1 calls)

     Called by electrons:
     c_bands      :  11154.59s CPU  11221.66s WALL (      70 calls)
     sum_band     :   1773.67s CPU   1847.46s WALL (      70 calls)
     v_of_rho     :    265.76s CPU    287.96s WALL (      70 calls)
     newd         :    212.34s CPU    275.80s WALL (      70 calls)
     PAW_pot      :     28.02s CPU     28.03s WALL (      70 calls)
     mix_rho      :     94.09s CPU     95.54s WALL (      70 calls)
     vdW_kernel   :     40.18s CPU     40.19s WALL (       1 calls)

     Called by c_bands:
     init_us_2    :     52.37s CPU     52.42s WALL (    4230 calls)
     init_us_2:cp :     52.36s CPU     52.42s WALL (    4230 calls)
     cegterg      :  10644.70s CPU  10711.22s WALL (    2100 calls)

     Called by *egterg:
     cdiaghg      :     15.34s CPU     15.36s WALL (    6233 calls)
     h_psi        :   5734.06s CPU   5759.90s WALL (    6293 calls)
     s_psi        :   1686.01s CPU   1686.51s WALL (    6293 calls)
     g_psi        :     24.16s CPU     24.17s WALL (    4163 calls)

     Called by h_psi:
     h_psi:calbec :   2187.05s CPU   2187.60s WALL (    6293 calls)
     vloc_psi     :   1849.07s CPU   1850.36s WALL (    6293 calls)
     add_vuspsi   :   1686.14s CPU   1686.56s WALL (    6293 calls)

     General routines
     calbec       :   3209.58s CPU   3210.42s WALL (    8393 calls)
     fft          :     86.26s CPU     86.29s WALL (    4409 calls)
     ffts         :     46.10s CPU     46.12s WALL (    8504 calls)
     fftw         :   1689.96s CPU   1690.87s WALL (  687676 calls)
     interpolate  :      2.02s CPU      2.03s WALL (      70 calls)

     Parallel routines

     PWSCF        :      3h46m CPU      3h50m WALL


   This run was terminated on:  19:39:36  10Jun2026            

=------------------------------------------------------------------------------=
   JOB DONE.
=------------------------------------------------------------------------------=
Note: The following floating-point exceptions are signalling: IEEE_UNDERFLOW_FLAG IEEE_DENORMAL
