Authorization required, but no authorization protocol specified

Authorization required, but no authorization protocol specified

Authorization required, but no authorization protocol specified

Authorization required, but no authorization protocol specified

Authorization required, but no authorization protocol specified

Authorization required, but no authorization protocol specified

Authorization required, but no authorization protocol specified

Authorization required, but no authorization protocol specified


     Program PWSCF v.7.3 starts on 13Jun2026 at 12:54: 9 

     This program is part of the open-source Quantum ESPRESSO suite
     for quantum simulation of materials; please cite
         "P. Giannozzi et al., J. Phys.:Condens. Matter 21 395502 (2009);
         "P. Giannozzi et al., J. Phys.:Condens. Matter 29 465901 (2017);
         "P. Giannozzi et al., J. Chem. Phys. 152 154105 (2020);
          URL http://www.quantum-espresso.org", 
     in publications or presentations arising from this work. More details at
     http://www.quantum-espresso.org/quote

     Parallel version (MPI), running on     1 processors

     MPI processes distributed on     1 nodes
     7560 MiB available memory on the printing compute node when the environment starts

     Waiting for input...
     Reading input from standard input

     Current dimensions of program PWSCF are:
     Max number of different atomic species (ntypx) = 10
     Max number of k-points (npk) =  40000
     Max angular momentum in pseudopotentials (lmaxx) =  4
     file Mo.pbe-spn-kjpaw_psl.1.0.0.UPF: wavefunction(s)  4S 4D renormalized
     file S.pbe-n-kjpaw_psl.1.0.0.UPF: wavefunction(s)  3S 3P renormalized

     IMPORTANT: XC functional enforced from input :
     Exchange-correlation= VDW-DF2-B86R
                           (   1   4  26   0   2   0   0)
     Any further DFT definition will be discarded
     Please, verify this is what you really want


     Subspace diagonalization in iterative solution of the eigenvalue problem:
     a serial algorithm will be used


     G-vector sticks info
     --------------------
     sticks:   dense  smooth     PW     G-vecs:    dense   smooth      PW
     Sum        1573     769    223               797393   281171   43435

     Using Slab Decomposition



     bravais-lattice index     =            4
     lattice parameter (alat)  =       5.9715  a.u.
     unit-cell volume          =    2917.9067 (a.u.)^3
     number of atoms/cell      =           12
     number of atomic types    =            2
     number of electrons       =       104.00
     number of Kohn-Sham states=           62
     kinetic-energy cutoff     =      80.0000  Ry
     charge density cutoff     =     640.0000  Ry
     scf convergence threshold =      1.0E-08
     mixing beta               =       0.2000
     number of iterations used =            8  local-TF  mixing
     Exchange-correlation= VDW-DF2-B86R
                           (   1   4  26   0   2   0   0)

     celldm(1)=   5.971535  celldm(2)=   0.000000  celldm(3)=  15.822785
     celldm(4)=   0.000000  celldm(5)=   0.000000  celldm(6)=   0.000000

     crystal axes: (cart. coord. in units of alat)
               a(1) = (   1.000000   0.000000   0.000000 )  
               a(2) = (  -0.500000   0.866025   0.000000 )  
               a(3) = (   0.000000   0.000000  15.822785 )  

     reciprocal axes: (cart. coord. in units 2 pi/alat)
               b(1) = (  1.000000  0.577350 -0.000000 )  
               b(2) = (  0.000000  1.154701  0.000000 )  
               b(3) = (  0.000000 -0.000000  0.063200 )  


     PseudoPot. # 1 for Mo read from file:
     ./pseudo/Mo.pbe-spn-kjpaw_psl.1.0.0.UPF
     MD5 check sum: 4396e0c640fcce5c25f020efccf1ab12
     Pseudo is Projector augmented-wave + core cor, Zval = 14.0
     Generated using &quot;atomic&quot; code by A. Dal Corso  v.6.3
     Shape of augmentation charge: PSQ
     Using radial grid of 1229 points,  6 beta functions with: 
                l(1) =   0
                l(2) =   0
                l(3) =   1
                l(4) =   1
                l(5) =   2
                l(6) =   2
     Q(r) pseudized with 0 coefficients 


     PseudoPot. # 2 for S  read from file:
     ./pseudo/S.pbe-n-kjpaw_psl.1.0.0.UPF
     MD5 check sum: fb45dfebcf3e72a4e1bd4a866ec2e262
     Pseudo is Projector augmented-wave + core cor, Zval =  6.0
     Generated using &quot;atomic&quot; code by A. Dal Corso  v.6.3
     Shape of augmentation charge: PSQ
     Using radial grid of 1151 points,  6 beta functions with: 
                l(1) =   0
                l(2) =   0
                l(3) =   1
                l(4) =   1
                l(5) =   2
                l(6) =   2
     Q(r) pseudized with 0 coefficients 


     atomic species   valence    mass     pseudopotential
     Mo               14.00    95.96000     Mo( 1.00)
     S                 6.00    32.06000     S ( 1.00)

      6 Sym. Ops. (no inversion) found



   Cartesian axes

     site n.     atom                  positions (alat units)
         1        S      tau(   1) = (  -0.0000005   0.5773503  -0.9967195  )
         2        Mo     tau(   2) = (   0.0000000   0.0000000  -0.4993332  )
         3        S      tau(   3) = (  -0.0000005   0.5773503  -0.0017175  )
         4        S      tau(   4) = (   0.5000003   0.2886747   0.9835827  )
         5        Mo     tau(   5) = (  -0.0000005   0.5773503   1.4818950  )
         6        S      tau(   6) = (   0.5000003   0.2886747   1.9798512  )
         7        S      tau(   7) = (   0.0000000   0.0000000   2.9586848  )
         8        Mo     tau(   8) = (   0.5000003   0.2886747   3.4569999  )
         9        S      tau(   9) = (   0.0000000   0.0000000   3.9548385  )
        10        S      tau(  10) = (  -0.0000005   0.5773503   6.8194958  )
        11        Mo     tau(  11) = (   0.0000000   0.0000000   7.3171324  )
        12        S      tau(  12) = (  -0.0000005   0.5773503   7.8142665  )

     number of k points=    30  Methfessel-Paxton smearing, width (Ry)=  0.0200
                       cart. coord. in units 2pi/alat
        k(    1) = (   0.0000000   0.0000000   0.0000000), wk =   0.0078125
        k(    2) = (   0.0000000   0.0721688   0.0000000), wk =   0.0468750
        k(    3) = (   0.0000000   0.1443376   0.0000000), wk =   0.0468750
        k(    4) = (   0.0000000   0.2165064   0.0000000), wk =   0.0468750
        k(    5) = (   0.0000000   0.2886751   0.0000000), wk =   0.0468750
        k(    6) = (   0.0000000   0.3608439   0.0000000), wk =   0.0468750
        k(    7) = (   0.0000000   0.4330127   0.0000000), wk =   0.0468750
        k(    8) = (   0.0000000   0.5051815   0.0000000), wk =   0.0468750
        k(    9) = (   0.0000000  -0.5773503   0.0000000), wk =   0.0234375
        k(   10) = (   0.0625000   0.1082532   0.0000000), wk =   0.0468750
        k(   11) = (   0.0625000   0.1804220   0.0000000), wk =   0.0937500
        k(   12) = (   0.0625000   0.2525907   0.0000000), wk =   0.0937500
        k(   13) = (   0.0625000   0.3247595   0.0000000), wk =   0.0937500
        k(   14) = (   0.0625000   0.3969283   0.0000000), wk =   0.0937500
        k(   15) = (   0.0625000   0.4690971   0.0000000), wk =   0.0937500
        k(   16) = (   0.0625000   0.5412659   0.0000000), wk =   0.0937500
        k(   17) = (   0.1250000   0.2165064   0.0000000), wk =   0.0468750
        k(   18) = (   0.1250000   0.2886751   0.0000000), wk =   0.0937500
        k(   19) = (   0.1250000   0.3608439   0.0000000), wk =   0.0937500
        k(   20) = (   0.1250000   0.4330127   0.0000000), wk =   0.0937500
        k(   21) = (   0.1250000   0.5051815   0.0000000), wk =   0.0937500
        k(   22) = (   0.1250000   0.5773503   0.0000000), wk =   0.0468750
        k(   23) = (   0.1875000   0.3247595   0.0000000), wk =   0.0468750
        k(   24) = (   0.1875000   0.3969283   0.0000000), wk =   0.0937500
        k(   25) = (   0.1875000   0.4690971   0.0000000), wk =   0.0937500
        k(   26) = (   0.1875000   0.5412659   0.0000000), wk =   0.0937500
        k(   27) = (   0.2500000   0.4330127   0.0000000), wk =   0.0468750
        k(   28) = (   0.2500000   0.5051815   0.0000000), wk =   0.0937500
        k(   29) = (   0.2500000   0.5773503   0.0000000), wk =   0.0468750
        k(   30) = (   0.3125000   0.5412659   0.0000000), wk =   0.0468750

     Dense  grid:   797393 G-vectors     FFT dimensions: (  50,  50, 768)

     Smooth grid:   281171 G-vectors     FFT dimensions: (  36,  36, 540)

     Estimated max dynamical RAM per process >       3.90 GB

     Initial potential from superposition of free atoms

     starting charge     103.9962, renormalised to     104.0000

     negative rho (up, down):  1.138E-04 0.000E+00


     %%%%%%%%%%%%%%%%%%%%%%%%%%%%%%%%%%%%%%%%%%%%%%%%%%%%%%%%%%%%%%%%%%%%%%%%
     %                                                                      %
     % You are using vdW-DF, which was implemented by the Thonhauser group. %
     % Please cite the following two papers that made this development      %
     % possible and the two reviews that describe the various versions:     %
     %                                                                      %
     %   T. Thonhauser et al., PRL 115, 136402 (2015).                      %
     %   T. Thonhauser et al., PRB 76, 125112 (2007).                       %
     %   K. Berland et al., Rep. Prog. Phys. 78, 066501 (2015).             %
     %   D.C. Langreth et al., J. Phys.: Condens. Matter 21, 084203 (2009). %
     %                                                                      %
     % If you are calculating stress with vdW-DF, please also cite:         %
     %                                                                      %
     %   R. Sabatini et al., J. Phys.: Condens. Matter 24, 424209 (2012).   %
     %                                                                      %
     %%%%%%%%%%%%%%%%%%%%%%%%%%%%%%%%%%%%%%%%%%%%%%%%%%%%%%%%%%%%%%%%%%%%%%%%

     %%%%%%%%%%%%%%%%%%%%%%%%%%%%%%%%%%%%%%%%%%%%%%%%%%%%%%%%%%%%%%%%%%%%%%%%
     %                                                                      %
     %  vdW-DF NEWS:                                                        %
     %                                                                      %
     %  * vdW-DF3 is now available. DOI: 10.1021/acs.jctc.0c00471           %
     %    use with input_dft = 'vdW-DF3-opt1' or 'vdW-DF3-opt2'             %
     %                                                                      %
     %  * Unscreened and range-separated hybrid vdW-DF-cx functionals       %
     %    DOI: 10.1063/1.4986522 and 10.1088/1361-648X/ac2ad2               %
     %    use with input_dft = 'vdW-DF-cx0'    and 'vdW-DF-ahcx'            %
     %  * Unscreened and range-separated hybrid vdW-DF2-b86r functionals    %
     %    DOI: 10.1063/1.4986522 and DOI: 10.1103/PhysRevX.12.041003        %
     %    use with input_dft = 'vdW-DF2-br0' and 'vdW-DF2-ahbr'             %
     %                                                                      %
     %%%%%%%%%%%%%%%%%%%%%%%%%%%%%%%%%%%%%%%%%%%%%%%%%%%%%%%%%%%%%%%%%%%%%%%%


     Starting wfcs are   72 randomized atomic wfcs
     Checking if some PAW data can be deallocated... 

     total cpu time spent up to now is      157.5 secs

     Self-consistent Calculation

     iteration #  1     ecut=    80.00 Ry     beta= 0.20
     Davidson diagonalization with overlap
     ethr =  1.00E-02,  avg # of iterations =  2.3

     Threshold (ethr) on eigenvalues was too large:
     Diagonalizing with lowered threshold

     Davidson diagonalization with overlap
     ethr =  2.87E-04,  avg # of iterations =  3.7

     negative rho (up, down):  5.477E-06 0.000E+00

     total cpu time spent up to now is      766.3 secs

     total energy              =   -1978.45347251 Ry
     estimated scf accuracy    <       0.44874890 Ry

     iteration #  2     ecut=    80.00 Ry     beta= 0.20
     Davidson diagonalization with overlap
     ethr =  4.31E-04,  avg # of iterations =  1.0

     negative rho (up, down):  1.612E-07 0.000E+00

     total cpu time spent up to now is     1006.5 secs

     total energy              =   -1978.27498341 Ry
     estimated scf accuracy    <       0.37099092 Ry

     iteration #  3     ecut=    80.00 Ry     beta= 0.20
     Davidson diagonalization with overlap
     ethr =  3.57E-04,  avg # of iterations =  2.0

     negative rho (up, down):  1.962E-08 0.000E+00

     total cpu time spent up to now is     1298.7 secs

     total energy              =   -1978.35438553 Ry
     estimated scf accuracy    <       0.04929744 Ry

     iteration #  4     ecut=    80.00 Ry     beta= 0.20
     Davidson diagonalization with overlap
     ethr =  4.74E-05,  avg # of iterations =  2.2

     negative rho (up, down):  2.489E-08 0.000E+00

     total cpu time spent up to now is     1585.4 secs

     total energy              =   -1978.35726118 Ry
     estimated scf accuracy    <       0.02142862 Ry

     iteration #  5     ecut=    80.00 Ry     beta= 0.20
     Davidson diagonalization with overlap
     ethr =  2.06E-05,  avg # of iterations =  3.1

     negative rho (up, down):  2.200E-08 0.000E+00

     total cpu time spent up to now is     1847.7 secs

     total energy              =   -1978.35891013 Ry
     estimated scf accuracy    <       0.00565482 Ry

     iteration #  6     ecut=    80.00 Ry     beta= 0.20
     Davidson diagonalization with overlap
     ethr =  5.44E-06,  avg # of iterations =  4.9

     negative rho (up, down):  1.786E-07 0.000E+00

     total cpu time spent up to now is     2112.5 secs

     total energy              =   -1978.35733923 Ry
     estimated scf accuracy    <       0.00500676 Ry

     iteration #  7     ecut=    80.00 Ry     beta= 0.20
     Davidson diagonalization with overlap
     c_bands:  1 eigenvalues not converged
     c_bands:  1 eigenvalues not converged
     ethr =  4.81E-06,  avg # of iterations =  5.2

     negative rho (up, down):  1.010E-07 0.000E+00

     total cpu time spent up to now is     2487.4 secs

     total energy              =   -1978.35668539 Ry
     estimated scf accuracy    <       0.01696093 Ry

     iteration #  8     ecut=    80.00 Ry     beta= 0.20
     Davidson diagonalization with overlap
     ethr =  4.81E-06,  avg # of iterations =  4.0

     negative rho (up, down):  4.631E-07 0.000E+00

     total cpu time spent up to now is     2763.3 secs

     total energy              =   -1978.35655994 Ry
     estimated scf accuracy    <       0.00408595 Ry

     iteration #  9     ecut=    80.00 Ry     beta= 0.20
     Davidson diagonalization with overlap
     ethr =  3.93E-06,  avg # of iterations =  4.4

     negative rho (up, down):  2.267E-04 0.000E+00

     total cpu time spent up to now is     3027.5 secs

     total energy              =   -1978.35740788 Ry
     estimated scf accuracy    <       0.00297517 Ry

     iteration # 10     ecut=    80.00 Ry     beta= 0.20
     Davidson diagonalization with overlap
     ethr =  2.86E-06,  avg # of iterations =  2.3

     negative rho (up, down):  4.370E-03 0.000E+00

     total cpu time spent up to now is     3227.5 secs

     total energy              =   -1978.35704333 Ry
     estimated scf accuracy    <       0.00254118 Ry

     iteration # 11     ecut=    80.00 Ry     beta= 0.20
     Davidson diagonalization with overlap
     ethr =  2.44E-06,  avg # of iterations =  3.0

     negative rho (up, down):  4.062E-03 0.000E+00

     total cpu time spent up to now is     3427.3 secs

     total energy              =   -1978.35720153 Ry
     estimated scf accuracy    <       0.00051908 Ry

     iteration # 12     ecut=    80.00 Ry     beta= 0.20
     Davidson diagonalization with overlap
     ethr =  4.99E-07,  avg # of iterations =  6.9

     negative rho (up, down):  1.413E-03 0.000E+00

     total cpu time spent up to now is     3669.7 secs

     total energy              =   -1978.35724182 Ry
     estimated scf accuracy    <       0.00089158 Ry

     iteration # 13     ecut=    80.00 Ry     beta= 0.20
     Davidson diagonalization with overlap
     ethr =  4.99E-07,  avg # of iterations =  2.5

     negative rho (up, down):  3.741E-03 0.000E+00

     total cpu time spent up to now is     3875.3 secs

     total energy              =   -1978.35727025 Ry
     estimated scf accuracy    <       0.00038293 Ry

     iteration # 14     ecut=    80.00 Ry     beta= 0.20
     Davidson diagonalization with overlap
     ethr =  3.68E-07,  avg # of iterations =  1.7

     negative rho (up, down):  2.794E-03 0.000E+00

     total cpu time spent up to now is     4067.9 secs

     total energy              =   -1978.35718164 Ry
     estimated scf accuracy    <       0.00043268 Ry

     iteration # 15     ecut=    80.00 Ry     beta= 0.20
     Davidson diagonalization with overlap
     ethr =  3.68E-07,  avg # of iterations =  3.8

     negative rho (up, down):  1.959E-03 0.000E+00

     total cpu time spent up to now is     4288.0 secs

     total energy              =   -1978.35723984 Ry
     estimated scf accuracy    <       0.00029798 Ry

     iteration # 16     ecut=    80.00 Ry     beta= 0.20
     Davidson diagonalization with overlap
     c_bands:  1 eigenvalues not converged
     ethr =  2.87E-07,  avg # of iterations =  4.4

     negative rho (up, down):  1.720E-03 0.000E+00

     total cpu time spent up to now is     4495.8 secs

     total energy              =   -1978.35723201 Ry
     estimated scf accuracy    <       0.00028816 Ry

     iteration # 17     ecut=    80.00 Ry     beta= 0.20
     Davidson diagonalization with overlap
     c_bands:  1 eigenvalues not converged
     ethr =  2.77E-07,  avg # of iterations =  2.9

     negative rho (up, down):  1.358E-03 0.000E+00

     total cpu time spent up to now is     4691.7 secs

     total energy              =   -1978.35725894 Ry
     estimated scf accuracy    <       0.00007211 Ry

     iteration # 18     ecut=    80.00 Ry     beta= 0.20
     Davidson diagonalization with overlap
     c_bands:  1 eigenvalues not converged
     ethr =  6.93E-08,  avg # of iterations =  4.3

     negative rho (up, down):  9.157E-04 0.000E+00

     total cpu time spent up to now is     4904.2 secs

     total energy              =   -1978.35727047 Ry
     estimated scf accuracy    <       0.00004868 Ry

     iteration # 19     ecut=    80.00 Ry     beta= 0.20
     Davidson diagonalization with overlap
     ethr =  4.68E-08,  avg # of iterations =  1.9

     negative rho (up, down):  5.816E-04 0.000E+00

     total cpu time spent up to now is     5102.2 secs

     total energy              =   -1978.35727038 Ry
     estimated scf accuracy    <       0.00004232 Ry

     iteration # 20     ecut=    80.00 Ry     beta= 0.20
     Davidson diagonalization with overlap
     ethr =  4.07E-08,  avg # of iterations =  1.8

     negative rho (up, down):  4.976E-04 0.000E+00

     total cpu time spent up to now is     5294.1 secs

     total energy              =   -1978.35726876 Ry
     estimated scf accuracy    <       0.00003156 Ry

     iteration # 21     ecut=    80.00 Ry     beta= 0.20
     Davidson diagonalization with overlap
     ethr =  3.04E-08,  avg # of iterations =  1.2

     negative rho (up, down):  4.167E-04 0.000E+00

     total cpu time spent up to now is     5477.7 secs

     total energy              =   -1978.35726919 Ry
     estimated scf accuracy    <       0.00002488 Ry

     iteration # 22     ecut=    80.00 Ry     beta= 0.20
     Davidson diagonalization with overlap
     ethr =  2.39E-08,  avg # of iterations =  2.5

     negative rho (up, down):  2.790E-04 0.000E+00

     total cpu time spent up to now is     5685.7 secs

     total energy              =   -1978.35726283 Ry
     estimated scf accuracy    <       0.00003190 Ry

     iteration # 23     ecut=    80.00 Ry     beta= 0.20
     Davidson diagonalization with overlap
     ethr =  2.39E-08,  avg # of iterations =  2.3

     negative rho (up, down):  2.800E-04 0.000E+00

     total cpu time spent up to now is     5892.2 secs

     total energy              =   -1978.35726728 Ry
     estimated scf accuracy    <       0.00001987 Ry

     iteration # 24     ecut=    80.00 Ry     beta= 0.20
     Davidson diagonalization with overlap
     ethr =  1.91E-08,  avg # of iterations =  1.0

     negative rho (up, down):  2.046E-04 0.000E+00

     total cpu time spent up to now is     6073.8 secs

     total energy              =   -1978.35727049 Ry
     estimated scf accuracy    <       0.00001876 Ry

     iteration # 25     ecut=    80.00 Ry     beta= 0.20
     Davidson diagonalization with overlap
     ethr =  1.80E-08,  avg # of iterations =  2.1

     negative rho (up, down):  1.126E-04 0.000E+00

     total cpu time spent up to now is     6272.7 secs

     total energy              =   -1978.35726729 Ry
     estimated scf accuracy    <       0.00002374 Ry

     iteration # 26     ecut=    80.00 Ry     beta= 0.20
     Davidson diagonalization with overlap
     ethr =  1.80E-08,  avg # of iterations =  2.7

     negative rho (up, down):  4.581E-04 0.000E+00

     total cpu time spent up to now is     6488.6 secs

     total energy              =   -1978.35725951 Ry
     estimated scf accuracy    <       0.00002223 Ry

     iteration # 27     ecut=    80.00 Ry     beta= 0.20
     Davidson diagonalization with overlap
     ethr =  1.80E-08,  avg # of iterations =  1.3

     negative rho (up, down):  4.373E-04 0.000E+00

     total cpu time spent up to now is     6674.4 secs

     total energy              =   -1978.35725974 Ry
     estimated scf accuracy    <       0.00001426 Ry

     iteration # 28     ecut=    80.00 Ry     beta= 0.20
     Davidson diagonalization with overlap
     ethr =  1.37E-08,  avg # of iterations =  1.6

     negative rho (up, down):  5.635E-04 0.000E+00

     total cpu time spent up to now is     6865.2 secs

     total energy              =   -1978.35726189 Ry
     estimated scf accuracy    <       0.00001360 Ry

     iteration # 29     ecut=    80.00 Ry     beta= 0.20
     Davidson diagonalization with overlap
     ethr =  1.31E-08,  avg # of iterations =  1.0

     negative rho (up, down):  8.071E-04 0.000E+00

     total cpu time spent up to now is     7046.7 secs

     total energy              =   -1978.35726432 Ry
     estimated scf accuracy    <       0.00001159 Ry

     iteration # 30     ecut=    80.00 Ry     beta= 0.20
     Davidson diagonalization with overlap
     ethr =  1.11E-08,  avg # of iterations =  2.0

     negative rho (up, down):  5.873E-04 0.000E+00

     total cpu time spent up to now is     7246.5 secs

     total energy              =   -1978.35726423 Ry
     estimated scf accuracy    <       0.00001115 Ry

     iteration # 31     ecut=    80.00 Ry     beta= 0.20
     Davidson diagonalization with overlap
     ethr =  1.07E-08,  avg # of iterations =  1.2

     negative rho (up, down):  5.079E-04 0.000E+00

     total cpu time spent up to now is     7430.0 secs

     total energy              =   -1978.35726393 Ry
     estimated scf accuracy    <       0.00000956 Ry

     iteration # 32     ecut=    80.00 Ry     beta= 0.20
     Davidson diagonalization with overlap
     ethr =  9.19E-09,  avg # of iterations =  1.0

     negative rho (up, down):  4.815E-04 0.000E+00

     total cpu time spent up to now is     7611.0 secs

     total energy              =   -1978.35726376 Ry
     estimated scf accuracy    <       0.00000925 Ry

     iteration # 33     ecut=    80.00 Ry     beta= 0.20
     Davidson diagonalization with overlap
     ethr =  8.89E-09,  avg # of iterations =  1.0

     negative rho (up, down):  4.725E-04 0.000E+00

     total cpu time spent up to now is     7791.5 secs

     total energy              =   -1978.35726388 Ry
     estimated scf accuracy    <       0.00000845 Ry

     iteration # 34     ecut=    80.00 Ry     beta= 0.20
     Davidson diagonalization with overlap
     ethr =  8.12E-09,  avg # of iterations =  1.0

     negative rho (up, down):  4.159E-04 0.000E+00

     total cpu time spent up to now is     7971.3 secs

     total energy              =   -1978.35726418 Ry
     estimated scf accuracy    <       0.00000840 Ry

     iteration # 35     ecut=    80.00 Ry     beta= 0.20
     Davidson diagonalization with overlap
     ethr =  8.08E-09,  avg # of iterations =  1.0

     negative rho (up, down):  3.996E-04 0.000E+00

     total cpu time spent up to now is     8152.2 secs

     total energy              =   -1978.35726268 Ry
     estimated scf accuracy    <       0.00000814 Ry

     iteration # 36     ecut=    80.00 Ry     beta= 0.20
     Davidson diagonalization with overlap
     ethr =  7.82E-09,  avg # of iterations =  1.2

     negative rho (up, down):  3.307E-04 0.000E+00

     total cpu time spent up to now is     8335.6 secs

     total energy              =   -1978.35726151 Ry
     estimated scf accuracy    <       0.00000802 Ry

     iteration # 37     ecut=    80.00 Ry     beta= 0.20
     Davidson diagonalization with overlap
     ethr =  7.71E-09,  avg # of iterations =  1.1

     negative rho (up, down):  3.086E-04 0.000E+00

     total cpu time spent up to now is     8517.9 secs

     total energy              =   -1978.35726159 Ry
     estimated scf accuracy    <       0.00000762 Ry

     iteration # 38     ecut=    80.00 Ry     beta= 0.20
     Davidson diagonalization with overlap
     ethr =  7.33E-09,  avg # of iterations =  1.0

     negative rho (up, down):  2.702E-04 0.000E+00

     total cpu time spent up to now is     8697.9 secs

     total energy              =   -1978.35726215 Ry
     estimated scf accuracy    <       0.00000714 Ry

     iteration # 39     ecut=    80.00 Ry     beta= 0.20
     Davidson diagonalization with overlap
     ethr =  6.87E-09,  avg # of iterations =  1.0

     negative rho (up, down):  2.088E-04 0.000E+00

     total cpu time spent up to now is     8879.3 secs

     total energy              =   -1978.35726048 Ry
     estimated scf accuracy    <       0.00000681 Ry

     iteration # 40     ecut=    80.00 Ry     beta= 0.20
     Davidson diagonalization with overlap
     ethr =  6.55E-09,  avg # of iterations =  2.2

     negative rho (up, down):  1.888E-04 0.000E+00

     total cpu time spent up to now is     9088.9 secs

     total energy              =   -1978.35725832 Ry
     estimated scf accuracy    <       0.00001117 Ry

     iteration # 41     ecut=    80.00 Ry     beta= 0.20
     Davidson diagonalization with overlap
     ethr =  6.55E-09,  avg # of iterations =  2.3

     negative rho (up, down):  1.951E-04 0.000E+00

     total cpu time spent up to now is     9303.8 secs

     total energy              =   -1978.35725697 Ry
     estimated scf accuracy    <       0.00000535 Ry

     iteration # 42     ecut=    80.00 Ry     beta= 0.20
     Davidson diagonalization with overlap
     ethr =  5.14E-09,  avg # of iterations =  1.3

     negative rho (up, down):  3.333E-04 0.000E+00

     total cpu time spent up to now is     9489.0 secs

     total energy              =   -1978.35725369 Ry
     estimated scf accuracy    <       0.00000481 Ry

     iteration # 43     ecut=    80.00 Ry     beta= 0.20
     Davidson diagonalization with overlap
     ethr =  4.63E-09,  avg # of iterations =  2.2

     negative rho (up, down):  1.789E-04 0.000E+00

     total cpu time spent up to now is     9702.7 secs

     total energy              =   -1978.35725587 Ry
     estimated scf accuracy    <       0.00000596 Ry

     iteration # 44     ecut=    80.00 Ry     beta= 0.20
     Davidson diagonalization with overlap
     ethr =  4.63E-09,  avg # of iterations =  1.7

     negative rho (up, down):  7.475E-05 0.000E+00

     total cpu time spent up to now is     9895.5 secs

     total energy              =   -1978.35725361 Ry
     estimated scf accuracy    <       0.00000630 Ry

     iteration # 45     ecut=    80.00 Ry     beta= 0.20
     Davidson diagonalization with overlap
     ethr =  4.63E-09,  avg # of iterations =  3.1

     negative rho (up, down):  6.224E-05 0.000E+00

     total cpu time spent up to now is    10119.2 secs

     total energy              =   -1978.35725784 Ry
     estimated scf accuracy    <       0.00000238 Ry

     iteration # 46     ecut=    80.00 Ry     beta= 0.20
     Davidson diagonalization with overlap
     ethr =  2.29E-09,  avg # of iterations =  3.3

     negative rho (up, down):  7.920E-05 0.000E+00

     total cpu time spent up to now is    10339.9 secs

     total energy              =   -1978.35725780 Ry
     estimated scf accuracy    <       0.00000192 Ry

     iteration # 47     ecut=    80.00 Ry     beta= 0.20
     Davidson diagonalization with overlap
     ethr =  1.85E-09,  avg # of iterations =  2.0

     negative rho (up, down):  1.086E-04 0.000E+00

     total cpu time spent up to now is    10538.5 secs

     total energy              =   -1978.35725717 Ry
     estimated scf accuracy    <       0.00000072 Ry

     iteration # 48     ecut=    80.00 Ry     beta= 0.20
     Davidson diagonalization with overlap
     ethr =  6.92E-10,  avg # of iterations =  4.3

     negative rho (up, down):  1.215E-04 0.000E+00

     total cpu time spent up to now is    10772.6 secs

     total energy              =   -1978.35725738 Ry
     estimated scf accuracy    <       0.00000176 Ry

     iteration # 49     ecut=    80.00 Ry     beta= 0.20
     Davidson diagonalization with overlap
     ethr =  6.92E-10,  avg # of iterations =  4.3

     negative rho (up, down):  1.286E-04 0.000E+00

     total cpu time spent up to now is    11009.6 secs

     total energy              =   -1978.35725775 Ry
     estimated scf accuracy    <       0.00000031 Ry

     iteration # 50     ecut=    80.00 Ry     beta= 0.20
     Davidson diagonalization with overlap
     ethr =  2.94E-10,  avg # of iterations =  1.3

     negative rho (up, down):  1.475E-04 0.000E+00

     total cpu time spent up to now is    11194.3 secs

     total energy              =   -1978.35725827 Ry
     estimated scf accuracy    <       0.00000019 Ry

     iteration # 51     ecut=    80.00 Ry     beta= 0.20
     Davidson diagonalization with overlap
     ethr =  1.83E-10,  avg # of iterations =  3.6

     negative rho (up, down):  1.420E-04 0.000E+00

     total cpu time spent up to now is    11420.0 secs

     total energy              =   -1978.35725830 Ry
     estimated scf accuracy    <       0.00000024 Ry

     iteration # 52     ecut=    80.00 Ry     beta= 0.20
     Davidson diagonalization with overlap
     ethr =  1.83E-10,  avg # of iterations =  1.1

     negative rho (up, down):  1.590E-04 0.000E+00

     total cpu time spent up to now is    11602.0 secs

     total energy              =   -1978.35725805 Ry
     estimated scf accuracy    <       0.00000018 Ry

     iteration # 53     ecut=    80.00 Ry     beta= 0.20
     Davidson diagonalization with overlap
     ethr =  1.76E-10,  avg # of iterations =  1.7

     negative rho (up, down):  1.656E-04 0.000E+00

     total cpu time spent up to now is    11796.6 secs

     total energy              =   -1978.35725816 Ry
     estimated scf accuracy    <       0.00000010 Ry

     iteration # 54     ecut=    80.00 Ry     beta= 0.20
     Davidson diagonalization with overlap
     ethr =  9.15E-11,  avg # of iterations =  1.2

     negative rho (up, down):  1.586E-04 0.000E+00

     total cpu time spent up to now is    11982.7 secs

     total energy              =   -1978.35725793 Ry
     estimated scf accuracy    <       0.00000007 Ry

     iteration # 55     ecut=    80.00 Ry     beta= 0.20
     Davidson diagonalization with overlap
     ethr =  6.85E-11,  avg # of iterations =  3.5

     negative rho (up, down):  1.556E-04 0.000E+00

     total cpu time spent up to now is    12205.3 secs

     total energy              =   -1978.35725776 Ry
     estimated scf accuracy    <       0.00000004 Ry

     iteration # 56     ecut=    80.00 Ry     beta= 0.20
     Davidson diagonalization with overlap
     ethr =  4.03E-11,  avg # of iterations =  1.4

     negative rho (up, down):  1.563E-04 0.000E+00

     total cpu time spent up to now is    12392.3 secs

     total energy              =   -1978.35725770 Ry
     estimated scf accuracy    <       0.00000003 Ry

     iteration # 57     ecut=    80.00 Ry     beta= 0.20
     Davidson diagonalization with overlap
     ethr =  2.92E-11,  avg # of iterations =  2.1

     negative rho (up, down):  1.570E-04 0.000E+00

     total cpu time spent up to now is    12598.4 secs

     total energy              =   -1978.35725780 Ry
     estimated scf accuracy    <       0.00000002 Ry

     iteration # 58     ecut=    80.00 Ry     beta= 0.20
     Davidson diagonalization with overlap
     ethr =  1.93E-11,  avg # of iterations =  1.6

     negative rho (up, down):  1.508E-04 0.000E+00

     total cpu time spent up to now is    12788.9 secs

     total energy              =   -1978.35725775 Ry
     estimated scf accuracy    <       0.00000001 Ry

     iteration # 59     ecut=    80.00 Ry     beta= 0.20
     Davidson diagonalization with overlap
     ethr =  1.42E-11,  avg # of iterations =  2.0

     negative rho (up, down):  1.340E-04 0.000E+00

     total cpu time spent up to now is    12988.7 secs

     End of self-consistent calculation

          k = 0.0000 0.0000 0.0000 ( 35507 PWs)   bands (ev):

   -58.8980 -58.8721 -58.8503 -58.8000 -33.0720 -33.0458 -33.0248 -32.9744
   -32.8346 -32.8346 -32.8100 -32.8100 -32.7868 -32.7868 -32.7377 -32.7377
   -12.2417 -12.1469 -12.1436 -12.0459 -11.0071 -10.8601 -10.8489 -10.7149
    -4.0396  -3.7051  -3.6726  -3.3535  -0.6205  -0.6205  -0.6039  -0.6039
    -0.6012  -0.5750  -0.5750  -0.5331  -0.5331   0.0539   0.0862   0.4938
     0.4939   0.5150   0.5151   0.5392   0.5392   0.5853   0.5853   0.8231
     1.6016   1.8417   2.1338   2.4608   4.7254   4.7254   4.7744   4.7744
     4.7768   4.7769   4.8353   4.8353   4.9393   4.9393

          k = 0.0000 0.0722 0.0000 ( 35493 PWs)   bands (ev):

   -58.8965 -58.8705 -58.8487 -58.7985 -33.0690 -33.0428 -33.0218 -32.9714
   -32.8502 -32.8382 -32.8255 -32.8135 -32.8023 -32.7903 -32.7532 -32.7412
   -12.1821 -12.0875 -12.0843 -11.9868 -10.9795 -10.8352 -10.8237 -10.6917
    -3.9708  -3.6377  -3.6034  -3.2855  -0.7576  -0.7383  -0.7372  -0.7106
    -0.6672  -0.5582  -0.5414  -0.5128  -0.4706  -0.2008  -0.1975   0.1785
     0.3967   0.4184   0.4424   0.4889   0.5992   0.7074   0.7150   1.0637
     1.6033   1.8221   2.0992   2.3809   4.6507   4.6841   4.6970   4.7520
     4.7856   4.8100   4.8456   4.8624   4.8653   4.8936

          k = 0.0000 0.1443 0.0000 ( 35435 PWs)   bands (ev):

   -58.8920 -58.8661 -58.8443 -58.7940 -33.0603 -33.0341 -33.0131 -32.9627
   -32.8942 -32.8696 -32.8482 -32.8464 -32.8235 -32.8003 -32.7973 -32.7513
   -12.0082 -11.9144 -11.9114 -11.8145 -10.8990 -10.7627 -10.7501 -10.6244
    -3.7791  -3.4519  -3.4126  -3.1003  -1.1090  -1.0844  -1.0655  -1.0515
    -1.0077  -0.6601  -0.6292  -0.3791  -0.3613  -0.3367  -0.3337  -0.2905
     0.1454   0.1684   0.1920   0.2396   0.6594   0.8427   0.8773   1.2137
     1.5709   1.7324   1.9450   2.1237   4.3713   4.4252   4.4616   4.5197
     4.5543   4.5945   4.6670   4.6674   4.7219   4.7445

          k = 0.0000 0.2165 0.0000 ( 35345 PWs)   bands (ev):

   -58.8854 -58.8594 -58.8376 -58.7874 -33.0473 -33.0211 -33.0002 -32.9596
   -32.9497 -32.9351 -32.9118 -32.8632 -32.8628 -32.8385 -32.8153 -32.7663
   -11.7347 -11.6430 -11.6404 -11.5451 -10.7726 -10.6493 -10.6351 -10.5194
    -3.5193  -3.2111  -3.1652  -2.8739  -1.5458  -1.5068  -1.4992  -1.4674
    -1.3934  -1.1473  -1.0934  -0.8817  -0.1812  -0.1552  -0.1359  -0.1045
    -0.0863  -0.0853  -0.0557  -0.0141   0.5724   0.7963   0.8212   1.1320
     1.4213   1.5114   1.6232   1.7148   3.9916   4.1313   4.1814   4.4167
     4.4469   4.5265   4.5304   4.5746   4.6042   4.6154

          k = 0.0000 0.2887 0.0000 ( 35323 PWs)   bands (ev):

   -58.8775 -58.8516 -58.8298 -58.7795 -33.0359 -33.0320 -33.0114 -33.0057
   -32.9881 -32.9848 -32.9392 -32.9343 -32.8808 -32.8562 -32.8329 -32.7839
   -11.3872 -11.2999 -11.2976 -11.2056 -10.6131 -10.5071 -10.4911 -10.3885
    -3.3195  -3.0688  -3.0275  -2.8087  -1.9448  -1.8708  -1.8197  -1.8116
    -1.7093  -1.6387  -1.5366  -1.4207  -0.5093  -0.4830  -0.4609  -0.4109
     0.2188   0.2430   0.2674   0.3159   0.3571   0.6000   0.6071   0.8894
     1.1420   1.1922   1.2398   1.3053   3.8550   4.0634   4.1038   4.2588
     4.3337   4.3403   4.4153   4.4229   4.7933   5.0225

          k = 0.0000 0.3608 0.0000 ( 35299 PWs)   bands (ev):

   -58.8697 -58.8437 -58.8219 -58.7717 -33.1113 -33.0869 -33.0635 -33.0166
   -33.0146 -32.9903 -32.9694 -32.9189 -32.8983 -32.8737 -32.8505 -32.8014
   -11.0041 -10.9245 -10.9223 -10.8364 -10.4395 -10.3540 -10.3365 -10.2490
    -3.3565  -3.2022  -3.1828  -3.0597  -2.3093  -2.1862  -2.1061  -2.0199
    -1.9505  -1.9027  -1.8218  -1.7257  -0.7976  -0.7705  -0.7486  -0.6979
     0.1217   0.3623   0.3673   0.5378   0.5711   0.5924   0.6152   0.6475
     0.9216   0.9718   1.0110   1.0751   3.9692   4.1555   4.1861   4.2115
     4.2175   4.2272   4.3019   4.5082   5.1224   5.3513

          k = 0.0000 0.4330 0.0000 ( 35224 PWs)   bands (ev):

   -58.8630 -58.8370 -58.8152 -58.7650 -33.1745 -33.1502 -33.1267 -33.0779
   -33.0035 -32.9772 -32.9563 -32.9132 -32.9058 -32.8886 -32.8653 -32.8163
   -10.6402 -10.5722 -10.5697 -10.4931 -10.2780 -10.2141 -10.1962 -10.1234
    -3.5895  -3.4979  -3.4866  -3.4083  -2.6473  -2.5365  -2.5016  -2.4112
    -2.0628  -1.9537  -1.9372  -1.8071  -1.0184  -0.9906  -0.9689  -0.9177
    -0.0536   0.1739   0.1822   0.4001   0.7917   0.8381   0.8563   0.9203
     0.9412   1.0128   1.0468   1.1281   4.1499   4.1948   4.2084   4.2285
     4.2721   4.4069   4.4210   4.6482   5.4280   5.6328

          k = 0.0000 0.5052 0.0000 ( 35152 PWs)   bands (ev):

   -58.8585 -58.8326 -58.8107 -58.7605 -33.2164 -33.1921 -33.1686 -33.1199
   -32.9948 -32.9684 -32.9476 -32.9231 -32.8985 -32.8970 -32.8752 -32.8262
   -10.3679 -10.3134 -10.3101 -10.2449 -10.1597 -10.1144 -10.0981 -10.0360
    -3.8179  -3.7517  -3.7383  -3.6751  -2.8847  -2.8000  -2.7691  -2.6918
    -2.1660  -2.0518  -2.0440  -1.9197  -1.1561  -1.1279  -1.1063  -1.0549
    -0.1490   0.0664   0.0734   0.2693   0.9454   1.0039   1.0200   1.0922
     1.1296   1.2117   1.2309   1.3161   4.1987   4.2307   4.2484   4.3033
     4.5184   4.6348   4.6438   4.7832   5.6169   5.7934

          k = 0.0000-0.5774 0.0000 ( 35026 PWs)   bands (ev):

   -58.8570 -58.8310 -58.8092 -58.7589 -33.2310 -33.2068 -33.1833 -33.1346
   -32.9917 -32.9654 -32.9445 -32.9265 -32.9019 -32.8939 -32.8787 -32.8296
   -10.2643 -10.2170 -10.2129 -10.1544 -10.1153 -10.0780 -10.0635 -10.0049
    -3.9099  -3.8493  -3.8344  -3.7744  -2.9697  -2.8961  -2.8639  -2.7907
    -2.2141  -2.1006  -2.0932  -1.9720  -1.2029  -1.1745  -1.1529  -1.1014
    -0.1776   0.0324   0.0382   0.2253   0.9952   1.0587   1.0739   1.1495
     1.2459   1.3182   1.3279   1.4034   4.2272   4.2552   4.2750   4.3268
     4.6723   4.7423   4.7521   4.8301   5.6754   5.8355

          k = 0.0625 0.1083 0.0000 ( 35467 PWs)   bands (ev):

   -58.8935 -58.8675 -58.8457 -58.7955 -33.0631 -33.0369 -33.0159 -32.9655
   -32.8795 -32.8549 -32.8454 -32.8317 -32.8207 -32.7975 -32.7826 -32.7485
   -12.0653 -11.9712 -11.9682 -11.8711 -10.9254 -10.7865 -10.7742 -10.6465
    -3.8400  -3.5105  -3.4728  -3.1582  -0.9983  -0.9764  -0.9567  -0.9481
    -0.9034  -0.5200  -0.4962  -0.4394  -0.4222  -0.3939  -0.3516  -0.1720
     0.1817   0.2039   0.2271   0.2740   0.6961   0.8550   0.8874   1.2176
     1.5894   1.7677   2.0064   2.2121   4.4954   4.5216   4.5330   4.5552
     4.5576   4.6253   4.6410   4.7148   4.7379   4.8061

          k = 0.0625 0.1804 0.0000 ( 35370 PWs)   bands (ev):

   -58.8879 -58.8620 -58.8402 -58.7899 -33.0523 -33.0261 -33.0051 -32.9547
   -32.9330 -32.9085 -32.8852 -32.8591 -32.8362 -32.8345 -32.8113 -32.7622
   -11.8414 -11.7488 -11.7461 -11.6501 -10.8218 -10.6934 -10.6798 -10.5601
    -3.6101  -3.2918  -3.2479  -2.9447  -1.3824  -1.3545  -1.3394  -1.3026
    -1.2442  -0.9304  -0.8858  -0.6304  -0.2237  -0.2046  -0.1917  -0.1702
    -0.1615  -0.1465  -0.1253  -0.0913   0.7473   0.9330   0.9695   1.2577
     1.5015   1.6109   1.7674   1.8756   4.1014   4.2082   4.2483   4.4042
     4.4648   4.4851   4.5267   4.5826   4.6252   4.6882

          k = 0.0625 0.2526 0.0000 ( 35362 PWs)   bands (ev):

   -58.8807 -58.8547 -58.8329 -58.7827 -33.0381 -33.0119 -33.0022 -32.9910
   -32.9777 -32.9544 -32.9405 -32.9054 -32.8771 -32.8524 -32.8292 -32.7801
   -11.5304 -11.4410 -11.4386 -11.3450 -10.6782 -10.5649 -10.5496 -10.4415
    -3.3666  -3.0831  -3.0363  -2.7757  -1.7750  -1.7222  -1.7156  -1.6831
    -1.5736  -1.3860  -1.3157  -1.1538  -0.5618  -0.5358  -0.5105  -0.4591
     0.0444   0.0674   0.0910   0.1385   0.6450   0.8385   0.8563   1.1058
     1.2848   1.3346   1.4025   1.4649   3.8347   4.0161   4.0527   4.2563
     4.3802   4.4165   4.4406   4.4872   4.5955   4.6226

          k = 0.0625 0.3248 0.0000 ( 35310 PWs)   bands (ev):

   -58.8728 -58.8469 -58.8250 -58.7748 -33.0762 -33.0518 -33.0284 -33.0228
   -32.9965 -32.9796 -32.9756 -32.9251 -32.8964 -32.8718 -32.8486 -32.7995
   -11.1635 -11.0801 -11.0779 -10.9890 -10.5103 -10.4159 -10.3989 -10.3049
    -3.2775  -3.0778  -3.0485  -2.8856  -2.1131  -2.0194  -1.8983  -1.8733
    -1.8703  -1.8161  -1.6937  -1.6518  -0.8671  -0.8281  -0.8022  -0.7407
     0.2782   0.3105   0.3238   0.3770   0.4340   0.6168   0.6182   0.8400
     1.0520   1.0878   1.1188   1.1762   3.7950   3.9951   4.0153   4.1717
     4.3114   4.3467   4.3880   4.5055   4.8522   5.0741

          k = 0.0625 0.3969 0.0000 ( 35243 PWs)   bands (ev):

   -58.8656 -58.8396 -58.8178 -58.7675 -33.1439 -33.1195 -33.0961 -33.0473
   -33.0085 -32.9822 -32.9613 -32.9142 -32.9108 -32.8896 -32.8664 -32.8174
   -10.7868 -10.7132 -10.7109 -10.6298 -10.3404 -10.2671 -10.2492 -10.1701
    -3.4322  -3.3148  -3.3019  -3.2062  -2.4821  -2.3694  -2.3300  -2.2423
    -1.9909  -1.8916  -1.8703  -1.7385  -1.0663  -1.0220  -0.9991  -0.9366
     0.1691   0.3489   0.3659   0.4235   0.4582   0.4826   0.5076   0.5973
     1.0616   1.0931   1.1187   1.1727   3.9258   4.0846   4.0923   4.2027
     4.3552   4.4051   4.4331   4.5936   5.1900   5.3892

          k = 0.0625 0.4691 0.0000 ( 35169 PWs)   bands (ev):

   -58.8600 -58.8340 -58.8122 -58.7620 -33.1952 -33.1709 -33.1474 -33.0987
   -32.9976 -32.9713 -32.9504 -32.9279 -32.9033 -32.8999 -32.8800 -32.8310
   -10.4635 -10.4030 -10.4002 -10.3299 -10.1973 -10.1446 -10.1273 -10.0613
    -3.6699  -3.5935  -3.5814  -3.5123  -2.7984  -2.7125  -2.6866  -2.6104
    -2.0936  -1.9752  -1.9715  -1.8418  -1.1738  -1.1348  -1.1183  -1.0598
    -0.0226   0.1644   0.1703   0.3436   0.5465   0.5980   0.6100   0.6845
     1.2351   1.2738   1.2954   1.3555   4.1162   4.1999   4.2080   4.2804
     4.4913   4.5663   4.5838   4.7241   5.5010   5.6629

          k = 0.0625 0.5413 0.0000 ( 35128 PWs)   bands (ev):

   -58.8570 -58.8310 -58.8092 -58.7589 -33.2228 -33.1985 -33.1750 -33.1263
   -32.9917 -32.9654 -32.9445 -32.9352 -32.9106 -32.8939 -32.8874 -32.8383
   -10.2701 -10.2214 -10.2175 -10.1580 -10.1129 -10.0747 -10.0596 -10.0007
    -3.8299  -3.7684  -3.7533  -3.6927  -2.9769  -2.9082  -2.8815  -2.8110
    -2.1829  -2.0650  -2.0608  -1.9378  -1.2170  -1.1857  -1.1731  -1.1183
    -0.1277   0.0631   0.0657   0.2369   0.6365   0.7005   0.7079   0.7827
     1.3889   1.4391   1.4553   1.5215   4.2272   4.2586   4.2709   4.3237
     4.6669   4.7406   4.7522   4.8411   5.7221   5.8427

          k = 0.1250 0.2165 0.0000 ( 35331 PWs)   bands (ev):

   -58.8818 -58.8558 -58.8340 -58.7838 -33.0403 -33.0141 -32.9931 -32.9882
   -32.9637 -32.9426 -32.9404 -32.8914 -32.8779 -32.8533 -32.8301 -32.7810
   -11.5795 -11.4895 -11.4870 -11.3930 -10.7005 -10.5847 -10.5696 -10.4596
    -3.3858  -3.0912  -3.0430  -2.7679  -1.7030  -1.6637  -1.6628  -1.6157
    -1.4779  -1.2239  -1.1604  -0.9667  -0.7002  -0.6792  -0.6480  -0.6001
    -0.0351  -0.0124   0.0101   0.0576   0.8302   0.9958   1.0253   1.2364
     1.3518   1.3920   1.4786   1.5340   3.8224   3.9920   4.0229   4.2167
     4.3752   4.4058   4.4431   4.4583   4.4699   4.5225

          k = 0.1250 0.2887 0.0000 ( 35357 PWs)   bands (ev):

   -58.8745 -58.8486 -58.8268 -58.7765 -33.0515 -33.0271 -33.0261 -33.0037
   -32.9999 -32.9789 -32.9548 -32.9284 -32.9012 -32.8766 -32.8534 -32.8043
   -11.2474 -11.1623 -11.1600 -11.0698 -10.5470 -10.4479 -10.4312 -10.3337
    -3.2290  -2.9960  -2.9588  -2.7618  -1.9558  -1.8992  -1.8338  -1.8058
    -1.7029  -1.6277  -1.5354  -1.4703  -1.1309  -1.0733  -1.0332  -0.9222
     0.0678   0.0998   0.1149   0.1689   0.7570   0.9013   0.9086   1.0756
     1.1589   1.1739   1.1987   1.2503   3.6608   3.8693   3.8911   4.0918
     4.3707   4.4143   4.4153   4.4805   4.6056   4.6318

          k = 0.1250 0.3608 0.0000 ( 35341 PWs)   bands (ev):

   -58.8673 -58.8413 -58.8195 -58.7693 -33.1137 -33.0894 -33.0660 -33.0171
   -33.0119 -32.9856 -32.9647 -32.9249 -32.9142 -32.9003 -32.8770 -32.8280
   -10.8829 -10.8058 -10.8037 -10.7198 -10.3794 -10.3000 -10.2820 -10.1986
    -3.2764  -3.1278  -3.1113  -2.9922  -2.2820  -2.1910  -2.1500  -2.0899
    -1.8976  -1.8117  -1.8019  -1.6747  -1.3261  -1.2244  -1.1735  -1.0543
     0.0097   0.0523   0.0615   0.1210   0.5360   0.6588   0.6597   0.7982
     1.1141   1.1427   1.1605   1.2135   3.6955   3.9257   3.9383   4.1594
     4.4414   4.4760   4.4943   4.5799   4.8458   4.9319

          k = 0.1250 0.4330 0.0000 ( 35215 PWs)   bands (ev):

   -58.8611 -58.8351 -58.8133 -58.7631 -33.1659 -33.1416 -33.1181 -33.0693
   -32.9998 -32.9735 -32.9526 -32.9451 -32.9205 -32.9021 -32.8972 -32.8482
   -10.5389 -10.4737 -10.4713 -10.3971 -10.2228 -10.1640 -10.1460 -10.0763
    -3.4570  -3.3609  -3.3501  -3.2684  -2.6945  -2.6293  -2.6125  -2.5492
    -1.9689  -1.8546  -1.8388  -1.7203  -1.3561  -1.2512  -1.2162  -1.1107
    -0.0451   0.0224   0.0260   0.1022   0.2606   0.3755   0.3790   0.5058
     1.2530   1.2825   1.3022   1.3554   3.9017   4.1162   4.1227   4.3285
     4.5498   4.5769   4.6068   4.6691   5.1544   5.3176

          k = 0.1250 0.5052 0.0000 ( 35141 PWs)   bands (ev):

   -58.8570 -58.8310 -58.8092 -58.7589 -33.2004 -33.1761 -33.1526 -33.1039
   -32.9917 -32.9654 -32.9586 -32.9445 -32.9340 -32.9107 -32.8940 -32.8617
   -10.2838 -10.2319 -10.2285 -10.1666 -10.1072 -10.0667 -10.0504  -9.9906
    -3.6201  -3.5520  -3.5372  -3.4728  -2.9898  -2.9371  -2.9215  -2.8579
    -2.0876  -1.9629  -1.9584  -1.8394  -1.3081  -1.2244  -1.2089  -1.1287
    -0.0490   0.0372   0.0728   0.0885   0.1335   0.1501   0.1801   0.2943
     1.4399   1.4792   1.4988   1.5586   4.1203   4.2255   4.2378   4.3325
     4.7002   4.7629   4.7756   4.8701   5.4276   5.5423

          k = 0.1250 0.5774 0.0000 ( 35180 PWs)   bands (ev):

   -58.8555 -58.8295 -58.8077 -58.7575 -33.2125 -33.1882 -33.1647 -33.1160
   -32.9889 -32.9633 -32.9625 -32.9417 -32.9388 -32.9155 -32.8911 -32.8665
   -10.1872 -10.1423 -10.1380 -10.0856 -10.0615 -10.0311 -10.0164  -9.9599
    -3.6834  -3.6252  -3.6071  -3.5480  -3.0951  -3.0458  -3.0298  -2.9657
    -2.1477  -2.0218  -2.0211  -1.9005  -1.2613  -1.2044  -1.2022  -1.1343
    -0.1052   0.0275   0.0619   0.0624   0.1016   0.1123   0.1641   0.2387
     1.5322   1.5799   1.5985   1.6639   4.1946   4.2269   4.2373   4.2923
     4.8115   4.8899   4.8974   4.9707   5.5393   5.6563

          k = 0.1875 0.3248 0.0000 ( 35337 PWs)   bands (ev):

   -58.8679 -58.8419 -58.8201 -58.7699 -33.1002 -33.0758 -33.0524 -33.0131
   -33.0035 -32.9868 -32.9659 -32.9317 -32.9154 -32.9071 -32.8838 -32.8348
   -10.9162 -10.8381 -10.8359 -10.7512 -10.3927 -10.3110 -10.2931 -10.2082
    -3.2102  -3.0457  -3.0271  -2.8953  -2.1534  -2.0839  -2.0465  -2.0191
    -1.8521  -1.7705  -1.7700  -1.6796  -1.4674  -1.3543  -1.2721  -1.1241
    -0.1643  -0.1212  -0.1139  -0.0528   0.7005   0.7967   0.8000   0.9082
     1.1200   1.1530   1.1694   1.2256   3.6076   3.8628   3.8722   4.1331
     4.4652   4.5026   4.5034   4.5619   4.7008   4.7598

          k = 0.1875 0.3969 0.0000 ( 35241 PWs)   bands (ev):

   -58.8617 -58.8357 -58.8139 -58.7637 -33.1421 -33.1177 -33.0943 -33.0455
   -33.0010 -32.9747 -32.9625 -32.9538 -32.9379 -32.9146 -32.9033 -32.8657
   -10.5804 -10.5126 -10.5103 -10.4341 -10.2355 -10.1732 -10.1548 -10.0829
    -3.2960  -3.1789  -3.1691  -3.0724  -2.6013  -2.5687  -2.5565  -2.5061
    -1.8332  -1.7550  -1.6832  -1.6352  -1.4652  -1.3676  -1.2837  -1.1497
    -0.4826  -0.4289  -0.4218  -0.3545   0.4719   0.5398   0.5497   0.6289
     1.2229   1.2572   1.2781   1.3363   3.7609   4.0386   4.0459   4.3616
     4.5767   4.6042   4.6170   4.6706   4.8803   5.0612

          k = 0.1875 0.4691 0.0000 ( 35167 PWs)   bands (ev):

   -58.8570 -58.8310 -58.8092 -58.7589 -33.1726 -33.1483 -33.1248 -33.0760
   -32.9917 -32.9874 -32.9654 -32.9629 -32.9445 -32.9396 -32.8940 -32.8906
   -10.2971 -10.2422 -10.2393 -10.1751 -10.1016 -10.0587 -10.0414  -9.9804
    -3.3821  -3.2952  -3.2825  -3.2077  -2.9980  -2.9638  -2.9582  -2.9008
    -1.9179  -1.7936  -1.7746  -1.6958  -1.4071  -1.2756  -1.2422  -1.1171
    -0.6672  -0.5773  -0.5733  -0.4727   0.1713   0.2569   0.2572   0.3424
     1.4239   1.4543   1.4763   1.5304   3.9781   4.1615   4.1621   4.3310
     4.7416   4.8032   4.8058   4.9051   5.0892   5.2067

          k = 0.1875 0.5413 0.0000 ( 35162 PWs)   bands (ev):

   -58.8544 -58.8284 -58.8066 -58.7564 -33.1885 -33.1643 -33.1408 -33.0920
   -33.0013 -32.9867 -32.9768 -32.9604 -32.9535 -32.9395 -32.9046 -32.8890
   -10.1302 -10.0865 -10.0822 -10.0376 -10.0151  -9.9929  -9.9772  -9.9228
    -3.4195  -3.3597  -3.3348  -3.2750  -3.2142  -3.1766  -3.1755  -3.1121
    -2.0609  -1.9289  -1.9260  -1.8179  -1.2794  -1.1752  -1.1750  -1.0816
    -0.7114  -0.5960  -0.5919  -0.4836  -0.0370   0.0464   0.0547   0.1415
     1.6082   1.6460   1.6666   1.7263   4.0470   4.0971   4.1103   4.1749
     4.9288   5.0254   5.0616   5.1479   5.2003   5.3045

          k = 0.2500 0.4330 0.0000 ( 35195 PWs)   bands (ev):

   -58.8570 -58.8310 -58.8092 -58.7589 -33.1581 -33.1338 -33.1103 -33.0615
   -33.0023 -32.9918 -32.9778 -32.9654 -32.9545 -32.9445 -32.9056 -32.8940
   -10.3025 -10.2465 -10.2437 -10.1785 -10.0993 -10.0553 -10.0377  -9.9762
    -3.2736  -3.1723  -3.1615  -3.0835  -2.9989  -2.9726  -2.9689  -2.9184
    -1.7364  -1.6897  -1.6059  -1.6053  -1.3978  -1.2995  -1.2331  -1.1008
    -0.9824  -0.9413  -0.9277  -0.8743   0.2411   0.2928   0.3077   0.3778
     1.4073   1.4366   1.4603   1.5138   3.9179   4.1229   4.1310   4.3222
     4.7523   4.8077   4.8213   4.9120   4.9610   5.1023

          k = 0.2500 0.5052 0.0000 ( 35193 PWs)   bands (ev):

   -58.8538 -58.8278 -58.8060 -58.7558 -33.1628 -33.1385 -33.1150 -33.0663
   -33.0349 -33.0104 -32.9871 -32.9856 -32.9592 -32.9384 -32.9382 -32.8878
   -10.1020 -10.0583 -10.0542 -10.0132  -9.9886  -9.9702  -9.9534  -9.9003
    -3.3063  -3.2755  -3.2649  -3.2182  -3.1544  -3.0768  -3.0745  -2.9968
    -1.8902  -1.7622  -1.7595  -1.7042  -1.3416  -1.2758  -1.2032  -1.2017
    -1.1470  -1.1435  -1.0544  -0.9850  -0.0362   0.0321   0.0355   0.1168
     1.6480   1.6768   1.6991   1.7518   3.9148   3.9835   3.9950   4.0742
     4.8963   4.9673   4.9905   5.0549   5.1805   5.2586

          k = 0.2500 0.5774 0.0000 ( 35190 PWs)   bands (ev):

   -58.8527 -58.8267 -58.8049 -58.7547 -33.1626 -33.1383 -33.1149 -33.0661
   -33.0481 -33.0237 -33.0003 -32.9834 -32.9571 -32.9514 -32.9362 -32.8856
   -10.0270  -9.9901  -9.9855  -9.9690  -9.9391  -9.9389  -9.9176  -9.8726
    -3.4058  -3.3762  -3.3689  -3.3177  -3.0700  -3.0194  -3.0045  -2.9466
    -2.0449  -1.9224  -1.9189  -1.8312  -1.3792  -1.2735  -1.2326  -1.1774
    -1.1013  -1.0495  -1.0076  -0.9513  -0.1562  -0.1002  -0.0962  -0.0197
     1.7746   1.8070   1.8280   1.8838   3.8426   3.8688   3.8873   3.9375
     4.9226   4.9853   5.0270   5.0605   5.3384   5.3792

          k = 0.3125 0.5413 0.0000 ( 35172 PWs)   bands (ev):

   -58.8521 -58.8261 -58.8043 -58.7541 -33.1416 -33.1173 -33.0938 -33.0766
   -33.0521 -33.0450 -33.0288 -32.9822 -32.9798 -32.9559 -32.9350 -32.8845
    -9.9905  -9.9564  -9.9540  -9.9439  -9.9190  -9.9155  -9.8917  -9.8536
    -3.4736  -3.4438  -3.4404  -3.3862  -2.8461  -2.7811  -2.7673  -2.7027
    -2.0367  -2.0250  -1.9830  -1.9583  -1.5566  -1.5279  -1.5167  -1.4980
    -1.0515  -0.9761  -0.9636  -0.8940  -0.2444  -0.1788  -0.1707  -0.0900
     1.8566   1.8854   1.9064   1.9592   3.7266   3.7515   3.7725   3.8218
     4.8594   4.8914   4.9498   4.9706   5.4333   5.5041

     the Fermi energy is     2.9707 ev

!    total energy              =   -1978.35725808 Ry
     total all-electron energy =    -38771.678103 Ry
     estimated scf accuracy    <          1.0E-08 Ry
     smearing contrib. (-TS)   =       0.00003302 Ry
     internal energy E=F+TS    =   -1978.35729110 Ry

     The total energy is F=E-TS. E is the sum of the following terms:
     one-electron contribution =  -11240.69050739 Ry
     hartree contribution      =    5641.95905451 Ry
     xc contribution           =    -119.22536293 Ry
     ewald contribution        =    5009.45241990 Ry
     one-center paw contrib.   =   -1269.85289519 Ry

     convergence has been achieved in  59 iterations

     Writing all to output data dir ./tmp/cleave2/cleave_dz024_dz6p0/mos2_cleave.save/ :
     XML data file, charge density, pseudopotentials, collected wavefunctions

     init_run     :    154.80s CPU    157.31s WALL (       1 calls)
     electrons    :  12623.62s CPU  12831.28s WALL (       1 calls)

     Called by init_run:
     wfcinit      :     89.38s CPU     90.18s WALL (       1 calls)
     potinit      :     61.05s CPU     61.50s WALL (       1 calls)
     hinit0       :      0.44s CPU      0.46s WALL (       1 calls)

     Called by electrons:
     c_bands      :  10539.19s CPU  10600.46s WALL (      60 calls)
     sum_band     :   1593.96s CPU   1661.46s WALL (      60 calls)
     v_of_rho     :    254.07s CPU    274.39s WALL (      60 calls)
     newd         :    189.65s CPU    248.50s WALL (      60 calls)
     PAW_pot      :     25.16s CPU     25.17s WALL (      60 calls)
     mix_rho      :     83.84s CPU     85.16s WALL (      60 calls)
     vdW_kernel   :     56.79s CPU     56.79s WALL (       1 calls)

     Called by c_bands:
     init_us_2    :     47.71s CPU     47.76s WALL (    3630 calls)
     init_us_2:cp :     47.70s CPU     47.75s WALL (    3630 calls)
     cegterg      :  10074.98s CPU  10135.79s WALL (    1800 calls)

     Called by *egterg:
     cdiaghg      :     15.86s CPU     15.87s WALL (    6017 calls)
     h_psi        :   5354.80s CPU   5377.99s WALL (    6077 calls)
     s_psi        :   1562.70s CPU   1563.08s WALL (    6077 calls)
     g_psi        :     24.23s CPU     24.25s WALL (    4247 calls)

     Called by h_psi:
     h_psi:calbec :   2023.47s CPU   2023.89s WALL (    6077 calls)
     vloc_psi     :   1758.57s CPU   1759.74s WALL (    6077 calls)
     add_vuspsi   :   1561.80s CPU   1562.16s WALL (    6077 calls)

     General routines
     calbec       :   2936.08s CPU   2936.71s WALL (    7877 calls)
     fft          :     75.99s CPU     76.02s WALL (    3779 calls)
     ffts         :     41.43s CPU     41.45s WALL (    7254 calls)
     fftw         :   1594.72s CPU   1595.53s WALL (  603894 calls)
     interpolate  :      1.82s CPU      1.83s WALL (      60 calls)

     Parallel routines

     PWSCF        :      3h32m CPU      3h36m WALL


   This run was terminated on:  16:30:38  13Jun2026            

=------------------------------------------------------------------------------=
   JOB DONE.
=------------------------------------------------------------------------------=
Note: The following floating-point exceptions are signalling: IEEE_UNDERFLOW_FLAG IEEE_DENORMAL
