Authorization required, but no authorization protocol specified

Authorization required, but no authorization protocol specified

Authorization required, but no authorization protocol specified

Authorization required, but no authorization protocol specified

Authorization required, but no authorization protocol specified

Authorization required, but no authorization protocol specified

Authorization required, but no authorization protocol specified

Authorization required, but no authorization protocol specified


     Program PWSCF v.7.3 starts on 13Jun2026 at 23:59:28 

     This program is part of the open-source Quantum ESPRESSO suite
     for quantum simulation of materials; please cite
         "P. Giannozzi et al., J. Phys.:Condens. Matter 21 395502 (2009);
         "P. Giannozzi et al., J. Phys.:Condens. Matter 29 465901 (2017);
         "P. Giannozzi et al., J. Chem. Phys. 152 154105 (2020);
          URL http://www.quantum-espresso.org", 
     in publications or presentations arising from this work. More details at
     http://www.quantum-espresso.org/quote

     Parallel version (MPI), running on     1 processors

     MPI processes distributed on     1 nodes
     7035 MiB available memory on the printing compute node when the environment starts

     Waiting for input...
     Reading input from standard input

     Current dimensions of program PWSCF are:
     Max number of different atomic species (ntypx) = 10
     Max number of k-points (npk) =  40000
     Max angular momentum in pseudopotentials (lmaxx) =  4
     file Mo.pbe-spn-kjpaw_psl.1.0.0.UPF: wavefunction(s)  4S 4D renormalized
     file S.pbe-n-kjpaw_psl.1.0.0.UPF: wavefunction(s)  3S 3P renormalized

     IMPORTANT: XC functional enforced from input :
     Exchange-correlation= VDW-DF2-B86R
                           (   1   4  26   0   2   0   0)
     Any further DFT definition will be discarded
     Please, verify this is what you really want


     Subspace diagonalization in iterative solution of the eigenvalue problem:
     a serial algorithm will be used


     G-vector sticks info
     --------------------
     sticks:   dense  smooth     PW     G-vecs:    dense   smooth      PW
     Sum        1573     769    223               797393   281171   43435

     Using Slab Decomposition



     bravais-lattice index     =            4
     lattice parameter (alat)  =       5.9715  a.u.
     unit-cell volume          =    2917.9067 (a.u.)^3
     number of atoms/cell      =           12
     number of atomic types    =            2
     number of electrons       =       104.00
     number of Kohn-Sham states=           62
     kinetic-energy cutoff     =      80.0000  Ry
     charge density cutoff     =     640.0000  Ry
     scf convergence threshold =      1.0E-08
     mixing beta               =       0.2000
     number of iterations used =            8  local-TF  mixing
     Exchange-correlation= VDW-DF2-B86R
                           (   1   4  26   0   2   0   0)

     celldm(1)=   5.971535  celldm(2)=   0.000000  celldm(3)=  15.822785
     celldm(4)=   0.000000  celldm(5)=   0.000000  celldm(6)=   0.000000

     crystal axes: (cart. coord. in units of alat)
               a(1) = (   1.000000   0.000000   0.000000 )  
               a(2) = (  -0.500000   0.866025   0.000000 )  
               a(3) = (   0.000000   0.000000  15.822785 )  

     reciprocal axes: (cart. coord. in units 2 pi/alat)
               b(1) = (  1.000000  0.577350 -0.000000 )  
               b(2) = (  0.000000  1.154701  0.000000 )  
               b(3) = (  0.000000 -0.000000  0.063200 )  


     PseudoPot. # 1 for Mo read from file:
     ./pseudo/Mo.pbe-spn-kjpaw_psl.1.0.0.UPF
     MD5 check sum: 4396e0c640fcce5c25f020efccf1ab12
     Pseudo is Projector augmented-wave + core cor, Zval = 14.0
     Generated using &quot;atomic&quot; code by A. Dal Corso  v.6.3
     Shape of augmentation charge: PSQ
     Using radial grid of 1229 points,  6 beta functions with: 
                l(1) =   0
                l(2) =   0
                l(3) =   1
                l(4) =   1
                l(5) =   2
                l(6) =   2
     Q(r) pseudized with 0 coefficients 


     PseudoPot. # 2 for S  read from file:
     ./pseudo/S.pbe-n-kjpaw_psl.1.0.0.UPF
     MD5 check sum: fb45dfebcf3e72a4e1bd4a866ec2e262
     Pseudo is Projector augmented-wave + core cor, Zval =  6.0
     Generated using &quot;atomic&quot; code by A. Dal Corso  v.6.3
     Shape of augmentation charge: PSQ
     Using radial grid of 1151 points,  6 beta functions with: 
                l(1) =   0
                l(2) =   0
                l(3) =   1
                l(4) =   1
                l(5) =   2
                l(6) =   2
     Q(r) pseudized with 0 coefficients 


     atomic species   valence    mass     pseudopotential
     Mo               14.00    95.96000     Mo( 1.00)
     S                 6.00    32.06000     S ( 1.00)

      6 Sym. Ops. (no inversion) found



   Cartesian axes

     site n.     atom                  positions (alat units)
         1        S      tau(   1) = (  -0.0000005   0.5773503  -0.9967195  )
         2        Mo     tau(   2) = (   0.0000000   0.0000000  -0.4993332  )
         3        S      tau(   3) = (  -0.0000005   0.5773503  -0.0017175  )
         4        S      tau(   4) = (   0.5000003   0.2886747   0.9835827  )
         5        Mo     tau(   5) = (  -0.0000005   0.5773503   1.4818950  )
         6        S      tau(   6) = (   0.5000003   0.2886747   1.9798512  )
         7        S      tau(   7) = (   0.0000000   0.0000000   2.9586848  )
         8        Mo     tau(   8) = (   0.5000003   0.2886747   3.4569999  )
         9        S      tau(   9) = (   0.0000000   0.0000000   3.9548385  )
        10        S      tau(  10) = (  -0.0000005   0.5773503   7.2941793  )
        11        Mo     tau(  11) = (   0.0000000   0.0000000   7.7918159  )
        12        S      tau(  12) = (  -0.0000005   0.5773503   8.2889501  )

     number of k points=    30  Methfessel-Paxton smearing, width (Ry)=  0.0200
                       cart. coord. in units 2pi/alat
        k(    1) = (   0.0000000   0.0000000   0.0000000), wk =   0.0078125
        k(    2) = (   0.0000000   0.0721688   0.0000000), wk =   0.0468750
        k(    3) = (   0.0000000   0.1443376   0.0000000), wk =   0.0468750
        k(    4) = (   0.0000000   0.2165064   0.0000000), wk =   0.0468750
        k(    5) = (   0.0000000   0.2886751   0.0000000), wk =   0.0468750
        k(    6) = (   0.0000000   0.3608439   0.0000000), wk =   0.0468750
        k(    7) = (   0.0000000   0.4330127   0.0000000), wk =   0.0468750
        k(    8) = (   0.0000000   0.5051815   0.0000000), wk =   0.0468750
        k(    9) = (   0.0000000  -0.5773503   0.0000000), wk =   0.0234375
        k(   10) = (   0.0625000   0.1082532   0.0000000), wk =   0.0468750
        k(   11) = (   0.0625000   0.1804220   0.0000000), wk =   0.0937500
        k(   12) = (   0.0625000   0.2525907   0.0000000), wk =   0.0937500
        k(   13) = (   0.0625000   0.3247595   0.0000000), wk =   0.0937500
        k(   14) = (   0.0625000   0.3969283   0.0000000), wk =   0.0937500
        k(   15) = (   0.0625000   0.4690971   0.0000000), wk =   0.0937500
        k(   16) = (   0.0625000   0.5412659   0.0000000), wk =   0.0937500
        k(   17) = (   0.1250000   0.2165064   0.0000000), wk =   0.0468750
        k(   18) = (   0.1250000   0.2886751   0.0000000), wk =   0.0937500
        k(   19) = (   0.1250000   0.3608439   0.0000000), wk =   0.0937500
        k(   20) = (   0.1250000   0.4330127   0.0000000), wk =   0.0937500
        k(   21) = (   0.1250000   0.5051815   0.0000000), wk =   0.0937500
        k(   22) = (   0.1250000   0.5773503   0.0000000), wk =   0.0468750
        k(   23) = (   0.1875000   0.3247595   0.0000000), wk =   0.0468750
        k(   24) = (   0.1875000   0.3969283   0.0000000), wk =   0.0937500
        k(   25) = (   0.1875000   0.4690971   0.0000000), wk =   0.0937500
        k(   26) = (   0.1875000   0.5412659   0.0000000), wk =   0.0937500
        k(   27) = (   0.2500000   0.4330127   0.0000000), wk =   0.0468750
        k(   28) = (   0.2500000   0.5051815   0.0000000), wk =   0.0937500
        k(   29) = (   0.2500000   0.5773503   0.0000000), wk =   0.0468750
        k(   30) = (   0.3125000   0.5412659   0.0000000), wk =   0.0468750

     Dense  grid:   797393 G-vectors     FFT dimensions: (  50,  50, 768)

     Smooth grid:   281171 G-vectors     FFT dimensions: (  36,  36, 540)

     Estimated max dynamical RAM per process >       3.90 GB

     Initial potential from superposition of free atoms

     starting charge     103.9962, renormalised to     104.0000

     negative rho (up, down):  1.199E-04 0.000E+00


     %%%%%%%%%%%%%%%%%%%%%%%%%%%%%%%%%%%%%%%%%%%%%%%%%%%%%%%%%%%%%%%%%%%%%%%%
     %                                                                      %
     % You are using vdW-DF, which was implemented by the Thonhauser group. %
     % Please cite the following two papers that made this development      %
     % possible and the two reviews that describe the various versions:     %
     %                                                                      %
     %   T. Thonhauser et al., PRL 115, 136402 (2015).                      %
     %   T. Thonhauser et al., PRB 76, 125112 (2007).                       %
     %   K. Berland et al., Rep. Prog. Phys. 78, 066501 (2015).             %
     %   D.C. Langreth et al., J. Phys.: Condens. Matter 21, 084203 (2009). %
     %                                                                      %
     % If you are calculating stress with vdW-DF, please also cite:         %
     %                                                                      %
     %   R. Sabatini et al., J. Phys.: Condens. Matter 24, 424209 (2012).   %
     %                                                                      %
     %%%%%%%%%%%%%%%%%%%%%%%%%%%%%%%%%%%%%%%%%%%%%%%%%%%%%%%%%%%%%%%%%%%%%%%%

     %%%%%%%%%%%%%%%%%%%%%%%%%%%%%%%%%%%%%%%%%%%%%%%%%%%%%%%%%%%%%%%%%%%%%%%%
     %                                                                      %
     %  vdW-DF NEWS:                                                        %
     %                                                                      %
     %  * vdW-DF3 is now available. DOI: 10.1021/acs.jctc.0c00471           %
     %    use with input_dft = 'vdW-DF3-opt1' or 'vdW-DF3-opt2'             %
     %                                                                      %
     %  * Unscreened and range-separated hybrid vdW-DF-cx functionals       %
     %    DOI: 10.1063/1.4986522 and 10.1088/1361-648X/ac2ad2               %
     %    use with input_dft = 'vdW-DF-cx0'    and 'vdW-DF-ahcx'            %
     %  * Unscreened and range-separated hybrid vdW-DF2-b86r functionals    %
     %    DOI: 10.1063/1.4986522 and DOI: 10.1103/PhysRevX.12.041003        %
     %    use with input_dft = 'vdW-DF2-br0' and 'vdW-DF2-ahbr'             %
     %                                                                      %
     %%%%%%%%%%%%%%%%%%%%%%%%%%%%%%%%%%%%%%%%%%%%%%%%%%%%%%%%%%%%%%%%%%%%%%%%


     Starting wfcs are   72 randomized atomic wfcs
     Checking if some PAW data can be deallocated... 

     total cpu time spent up to now is      124.1 secs

     Self-consistent Calculation

     iteration #  1     ecut=    80.00 Ry     beta= 0.20
     Davidson diagonalization with overlap
     ethr =  1.00E-02,  avg # of iterations =  2.3

     Threshold (ethr) on eigenvalues was too large:
     Diagonalizing with lowered threshold

     Davidson diagonalization with overlap
     ethr =  2.87E-04,  avg # of iterations =  3.7

     negative rho (up, down):  8.769E-06 0.000E+00

     total cpu time spent up to now is      602.5 secs

     total energy              =   -1978.45349863 Ry
     estimated scf accuracy    <       0.44897393 Ry

     iteration #  2     ecut=    80.00 Ry     beta= 0.20
     Davidson diagonalization with overlap
     ethr =  4.32E-04,  avg # of iterations =  1.0

     negative rho (up, down):  2.526E-07 0.000E+00

     total cpu time spent up to now is      782.0 secs

     total energy              =   -1978.27517916 Ry
     estimated scf accuracy    <       0.37171190 Ry

     iteration #  3     ecut=    80.00 Ry     beta= 0.20
     Davidson diagonalization with overlap
     ethr =  3.57E-04,  avg # of iterations =  2.0

     negative rho (up, down):  1.841E-08 0.000E+00

     total cpu time spent up to now is     1018.3 secs

     total energy              =   -1978.35433048 Ry
     estimated scf accuracy    <       0.04940699 Ry

     iteration #  4     ecut=    80.00 Ry     beta= 0.20
     Davidson diagonalization with overlap
     ethr =  4.75E-05,  avg # of iterations =  2.2

     total cpu time spent up to now is     1248.4 secs

     total energy              =   -1978.35712602 Ry
     estimated scf accuracy    <       0.02186982 Ry

     iteration #  5     ecut=    80.00 Ry     beta= 0.20
     Davidson diagonalization with overlap
     ethr =  2.10E-05,  avg # of iterations =  2.9

     total cpu time spent up to now is     1458.6 secs

     total energy              =   -1978.35879233 Ry
     estimated scf accuracy    <       0.00590759 Ry

     iteration #  6     ecut=    80.00 Ry     beta= 0.20
     Davidson diagonalization with overlap
     ethr =  5.68E-06,  avg # of iterations =  4.6

     negative rho (up, down):  2.671E-07 0.000E+00

     total cpu time spent up to now is     1665.2 secs

     total energy              =   -1978.35715965 Ry
     estimated scf accuracy    <       0.00524058 Ry

     iteration #  7     ecut=    80.00 Ry     beta= 0.20
     Davidson diagonalization with overlap
     c_bands:  1 eigenvalues not converged
     ethr =  5.04E-06,  avg # of iterations =  5.1

     negative rho (up, down):  3.714E-08 0.000E+00

     total cpu time spent up to now is     1941.9 secs

     total energy              =   -1978.35647630 Ry
     estimated scf accuracy    <       0.01769852 Ry

     iteration #  8     ecut=    80.00 Ry     beta= 0.20
     Davidson diagonalization with overlap
     c_bands:  1 eigenvalues not converged
     ethr =  5.04E-06,  avg # of iterations =  3.6

     negative rho (up, down):  2.472E-07 0.000E+00

     total cpu time spent up to now is     2159.2 secs

     total energy              =   -1978.35630914 Ry
     estimated scf accuracy    <       0.00437655 Ry

     iteration #  9     ecut=    80.00 Ry     beta= 0.20
     Davidson diagonalization with overlap
     ethr =  4.21E-06,  avg # of iterations =  4.4

     negative rho (up, down):  7.799E-04 0.000E+00

     total cpu time spent up to now is     2393.7 secs

     total energy              =   -1978.35709049 Ry
     estimated scf accuracy    <       0.00351669 Ry

     iteration # 10     ecut=    80.00 Ry     beta= 0.20
     Davidson diagonalization with overlap
     ethr =  3.38E-06,  avg # of iterations =  2.0

     negative rho (up, down):  3.344E-03 0.000E+00

     total cpu time spent up to now is     2592.1 secs

     total energy              =   -1978.35693269 Ry
     estimated scf accuracy    <       0.00274514 Ry

     iteration # 11     ecut=    80.00 Ry     beta= 0.20
     Davidson diagonalization with overlap
     c_bands:  1 eigenvalues not converged
     ethr =  2.64E-06,  avg # of iterations =  3.5

     negative rho (up, down):  3.191E-03 0.000E+00

     total cpu time spent up to now is     2788.9 secs

     total energy              =   -1978.35695830 Ry
     estimated scf accuracy    <       0.00086558 Ry

     iteration # 12     ecut=    80.00 Ry     beta= 0.20
     Davidson diagonalization with overlap
     ethr =  8.32E-07,  avg # of iterations =  7.3

     negative rho (up, down):  1.010E-03 0.000E+00

     total cpu time spent up to now is     3023.1 secs

     total energy              =   -1978.35705184 Ry
     estimated scf accuracy    <       0.00048959 Ry

     iteration # 13     ecut=    80.00 Ry     beta= 0.20
     Davidson diagonalization with overlap
     ethr =  4.71E-07,  avg # of iterations =  2.5

     negative rho (up, down):  5.346E-03 0.000E+00

     total cpu time spent up to now is     3224.9 secs

     total energy              =   -1978.35704819 Ry
     estimated scf accuracy    <       0.00031282 Ry

     iteration # 14     ecut=    80.00 Ry     beta= 0.20
     Davidson diagonalization with overlap
     ethr =  3.01E-07,  avg # of iterations =  3.4

     negative rho (up, down):  4.337E-03 0.000E+00

     total cpu time spent up to now is     3441.0 secs

     total energy              =   -1978.35705783 Ry
     estimated scf accuracy    <       0.00053824 Ry

     iteration # 15     ecut=    80.00 Ry     beta= 0.20
     Davidson diagonalization with overlap
     ethr =  3.01E-07,  avg # of iterations =  2.0

     negative rho (up, down):  2.625E-03 0.000E+00

     total cpu time spent up to now is     3636.9 secs

     total energy              =   -1978.35699874 Ry
     estimated scf accuracy    <       0.00025269 Ry

     iteration # 16     ecut=    80.00 Ry     beta= 0.20
     Davidson diagonalization with overlap
     ethr =  2.43E-07,  avg # of iterations =  5.4

     negative rho (up, down):  3.422E-03 0.000E+00

     total cpu time spent up to now is     3885.4 secs

     total energy              =   -1978.35698355 Ry
     estimated scf accuracy    <       0.00078422 Ry

     iteration # 17     ecut=    80.00 Ry     beta= 0.20
     Davidson diagonalization with overlap
     ethr =  2.43E-07,  avg # of iterations =  3.0

     negative rho (up, down):  2.318E-03 0.000E+00

     total cpu time spent up to now is     4103.3 secs

     total energy              =   -1978.35705998 Ry
     estimated scf accuracy    <       0.00013797 Ry

     iteration # 18     ecut=    80.00 Ry     beta= 0.20
     Davidson diagonalization with overlap
     ethr =  1.33E-07,  avg # of iterations =  3.3

     negative rho (up, down):  2.187E-03 0.000E+00

     total cpu time spent up to now is     4309.1 secs

     total energy              =   -1978.35707221 Ry
     estimated scf accuracy    <       0.00008044 Ry

     iteration # 19     ecut=    80.00 Ry     beta= 0.20
     Davidson diagonalization with overlap
     ethr =  7.73E-08,  avg # of iterations =  2.5

     negative rho (up, down):  9.857E-04 0.000E+00

     total cpu time spent up to now is     4512.6 secs

     total energy              =   -1978.35706733 Ry
     estimated scf accuracy    <       0.00006066 Ry

     iteration # 20     ecut=    80.00 Ry     beta= 0.20
     Davidson diagonalization with overlap
     ethr =  5.83E-08,  avg # of iterations =  2.1

     negative rho (up, down):  9.348E-04 0.000E+00

     total cpu time spent up to now is     4714.7 secs

     total energy              =   -1978.35705916 Ry
     estimated scf accuracy    <       0.00003503 Ry

     iteration # 21     ecut=    80.00 Ry     beta= 0.20
     Davidson diagonalization with overlap
     c_bands:  1 eigenvalues not converged
     ethr =  3.37E-08,  avg # of iterations =  3.0

     negative rho (up, down):  5.929E-04 0.000E+00

     total cpu time spent up to now is     4920.0 secs

     total energy              =   -1978.35706878 Ry
     estimated scf accuracy    <       0.00002595 Ry

     iteration # 22     ecut=    80.00 Ry     beta= 0.20
     Davidson diagonalization with overlap
     ethr =  2.49E-08,  avg # of iterations =  2.8

     negative rho (up, down):  3.402E-04 0.000E+00

     total cpu time spent up to now is     5124.3 secs

     total energy              =   -1978.35707055 Ry
     estimated scf accuracy    <       0.00002111 Ry

     iteration # 23     ecut=    80.00 Ry     beta= 0.20
     Davidson diagonalization with overlap
     c_bands:  2 eigenvalues not converged
     ethr =  2.03E-08,  avg # of iterations =  3.0

     negative rho (up, down):  3.098E-04 0.000E+00

     total cpu time spent up to now is     5329.7 secs

     total energy              =   -1978.35707121 Ry
     estimated scf accuracy    <       0.00001808 Ry

     iteration # 24     ecut=    80.00 Ry     beta= 0.20
     Davidson diagonalization with overlap
     ethr =  1.74E-08,  avg # of iterations =  3.2

     negative rho (up, down):  3.000E-04 0.000E+00

     total cpu time spent up to now is     5532.5 secs

     total energy              =   -1978.35707108 Ry
     estimated scf accuracy    <       0.00002395 Ry

     iteration # 25     ecut=    80.00 Ry     beta= 0.20
     Davidson diagonalization with overlap
     ethr =  1.74E-08,  avg # of iterations =  2.2

     negative rho (up, down):  2.972E-04 0.000E+00

     total cpu time spent up to now is     5731.5 secs

     total energy              =   -1978.35707218 Ry
     estimated scf accuracy    <       0.00001553 Ry

     iteration # 26     ecut=    80.00 Ry     beta= 0.20
     Davidson diagonalization with overlap
     ethr =  1.49E-08,  avg # of iterations =  1.9

     negative rho (up, down):  2.871E-04 0.000E+00

     total cpu time spent up to now is     5928.9 secs

     total energy              =   -1978.35707218 Ry
     estimated scf accuracy    <       0.00001442 Ry

     iteration # 27     ecut=    80.00 Ry     beta= 0.20
     Davidson diagonalization with overlap
     ethr =  1.39E-08,  avg # of iterations =  1.1

     negative rho (up, down):  2.882E-04 0.000E+00

     total cpu time spent up to now is     6111.0 secs

     total energy              =   -1978.35707115 Ry
     estimated scf accuracy    <       0.00001365 Ry

     iteration # 28     ecut=    80.00 Ry     beta= 0.20
     Davidson diagonalization with overlap
     ethr =  1.31E-08,  avg # of iterations =  1.0

     negative rho (up, down):  3.011E-04 0.000E+00

     total cpu time spent up to now is     6290.7 secs

     total energy              =   -1978.35707127 Ry
     estimated scf accuracy    <       0.00001288 Ry

     iteration # 29     ecut=    80.00 Ry     beta= 0.20
     Davidson diagonalization with overlap
     ethr =  1.24E-08,  avg # of iterations =  1.0

     negative rho (up, down):  4.181E-04 0.000E+00

     total cpu time spent up to now is     6472.1 secs

     total energy              =   -1978.35706918 Ry
     estimated scf accuracy    <       0.00001272 Ry

     iteration # 30     ecut=    80.00 Ry     beta= 0.20
     Davidson diagonalization with overlap
     ethr =  1.22E-08,  avg # of iterations =  1.1

     negative rho (up, down):  5.134E-04 0.000E+00

     total cpu time spent up to now is     6654.1 secs

     total energy              =   -1978.35706803 Ry
     estimated scf accuracy    <       0.00001219 Ry

     iteration # 31     ecut=    80.00 Ry     beta= 0.20
     Davidson diagonalization with overlap
     ethr =  1.17E-08,  avg # of iterations =  1.0

     negative rho (up, down):  6.262E-04 0.000E+00

     total cpu time spent up to now is     6838.0 secs

     total energy              =   -1978.35706775 Ry
     estimated scf accuracy    <       0.00001191 Ry

     iteration # 32     ecut=    80.00 Ry     beta= 0.20
     Davidson diagonalization with overlap
     ethr =  1.15E-08,  avg # of iterations =  1.1

     negative rho (up, down):  5.812E-04 0.000E+00

     total cpu time spent up to now is     7018.6 secs

     total energy              =   -1978.35706846 Ry
     estimated scf accuracy    <       0.00001127 Ry

     iteration # 33     ecut=    80.00 Ry     beta= 0.20
     Davidson diagonalization with overlap
     ethr =  1.08E-08,  avg # of iterations =  1.1

     negative rho (up, down):  6.067E-04 0.000E+00

     total cpu time spent up to now is     7199.1 secs

     total energy              =   -1978.35706706 Ry
     estimated scf accuracy    <       0.00001101 Ry

     iteration # 34     ecut=    80.00 Ry     beta= 0.20
     Davidson diagonalization with overlap
     ethr =  1.06E-08,  avg # of iterations =  1.0

     negative rho (up, down):  5.599E-04 0.000E+00

     total cpu time spent up to now is     7380.3 secs

     total energy              =   -1978.35706483 Ry
     estimated scf accuracy    <       0.00001039 Ry

     iteration # 35     ecut=    80.00 Ry     beta= 0.20
     Davidson diagonalization with overlap
     ethr =  9.99E-09,  avg # of iterations =  1.2

     negative rho (up, down):  6.638E-04 0.000E+00

     total cpu time spent up to now is     7563.9 secs

     total energy              =   -1978.35706382 Ry
     estimated scf accuracy    <       0.00000935 Ry

     iteration # 36     ecut=    80.00 Ry     beta= 0.20
     Davidson diagonalization with overlap
     ethr =  8.99E-09,  avg # of iterations =  1.2

     negative rho (up, down):  5.221E-04 0.000E+00

     total cpu time spent up to now is     7747.7 secs

     total energy              =   -1978.35706175 Ry
     estimated scf accuracy    <       0.00000802 Ry

     iteration # 37     ecut=    80.00 Ry     beta= 0.20
     Davidson diagonalization with overlap
     ethr =  7.71E-09,  avg # of iterations =  1.7

     negative rho (up, down):  2.814E-04 0.000E+00

     total cpu time spent up to now is     7940.6 secs

     total energy              =   -1978.35706066 Ry
     estimated scf accuracy    <       0.00000678 Ry

     iteration # 38     ecut=    80.00 Ry     beta= 0.20
     Davidson diagonalization with overlap
     ethr =  6.52E-09,  avg # of iterations =  1.4

     negative rho (up, down):  1.563E-04 0.000E+00

     total cpu time spent up to now is     8128.0 secs

     total energy              =   -1978.35706307 Ry
     estimated scf accuracy    <       0.00000599 Ry

     iteration # 39     ecut=    80.00 Ry     beta= 0.20
     Davidson diagonalization with overlap
     ethr =  5.76E-09,  avg # of iterations =  1.2

     negative rho (up, down):  9.882E-05 0.000E+00

     total cpu time spent up to now is     8310.9 secs

     total energy              =   -1978.35706476 Ry
     estimated scf accuracy    <       0.00000538 Ry

     iteration # 40     ecut=    80.00 Ry     beta= 0.20
     Davidson diagonalization with overlap
     ethr =  5.17E-09,  avg # of iterations =  1.0

     negative rho (up, down):  1.350E-04 0.000E+00

     total cpu time spent up to now is     8492.1 secs

     total energy              =   -1978.35706397 Ry
     estimated scf accuracy    <       0.00000521 Ry

     iteration # 41     ecut=    80.00 Ry     beta= 0.20
     Davidson diagonalization with overlap
     ethr =  5.01E-09,  avg # of iterations =  1.0

     negative rho (up, down):  2.016E-04 0.000E+00

     total cpu time spent up to now is     8672.0 secs

     total energy              =   -1978.35706293 Ry
     estimated scf accuracy    <       0.00000502 Ry

     iteration # 42     ecut=    80.00 Ry     beta= 0.20
     Davidson diagonalization with overlap
     ethr =  4.83E-09,  avg # of iterations =  1.0

     negative rho (up, down):  1.695E-04 0.000E+00

     total cpu time spent up to now is     8852.3 secs

     total energy              =   -1978.35706284 Ry
     estimated scf accuracy    <       0.00000478 Ry

     iteration # 43     ecut=    80.00 Ry     beta= 0.20
     Davidson diagonalization with overlap
     ethr =  4.59E-09,  avg # of iterations =  1.1

     negative rho (up, down):  1.873E-04 0.000E+00

     total cpu time spent up to now is     9033.7 secs

     total energy              =   -1978.35706426 Ry
     estimated scf accuracy    <       0.00000437 Ry

     iteration # 44     ecut=    80.00 Ry     beta= 0.20
     Davidson diagonalization with overlap
     ethr =  4.20E-09,  avg # of iterations =  1.4

     negative rho (up, down):  1.902E-04 0.000E+00

     total cpu time spent up to now is     9222.7 secs

     total energy              =   -1978.35706319 Ry
     estimated scf accuracy    <       0.00000352 Ry

     iteration # 45     ecut=    80.00 Ry     beta= 0.20
     Davidson diagonalization with overlap
     ethr =  3.39E-09,  avg # of iterations =  1.1

     negative rho (up, down):  2.094E-04 0.000E+00

     total cpu time spent up to now is     9403.3 secs

     total energy              =   -1978.35706179 Ry
     estimated scf accuracy    <       0.00000343 Ry

     iteration # 46     ecut=    80.00 Ry     beta= 0.20
     Davidson diagonalization with overlap
     ethr =  3.30E-09,  avg # of iterations =  1.1

     negative rho (up, down):  3.901E-04 0.000E+00

     total cpu time spent up to now is     9584.9 secs

     total energy              =   -1978.35705923 Ry
     estimated scf accuracy    <       0.00000333 Ry

     iteration # 47     ecut=    80.00 Ry     beta= 0.20
     Davidson diagonalization with overlap
     ethr =  3.20E-09,  avg # of iterations =  1.1

     negative rho (up, down):  4.962E-04 0.000E+00

     total cpu time spent up to now is     9768.9 secs

     total energy              =   -1978.35705833 Ry
     estimated scf accuracy    <       0.00000280 Ry

     iteration # 48     ecut=    80.00 Ry     beta= 0.20
     Davidson diagonalization with overlap
     ethr =  2.69E-09,  avg # of iterations =  1.2

     negative rho (up, down):  4.223E-04 0.000E+00

     total cpu time spent up to now is     9951.9 secs

     total energy              =   -1978.35705886 Ry
     estimated scf accuracy    <       0.00000258 Ry

     iteration # 49     ecut=    80.00 Ry     beta= 0.20
     Davidson diagonalization with overlap
     ethr =  2.48E-09,  avg # of iterations =  1.0

     negative rho (up, down):  3.097E-04 0.000E+00

     total cpu time spent up to now is    10131.4 secs

     total energy              =   -1978.35705999 Ry
     estimated scf accuracy    <       0.00000248 Ry

     iteration # 50     ecut=    80.00 Ry     beta= 0.20
     Davidson diagonalization with overlap
     ethr =  2.38E-09,  avg # of iterations =  1.3

     negative rho (up, down):  1.581E-04 0.000E+00

     total cpu time spent up to now is    10318.4 secs

     total energy              =   -1978.35706358 Ry
     estimated scf accuracy    <       0.00000198 Ry

     iteration # 51     ecut=    80.00 Ry     beta= 0.20
     Davidson diagonalization with overlap
     ethr =  1.90E-09,  avg # of iterations =  1.6

     negative rho (up, down):  7.992E-05 0.000E+00

     total cpu time spent up to now is    10508.2 secs

     total energy              =   -1978.35706443 Ry
     estimated scf accuracy    <       0.00000158 Ry

     iteration # 52     ecut=    80.00 Ry     beta= 0.20
     Davidson diagonalization with overlap
     ethr =  1.52E-09,  avg # of iterations =  1.3

     negative rho (up, down):  4.911E-05 0.000E+00

     total cpu time spent up to now is    10694.7 secs

     total energy              =   -1978.35706506 Ry
     estimated scf accuracy    <       0.00000126 Ry

     iteration # 53     ecut=    80.00 Ry     beta= 0.20
     Davidson diagonalization with overlap
     ethr =  1.21E-09,  avg # of iterations =  1.2

     negative rho (up, down):  5.974E-05 0.000E+00

     total cpu time spent up to now is    10879.3 secs

     total energy              =   -1978.35706428 Ry
     estimated scf accuracy    <       0.00000103 Ry

     iteration # 54     ecut=    80.00 Ry     beta= 0.20
     Davidson diagonalization with overlap
     ethr =  9.89E-10,  avg # of iterations =  1.1

     negative rho (up, down):  7.328E-05 0.000E+00

     total cpu time spent up to now is    11061.6 secs

     total energy              =   -1978.35706363 Ry
     estimated scf accuracy    <       0.00000089 Ry

     iteration # 55     ecut=    80.00 Ry     beta= 0.20
     Davidson diagonalization with overlap
     ethr =  8.59E-10,  avg # of iterations =  1.1

     negative rho (up, down):  7.013E-05 0.000E+00

     total cpu time spent up to now is    11242.5 secs

     total energy              =   -1978.35706377 Ry
     estimated scf accuracy    <       0.00000081 Ry

     iteration # 56     ecut=    80.00 Ry     beta= 0.20
     Davidson diagonalization with overlap
     ethr =  7.78E-10,  avg # of iterations =  1.3

     negative rho (up, down):  8.176E-05 0.000E+00

     total cpu time spent up to now is    11429.9 secs

     total energy              =   -1978.35706337 Ry
     estimated scf accuracy    <       0.00000061 Ry

     iteration # 57     ecut=    80.00 Ry     beta= 0.20
     Davidson diagonalization with overlap
     ethr =  5.87E-10,  avg # of iterations =  1.0

     negative rho (up, down):  8.021E-05 0.000E+00

     total cpu time spent up to now is    11610.5 secs

     total energy              =   -1978.35706341 Ry
     estimated scf accuracy    <       0.00000060 Ry

     iteration # 58     ecut=    80.00 Ry     beta= 0.20
     Davidson diagonalization with overlap
     ethr =  5.73E-10,  avg # of iterations =  1.0

     negative rho (up, down):  9.535E-05 0.000E+00

     total cpu time spent up to now is    11790.3 secs

     total energy              =   -1978.35706292 Ry
     estimated scf accuracy    <       0.00000058 Ry

     iteration # 59     ecut=    80.00 Ry     beta= 0.20
     Davidson diagonalization with overlap
     ethr =  5.60E-10,  avg # of iterations =  1.1

     negative rho (up, down):  1.402E-04 0.000E+00

     total cpu time spent up to now is    11972.7 secs

     total energy              =   -1978.35706150 Ry
     estimated scf accuracy    <       0.00000052 Ry

     iteration # 60     ecut=    80.00 Ry     beta= 0.20
     Davidson diagonalization with overlap
     ethr =  5.03E-10,  avg # of iterations =  1.2

     negative rho (up, down):  1.414E-04 0.000E+00

     total cpu time spent up to now is    12157.2 secs

     total energy              =   -1978.35706143 Ry
     estimated scf accuracy    <       0.00000049 Ry

     iteration # 61     ecut=    80.00 Ry     beta= 0.20
     Davidson diagonalization with overlap
     ethr =  4.74E-10,  avg # of iterations =  1.0

     negative rho (up, down):  1.341E-04 0.000E+00

     total cpu time spent up to now is    12336.9 secs

     total energy              =   -1978.35706258 Ry
     estimated scf accuracy    <       0.00000047 Ry

     iteration # 62     ecut=    80.00 Ry     beta= 0.20
     Davidson diagonalization with overlap
     ethr =  4.52E-10,  avg # of iterations =  2.0

     negative rho (up, down):  1.344E-04 0.000E+00

     total cpu time spent up to now is    12534.9 secs

     total energy              =   -1978.35706266 Ry
     estimated scf accuracy    <       0.00000039 Ry

     iteration # 63     ecut=    80.00 Ry     beta= 0.20
     Davidson diagonalization with overlap
     ethr =  3.77E-10,  avg # of iterations =  1.1

     negative rho (up, down):  1.025E-04 0.000E+00

     total cpu time spent up to now is    12717.9 secs

     total energy              =   -1978.35706356 Ry
     estimated scf accuracy    <       0.00000030 Ry

     iteration # 64     ecut=    80.00 Ry     beta= 0.20
     Davidson diagonalization with overlap
     ethr =  2.85E-10,  avg # of iterations =  1.5

     negative rho (up, down):  1.103E-04 0.000E+00

     total cpu time spent up to now is    12907.6 secs

     total energy              =   -1978.35706277 Ry
     estimated scf accuracy    <       0.00000021 Ry

     iteration # 65     ecut=    80.00 Ry     beta= 0.20
     Davidson diagonalization with overlap
     ethr =  2.04E-10,  avg # of iterations =  1.4

     negative rho (up, down):  1.190E-04 0.000E+00

     total cpu time spent up to now is    13097.0 secs

     total energy              =   -1978.35706239 Ry
     estimated scf accuracy    <       0.00000015 Ry

     iteration # 66     ecut=    80.00 Ry     beta= 0.20
     Davidson diagonalization with overlap
     ethr =  1.43E-10,  avg # of iterations =  1.3

     negative rho (up, down):  1.343E-04 0.000E+00

     total cpu time spent up to now is    13284.3 secs

     total energy              =   -1978.35706202 Ry
     estimated scf accuracy    <       0.00000011 Ry

     iteration # 67     ecut=    80.00 Ry     beta= 0.20
     Davidson diagonalization with overlap
     ethr =  1.10E-10,  avg # of iterations =  2.1

     negative rho (up, down):  1.345E-04 0.000E+00

     total cpu time spent up to now is    13485.5 secs

     total energy              =   -1978.35706203 Ry
     estimated scf accuracy    <       0.00000006 Ry

     iteration # 68     ecut=    80.00 Ry     beta= 0.20
     Davidson diagonalization with overlap
     ethr =  5.31E-11,  avg # of iterations =  2.1

     negative rho (up, down):  1.240E-04 0.000E+00

     total cpu time spent up to now is    13688.0 secs

     total energy              =   -1978.35706233 Ry
     estimated scf accuracy    <       0.00000004 Ry

     iteration # 69     ecut=    80.00 Ry     beta= 0.20
     Davidson diagonalization with overlap
     ethr =  3.91E-11,  avg # of iterations =  1.8

     negative rho (up, down):  1.251E-04 0.000E+00

     total cpu time spent up to now is    13885.2 secs

     total energy              =   -1978.35706241 Ry
     estimated scf accuracy    <       0.00000002 Ry

     iteration # 70     ecut=    80.00 Ry     beta= 0.20
     Davidson diagonalization with overlap
     ethr =  2.21E-11,  avg # of iterations =  2.1

     negative rho (up, down):  1.365E-04 0.000E+00

     total cpu time spent up to now is    14087.1 secs

     total energy              =   -1978.35706226 Ry
     estimated scf accuracy    <       0.00000001 Ry

     iteration # 71     ecut=    80.00 Ry     beta= 0.20
     Davidson diagonalization with overlap
     ethr =  1.21E-11,  avg # of iterations =  2.0

     negative rho (up, down):  1.391E-04 0.000E+00

     total cpu time spent up to now is    14285.5 secs

     End of self-consistent calculation

          k = 0.0000 0.0000 0.0000 ( 35507 PWs)   bands (ev):

   -58.9002 -58.8656 -58.8514 -58.8018 -33.0742 -33.0393 -33.0260 -32.9762
   -32.8368 -32.8368 -32.8035 -32.8035 -32.7879 -32.7879 -32.7394 -32.7394
   -12.2435 -12.1454 -12.1405 -12.0475 -11.0088 -10.8538 -10.8508 -10.7165
    -4.0412  -3.7071  -3.6662  -3.3551  -0.6227  -0.6227  -0.6028  -0.5975
    -0.5975  -0.5763  -0.5763  -0.5349  -0.5349   0.0521   0.0927   0.4916
     0.4917   0.5214   0.5214   0.5379   0.5380   0.5835   0.5835   0.8214
     1.5999   1.8482   2.1320   2.4592   4.7234   4.7235   4.7753   4.7753
     4.7807   4.7808   4.8336   4.8336   4.9377   4.9377

          k = 0.0000 0.0722 0.0000 ( 35493 PWs)   bands (ev):

   -58.8987 -58.8640 -58.8498 -58.8002 -33.0712 -33.0363 -33.0230 -32.9731
   -32.8524 -32.8404 -32.8190 -32.8070 -32.8035 -32.7914 -32.7550 -32.7429
   -12.1838 -12.0861 -12.0811 -11.9884 -10.9812 -10.8289 -10.8256 -10.6933
    -3.9724  -3.6396  -3.5970  -3.2872  -0.7597  -0.7388  -0.7319  -0.7118
    -0.6689  -0.5604  -0.5350  -0.5140  -0.4724  -0.1994  -0.1944   0.1769
     0.3945   0.4248   0.4411   0.4872   0.5975   0.7056   0.7214   1.0620
     1.6016   1.8286   2.0974   2.3794   4.6486   4.6905   4.6956   4.7503
     4.7836   4.8081   4.8442   4.8612   4.8637   4.8919

          k = 0.0000 0.1443 0.0000 ( 35435 PWs)   bands (ev):

   -58.8942 -58.8596 -58.8454 -58.7958 -33.0625 -33.0276 -33.0143 -32.9645
   -32.8964 -32.8631 -32.8504 -32.8475 -32.8171 -32.8015 -32.7991 -32.7530
   -12.0099 -11.9133 -11.9080 -11.8162 -10.9007 -10.7564 -10.7520 -10.6260
    -3.7806  -3.4538  -3.4063  -3.1020  -1.1111  -1.0780  -1.0668  -1.0531
    -1.0095  -0.6537  -0.6311  -0.3813  -0.3549  -0.3383  -0.3349  -0.2923
     0.1432   0.1748   0.1907   0.2378   0.6578   0.8409   0.8837   1.2120
     1.5692   1.7389   1.9432   2.1222   4.3696   4.4318   4.4599   4.5178
     4.5607   4.5928   4.6655   4.6656   4.7204   4.7430

          k = 0.0000 0.2165 0.0000 ( 35345 PWs)   bands (ev):

   -58.8876 -58.8529 -58.8388 -58.7891 -33.0495 -33.0146 -33.0013 -32.9618
   -32.9515 -32.9286 -32.9129 -32.8654 -32.8645 -32.8321 -32.8165 -32.7680
   -11.7364 -11.6422 -11.6367 -11.5468 -10.7743 -10.6430 -10.6370 -10.5210
    -3.5208  -3.2130  -3.1589  -2.8755  -1.5478  -1.5005  -1.5004  -1.4691
    -1.3951  -1.1410  -1.0953  -0.8832  -0.1833  -0.1488  -0.1373  -0.1066
    -0.0871  -0.0800  -0.0570  -0.0158   0.5708   0.7945   0.8276   1.1303
     1.4196   1.5178   1.6214   1.7133   3.9900   4.1379   4.1796   4.4151
     4.4451   4.5287   4.5329   4.5727   4.6138   4.7635

          k = 0.0000 0.2887 0.0000 ( 35323 PWs)   bands (ev):

   -58.8797 -58.8451 -58.8309 -58.7813 -33.0381 -33.0342 -33.0049 -32.9992
   -32.9892 -32.9860 -32.9409 -32.9361 -32.8830 -32.8497 -32.8341 -32.7856
   -11.3890 -11.2994 -11.2936 -11.2073 -10.6148 -10.5008 -10.4929 -10.3901
    -3.3211  -3.0707  -3.0212  -2.8103  -1.9465  -1.8722  -1.8136  -1.8133
    -1.7111  -1.6323  -1.5384  -1.4223  -0.5114  -0.4766  -0.4623  -0.4127
     0.2167   0.2494   0.2661   0.3142   0.3555   0.5982   0.6134   0.8877
     1.1401   1.1986   1.2382   1.3037   3.8534   4.0700   4.1021   4.2570
     4.3386   4.3401   4.4137   4.4213   4.7922   4.8766

          k = 0.0000 0.3608 0.0000 ( 35299 PWs)   bands (ev):

   -58.8719 -58.8372 -58.8230 -58.7734 -33.1134 -33.0804 -33.0646 -33.0188
   -33.0164 -32.9838 -32.9706 -32.9207 -32.9005 -32.8672 -32.8516 -32.8032
   -11.0059 -10.9240 -10.9182 -10.8380 -10.4413 -10.3477 -10.3383 -10.2506
    -3.3581  -3.2041  -3.1764  -3.0613  -2.3110  -2.1879  -2.0997  -2.0217
    -1.9524  -1.8963  -1.8235  -1.7273  -0.7997  -0.7641  -0.7500  -0.6996
     0.1201   0.3605   0.3736   0.5358   0.5775   0.5909   0.6136   0.6458
     0.9196   0.9782   1.0095   1.0735   3.9676   4.1536   4.1926   4.2096
     4.2239   4.2256   4.3002   4.5066   5.1213   5.2426

          k = 0.0000 0.4330 0.0000 ( 35224 PWs)   bands (ev):

   -58.8652 -58.8305 -58.8164 -58.7667 -33.1767 -33.1437 -33.1279 -33.0797
   -33.0057 -32.9707 -32.9575 -32.9154 -32.9076 -32.8821 -32.8665 -32.8180
   -10.6420 -10.5714 -10.5659 -10.4948 -10.2798 -10.2077 -10.1979 -10.1250
    -3.5912  -3.4997  -3.4802  -3.4099  -2.6490  -2.5383  -2.4952  -2.4128
    -2.0647  -1.9474  -1.9389  -1.8087  -1.0205  -0.9842  -0.9703  -0.9194
    -0.0553   0.1720   0.1885   0.3985   0.7898   0.8444   0.8547   0.9187
     0.9394   1.0193   1.0451   1.1265   4.1479   4.2012   4.2069   4.2269
     4.2704   4.4133   4.4192   4.6466   5.4265   5.6310

          k = 0.0000 0.5052 0.0000 ( 35152 PWs)   bands (ev):

   -58.8607 -58.8261 -58.8119 -58.7623 -33.2186 -33.1857 -33.1698 -33.1217
   -32.9970 -32.9620 -32.9487 -32.9252 -32.8988 -32.8920 -32.8764 -32.8279
   -10.3698 -10.3117 -10.3071 -10.2466 -10.1617 -10.1080 -10.0997 -10.0377
    -3.8197  -3.7534  -3.7319  -3.6768  -2.8864  -2.8017  -2.7627  -2.6934
    -2.1678  -2.0458  -2.0455  -1.9213  -1.1582  -1.1215  -1.1077  -1.0566
    -0.1506   0.0646   0.0797   0.2677   0.9435   1.0103   1.0183   1.0905
     1.1278   1.2181   1.2291   1.3145   4.1966   4.2371   4.2471   4.3016
     4.5167   4.6412   4.6420   4.7816   5.6155   5.7917

          k = 0.0000-0.5774 0.0000 ( 35026 PWs)   bands (ev):

   -58.8591 -58.8245 -58.8103 -58.7607 -33.2332 -33.2003 -33.1844 -33.1363
   -32.9939 -32.9589 -32.9457 -32.9287 -32.8957 -32.8954 -32.8798 -32.8314
   -10.2662 -10.2144 -10.2106 -10.1561 -10.1172 -10.0717 -10.0650 -10.0066
    -3.9117  -3.8509  -3.8280  -3.7761  -2.9715  -2.8977  -2.8575  -2.7924
    -2.2159  -2.0950  -2.0942  -1.9736  -1.2049  -1.1681  -1.1543  -1.1031
    -0.1792   0.0306   0.0445   0.2237   0.9934   1.0650   1.0722   1.1478
     1.2440   1.3246   1.3262   1.4018   4.2251   4.2617   4.2737   4.3251
     4.6704   4.7487   4.7506   4.8284   5.6739   5.8336

          k = 0.0625 0.1083 0.0000 ( 35467 PWs)   bands (ev):

   -58.8957 -58.8610 -58.8469 -58.7972 -33.0653 -33.0304 -33.0171 -32.9673
   -32.8817 -32.8484 -32.8476 -32.8328 -32.8143 -32.7987 -32.7844 -32.7502
   -12.0670 -11.9700 -11.9649 -11.8727 -10.9271 -10.7802 -10.7761 -10.6480
    -3.8416  -3.5124  -3.4664  -3.1598  -1.0005  -0.9700  -0.9582  -0.9495
    -0.9052  -0.5136  -0.4981  -0.4416  -0.4158  -0.3952  -0.3534  -0.1735
     0.1796   0.2103   0.2259   0.2723   0.6944   0.8532   0.8938   1.2159
     1.5877   1.7741   2.0046   2.2106   4.4937   4.5198   4.5394   4.5538
     4.5640   4.6236   4.6395   4.7133   4.7359   4.8048

          k = 0.0625 0.1804 0.0000 ( 35370 PWs)   bands (ev):

   -58.8901 -58.8555 -58.8413 -58.7917 -33.0545 -33.0196 -33.0063 -32.9564
   -32.9352 -32.9020 -32.8863 -32.8613 -32.8379 -32.8280 -32.8124 -32.7639
   -11.8432 -11.7479 -11.7425 -11.6517 -10.8235 -10.6870 -10.6816 -10.5617
    -3.6117  -3.2937  -3.2415  -2.9463  -1.3846  -1.3481  -1.3407  -1.3043
    -1.2459  -0.9240  -0.8877  -0.6320  -0.2259  -0.1982  -0.1935  -0.1718
    -0.1552  -0.1479  -0.1269  -0.0931   0.7456   0.9312   0.9759   1.2560
     1.4997   1.6173   1.7655   1.8741   4.0997   4.2148   4.2466   4.4024
     4.4631   4.4916   4.5249   4.5808   4.6236   4.6866

          k = 0.0625 0.2526 0.0000 ( 35362 PWs)   bands (ev):

   -58.8829 -58.8482 -58.8341 -58.7844 -33.0404 -33.0054 -33.0044 -32.9921
   -32.9712 -32.9555 -32.9423 -32.9072 -32.8793 -32.8459 -32.8304 -32.7819
   -11.5321 -11.4404 -11.4346 -11.3466 -10.6799 -10.5586 -10.5515 -10.4431
    -3.3682  -3.0850  -3.0299  -2.7773  -1.7769  -1.7235  -1.7092  -1.6849
    -1.5753  -1.3797  -1.3176  -1.1553  -0.5639  -0.5294  -0.5119  -0.4608
     0.0422   0.0738   0.0897   0.1368   0.6433   0.8367   0.8627   1.1041
     1.2830   1.3410   1.4009   1.4634   3.8331   4.0227   4.0509   4.2547
     4.3782   4.4229   4.4392   4.4856   4.5940   4.6299

          k = 0.0625 0.3248 0.0000 ( 35310 PWs)   bands (ev):

   -58.8750 -58.8404 -58.8262 -58.7766 -33.0784 -33.0453 -33.0296 -33.0250
   -32.9900 -32.9813 -32.9768 -32.9269 -32.8986 -32.8653 -32.8497 -32.8013
   -11.1653 -11.0797 -11.0738 -10.9907 -10.5121 -10.4096 -10.4007 -10.3065
    -3.2791  -3.0797  -3.0421  -2.8873  -2.1148  -2.0210  -1.9004  -1.8669
    -1.8640  -1.8178  -1.6954  -1.6534  -0.8691  -0.8218  -0.8038  -0.7423
     0.2762   0.3169   0.3223   0.3753   0.4323   0.6149   0.6245   0.8384
     1.0500   1.0942   1.1174   1.1745   3.7933   4.0016   4.0135   4.1701
     4.3095   4.3531   4.3864   4.5039   4.8512   4.9413

          k = 0.0625 0.3969 0.0000 ( 35243 PWs)   bands (ev):

   -58.8677 -58.8331 -58.8189 -58.7693 -33.1461 -33.1131 -33.0972 -33.0490
   -33.0108 -32.9757 -32.9625 -32.9164 -32.9126 -32.8832 -32.8676 -32.8191
   -10.7886 -10.7126 -10.7068 -10.6314 -10.3422 -10.2608 -10.2509 -10.1717
    -3.4338  -3.3166  -3.2955  -3.2078  -2.4838  -2.3712  -2.3236  -2.2439
    -1.9928  -1.8853  -1.8720  -1.7401  -1.0683  -1.0156  -1.0006  -0.9382
     0.1675   0.3471   0.3722   0.4214   0.4646   0.4812   0.5059   0.5957
     1.0595   1.0995   1.1173   1.1710   3.9242   4.0905   4.0910   4.2011
     4.3534   4.4116   4.4314   4.5920   5.1883   5.3877

          k = 0.0625 0.4691 0.0000 ( 35169 PWs)   bands (ev):

   -58.8622 -58.8275 -58.8133 -58.7637 -33.1974 -33.1644 -33.1486 -33.1004
   -32.9998 -32.9648 -32.9516 -32.9300 -32.9016 -32.8968 -32.8812 -32.8327
   -10.4653 -10.4018 -10.3967 -10.3316 -10.1992 -10.1383 -10.1290 -10.0630
    -3.6716  -3.5952  -3.5750  -3.5140  -2.8001  -2.7142  -2.6802  -2.6120
    -2.0954  -1.9733  -1.9689  -1.8434  -1.1759  -1.1285  -1.1197  -1.0615
    -0.0243   0.1625   0.1766   0.3420   0.5446   0.6043   0.6083   0.6829
     1.2330   1.2802   1.2939   1.3539   4.1144   4.2062   4.2063   4.2788
     4.4895   4.5728   4.5821   4.7225   5.4995   5.6616

          k = 0.0625 0.5413 0.0000 ( 35128 PWs)   bands (ev):

   -58.8592 -58.8245 -58.8103 -58.7607 -33.2250 -33.1921 -33.1762 -33.1281
   -32.9939 -32.9589 -32.9457 -32.9374 -32.9041 -32.8957 -32.8885 -32.8401
   -10.2720 -10.2191 -10.2150 -10.1597 -10.1149 -10.0684 -10.0611 -10.0024
    -3.8316  -3.7700  -3.7469  -3.6943  -2.9787  -2.9098  -2.8752  -2.8126
    -2.1847  -2.0626  -2.0587  -1.9394  -1.2191  -1.1793  -1.1744  -1.1200
    -0.1293   0.0612   0.0720   0.2353   0.6347   0.7062   0.7069   0.7811
     1.3869   1.4455   1.4538   1.5198   4.2251   4.2650   4.2696   4.3220
     4.6651   4.7470   4.7505   4.8394   5.7208   5.8419

          k = 0.1250 0.2165 0.0000 ( 35331 PWs)   bands (ev):

   -58.8840 -58.8493 -58.8352 -58.7855 -33.0425 -33.0076 -32.9943 -32.9904
   -32.9572 -32.9444 -32.9415 -32.8932 -32.8801 -32.8468 -32.8312 -32.7828
   -11.5813 -11.4888 -11.4831 -11.3946 -10.7022 -10.5784 -10.5715 -10.4612
    -3.3874  -3.0931  -3.0367  -2.7696  -1.7052  -1.6641  -1.6573  -1.6175
    -1.4796  -1.2176  -1.1623  -0.9682  -0.7024  -0.6728  -0.6493  -0.6018
    -0.0372  -0.0060   0.0089   0.0558   0.8285   0.9940   1.0316   1.2346
     1.3500   1.3985   1.4769   1.5325   3.8208   3.9986   4.0211   4.2151
     4.3736   4.4039   4.4495   4.4568   4.4764   4.5208

          k = 0.1250 0.2887 0.0000 ( 35357 PWs)   bands (ev):

   -58.8767 -58.8421 -58.8279 -58.7783 -33.0537 -33.0283 -33.0206 -33.0049
   -32.9934 -32.9801 -32.9566 -32.9302 -32.9034 -32.8701 -32.8545 -32.8061
   -11.2492 -11.1618 -11.1559 -11.0714 -10.5487 -10.4415 -10.4330 -10.3353
    -3.2306  -2.9979  -2.9525  -2.7634  -1.9576  -1.9006  -1.8274  -1.8078
    -1.7046  -1.6213  -1.5372  -1.4718  -1.1327  -1.0669  -1.0350  -0.9238
     0.0657   0.1062   0.1135   0.1672   0.7553   0.8995   0.9149   1.0738
     1.1569   1.1803   1.1974   1.2486   3.6592   3.8758   3.8893   4.0903
     4.3688   4.4129   4.4217   4.4788   4.6040   4.6383

          k = 0.1250 0.3608 0.0000 ( 35341 PWs)   bands (ev):

   -58.8695 -58.8348 -58.8206 -58.7710 -33.1159 -33.0829 -33.0671 -33.0189
   -33.0141 -32.9791 -32.9659 -32.9271 -32.9160 -32.8938 -32.8782 -32.8298
   -10.8846 -10.8054 -10.7995 -10.7215 -10.3812 -10.2936 -10.2838 -10.2002
    -3.2780  -3.1297  -3.1049  -2.9938  -2.2837  -2.1927  -2.1437  -2.0916
    -1.8994  -1.8054  -1.8036  -1.6764  -1.3278  -1.2181  -1.1754  -1.0558
     0.0077   0.0587   0.0601   0.1193   0.5343   0.6579   0.6651   0.7966
     1.1120   1.1491   1.1593   1.2118   3.6939   3.9322   3.9364   4.1578
     4.4395   4.4824   4.4928   4.5782   4.8446   4.9388

          k = 0.1250 0.4330 0.0000 ( 35215 PWs)   bands (ev):

   -58.8633 -58.8286 -58.8145 -58.7648 -33.1681 -33.1351 -33.1192 -33.0711
   -33.0020 -32.9670 -32.9538 -32.9473 -32.9140 -32.9038 -32.8984 -32.8500
   -10.5408 -10.4729 -10.4674 -10.3988 -10.2247 -10.1577 -10.1477 -10.0779
    -3.4587  -3.3627  -3.3437  -3.2700  -2.6963  -2.6310  -2.6062  -2.5509
    -1.9706  -1.8564  -1.8325  -1.7220  -1.3578  -1.2449  -1.2180  -1.1123
    -0.0469   0.0243   0.0288   0.1005   0.2588   0.3772   0.3819   0.5042
     1.2509   1.2889   1.3009   1.3537   3.9001   4.1209   4.1226   4.3269
     4.5477   4.5833   4.6054   4.6675   5.1528   5.3160

          k = 0.1250 0.5052 0.0000 ( 35141 PWs)   bands (ev):

   -58.8592 -58.8245 -58.8103 -58.7607 -33.2026 -33.1697 -33.1538 -33.1057
   -32.9939 -32.9608 -32.9589 -32.9457 -32.9275 -32.9119 -32.8957 -32.8635
   -10.2857 -10.2301 -10.2255 -10.1683 -10.1092 -10.0604 -10.0520  -9.9923
    -3.6219  -3.5537  -3.5308  -3.4745  -2.9917  -2.9387  -2.9151  -2.8595
    -2.0893  -1.9647  -1.9521  -1.8410  -1.3099  -1.2181  -1.2106  -1.1303
    -0.0507   0.0352   0.0792   0.0868   0.1318   0.1564   0.1784   0.2927
     1.4378   1.4856   1.4974   1.5569   4.1186   4.2320   4.2359   4.3309
     4.6983   4.7694   4.7740   4.8685   5.4259   5.5403

          k = 0.1250 0.5774 0.0000 ( 35180 PWs)   bands (ev):

   -58.8577 -58.8230 -58.8089 -58.7592 -33.2147 -33.1818 -33.1659 -33.1178
   -32.9911 -32.9655 -32.9561 -32.9428 -32.9323 -32.9166 -32.8929 -32.8682
   -10.1892 -10.1395 -10.1360 -10.0874 -10.0635 -10.0248 -10.0179  -9.9616
    -3.6852  -3.6268  -3.6007  -3.5496  -3.0970  -3.0473  -3.0234  -2.9674
    -2.1494  -2.0236  -2.0147  -1.9021  -1.2632  -1.2037  -1.1980  -1.1360
    -0.1070   0.0257   0.0605   0.0682   0.1079   0.1106   0.1625   0.2371
     1.5302   1.5863   1.5970   1.6622   4.1925   4.2334   4.2360   4.2905
     4.8096   4.8958   4.8964   4.9691   5.5379   5.6549

          k = 0.1875 0.3248 0.0000 ( 35337 PWs)   bands (ev):

   -58.8701 -58.8354 -58.8212 -58.7716 -33.1024 -33.0693 -33.0535 -33.0153
   -33.0053 -32.9803 -32.9670 -32.9339 -32.9171 -32.9006 -32.8850 -32.8366
   -10.9180 -10.8377 -10.8317 -10.7528 -10.3945 -10.3047 -10.2949 -10.2098
    -3.2118  -3.0476  -3.0207  -2.8969  -2.1551  -2.0857  -2.0401  -2.0208
    -1.8538  -1.7722  -1.7637  -1.6814  -1.4691  -1.3479  -1.2739  -1.1256
    -0.1663  -0.1154  -0.1148  -0.0545   0.6987   0.7949   0.8063   0.9065
     1.1179   1.1594   1.1681   1.2239   3.6060   3.8693   3.8703   4.1315
     4.4632   4.5019   4.5091   4.5601   4.6991   4.9211

          k = 0.1875 0.3969 0.0000 ( 35241 PWs)   bands (ev):

   -58.8639 -58.8292 -58.8151 -58.7654 -33.1443 -33.1113 -33.0955 -33.0472
   -33.0032 -32.9682 -32.9647 -32.9550 -32.9314 -32.9158 -32.9050 -32.8674
   -10.5822 -10.5120 -10.5062 -10.4357 -10.2374 -10.1668 -10.1565 -10.0845
    -3.2977  -3.1808  -3.1627  -3.0740  -2.6033  -2.5701  -2.5501  -2.5078
    -1.8349  -1.7567  -1.6769  -1.6371  -1.4669  -1.3613  -1.2855  -1.1513
    -0.4845  -0.4234  -0.4225  -0.3562   0.4699   0.5383   0.5560   0.6272
     1.2209   1.2636   1.2767   1.3346   3.7593   4.0367   4.0523   4.3600
     4.5746   4.6106   4.6158   4.6689   4.8798   4.9822

          k = 0.1875 0.4691 0.0000 ( 35167 PWs)   bands (ev):

   -58.8592 -58.8245 -58.8103 -58.7607 -33.1748 -33.1418 -33.1259 -33.0778
   -32.9940 -32.9896 -32.9589 -32.9564 -32.9457 -32.9407 -32.8958 -32.8924
   -10.2990 -10.2409 -10.2359 -10.1768 -10.1036 -10.0524 -10.0430  -9.9821
    -3.3838  -3.2970  -3.2761  -3.2093  -3.0001  -2.9651  -2.9518  -2.9026
    -1.9195  -1.7954  -1.7683  -1.6975  -1.4088  -1.2693  -1.2441  -1.1186
    -0.6690  -0.5751  -0.5709  -0.4743   0.1694   0.2553   0.2635   0.3408
     1.4218   1.4607   1.4750   1.5286   3.9764   4.1602   4.1679   4.3294
     4.7396   4.8043   4.8096   4.9034   5.0875   5.2053

          k = 0.1875 0.5413 0.0000 ( 35162 PWs)   bands (ev):

   -58.8566 -58.8219 -58.8078 -58.7581 -33.1907 -33.1578 -33.1419 -33.0938
   -33.0035 -32.9889 -32.9703 -32.9547 -32.9539 -32.9407 -32.9063 -32.8907
   -10.1321 -10.0837 -10.0802 -10.0395 -10.0170  -9.9865  -9.9787  -9.9245
    -3.4213  -3.3614  -3.3284  -3.2767  -3.2164  -3.1779  -3.1691  -3.1138
    -2.0626  -1.9307  -1.9196  -1.8195  -1.2811  -1.1770  -1.1687  -1.0832
    -0.7131  -0.5937  -0.5896  -0.4852  -0.0389   0.0527   0.0531   0.1399
     1.6061   1.6524   1.6652   1.7246   4.0451   4.1035   4.1087   4.1732
     4.9270   5.0237   5.0681   5.1463   5.1985   5.3030

          k = 0.2500 0.4330 0.0000 ( 35195 PWs)   bands (ev):

   -58.8592 -58.8245 -58.8103 -58.7607 -33.1602 -33.1273 -33.1114 -33.0633
   -33.0045 -32.9940 -32.9713 -32.9589 -32.9557 -32.9457 -32.9073 -32.8958
   -10.3044 -10.2453 -10.2401 -10.1802 -10.1012 -10.0490 -10.0393  -9.9779
    -3.2752  -3.1741  -3.1551  -3.0852  -3.0010  -2.9702  -2.9662  -2.9202
    -1.7380  -1.6913  -1.6079  -1.5990  -1.3995  -1.2931  -1.2349  -1.1023
    -0.9843  -0.9349  -0.9291  -0.8760   0.2390   0.2914   0.3140   0.3761
     1.4051   1.4430   1.4591   1.5120   3.9163   4.1211   4.1375   4.3206
     4.7503   4.8063   4.8278   4.9103   4.9590   5.1009

          k = 0.2500 0.5052 0.0000 ( 35193 PWs)   bands (ev):

   -58.8560 -58.8213 -58.8072 -58.7575 -33.1650 -33.1320 -33.1162 -33.0680
   -33.0371 -33.0039 -32.9882 -32.9878 -32.9527 -32.9399 -32.9395 -32.8896
   -10.1040 -10.0557 -10.0520 -10.0151  -9.9905  -9.9639  -9.9549  -9.9021
    -3.3084  -3.2767  -3.2585  -3.2200  -3.1562  -3.0786  -3.0681  -2.9984
    -1.8919  -1.7641  -1.7531  -1.7059  -1.3432  -1.2775  -1.2050  -1.1954
    -1.1487  -1.1371  -1.0560  -0.9865  -0.0382   0.0306   0.0418   0.1151
     1.6458   1.6832   1.6979   1.7501   3.9130   3.9899   3.9933   4.0726
     4.8947   4.9658   4.9886   5.0614   5.1790   5.2577

          k = 0.2500 0.5774 0.0000 ( 35190 PWs)   bands (ev):

   -58.8549 -58.8202 -58.8061 -58.7564 -33.1648 -33.1319 -33.1160 -33.0679
   -33.0503 -33.0172 -33.0015 -32.9856 -32.9532 -32.9506 -32.9374 -32.8874
   -10.0291  -9.9871  -9.9837  -9.9709  -9.9406  -9.9326  -9.9192  -9.8743
    -3.4079  -3.3775  -3.3625  -3.3195  -3.0718  -3.0210  -2.9981  -2.9483
    -2.0466  -1.9208  -1.9160  -1.8328  -1.3808  -1.2754  -1.2263  -1.1792
    -1.1030  -1.0432  -1.0093  -0.9529  -0.1584  -0.0975  -0.0939  -0.0214
     1.7725   1.8134   1.8267   1.8821   3.8404   3.8752   3.8861   3.9357
     4.9211   4.9833   5.0254   5.0669   5.3377   5.3785

          k = 0.3125 0.5413 0.0000 ( 35172 PWs)   bands (ev):

   -58.8543 -58.8196 -58.8055 -58.7558 -33.1438 -33.1108 -33.0949 -33.0788
   -33.0468 -33.0456 -33.0299 -32.9844 -32.9816 -32.9494 -32.9362 -32.8862
    -9.9926  -9.9559  -9.9501  -9.9455  -9.9168  -9.9127  -9.8933  -9.8554
    -3.4758  -3.4450  -3.4341  -3.3879  -2.8479  -2.7827  -2.7609  -2.7044
    -2.0383  -2.0268  -1.9766  -1.9600  -1.5582  -1.5297  -1.5104  -1.4997
    -1.0532  -0.9697  -0.9653  -0.8956  -0.2464  -0.1725  -0.1721  -0.0917
     1.8545   1.8918   1.9052   1.9574   3.7244   3.7579   3.7713   3.8201
     4.8580   4.8894   4.9482   4.9770   5.4327   5.5045

     the Fermi energy is     2.9693 ev

!    total energy              =   -1978.35706208 Ry
     total all-electron energy =    -38771.677907 Ry
     estimated scf accuracy    <          6.2E-09 Ry
     smearing contrib. (-TS)   =       0.00003295 Ry
     internal energy E=F+TS    =   -1978.35709503 Ry

     The total energy is F=E-TS. E is the sum of the following terms:
     one-electron contribution =  -10154.48415562 Ry
     hartree contribution      =    5098.85833618 Ry
     xc contribution           =    -119.22527258 Ry
     ewald contribution        =    4466.34690233 Ry
     one-center paw contrib.   =   -1269.85290534 Ry

     convergence has been achieved in  71 iterations

     Writing all to output data dir ./tmp/cleave2/cleave_dz027_dz7p5/mos2_cleave.save/ :
     XML data file, charge density, pseudopotentials, collected wavefunctions

     init_run     :    121.86s CPU    124.00s WALL (       1 calls)
     electrons    :  13921.46s CPU  14161.40s WALL (       1 calls)

     Called by init_run:
     wfcinit      :     74.32s CPU     75.00s WALL (       1 calls)
     potinit      :     43.93s CPU     44.35s WALL (       1 calls)
     hinit0       :      0.36s CPU      0.39s WALL (       1 calls)

     Called by electrons:
     c_bands      :  11516.41s CPU  11586.82s WALL (      72 calls)
     sum_band     :   1830.52s CPU   1908.97s WALL (      72 calls)
     v_of_rho     :    273.05s CPU    296.41s WALL (      72 calls)
     newd         :    219.40s CPU    286.95s WALL (      72 calls)
     PAW_pot      :     28.79s CPU     28.80s WALL (      72 calls)
     mix_rho      :     97.44s CPU     98.95s WALL (      72 calls)
     vdW_kernel   :     40.26s CPU     40.27s WALL (       1 calls)

     Called by c_bands:
     init_us_2    :     54.13s CPU     54.18s WALL (    4350 calls)
     init_us_2:cp :     54.12s CPU     54.17s WALL (    4350 calls)
     cegterg      :  10990.22s CPU  11060.04s WALL (    2160 calls)

     Called by *egterg:
     cdiaghg      :     15.81s CPU     15.83s WALL (    6414 calls)
     h_psi        :   5910.90s CPU   5937.86s WALL (    6474 calls)
     s_psi        :   1734.35s CPU   1734.83s WALL (    6474 calls)
     g_psi        :     24.84s CPU     24.85s WALL (    4284 calls)

     Called by h_psi:
     h_psi:calbec :   2252.30s CPU   2252.85s WALL (    6474 calls)
     vloc_psi     :   1912.00s CPU   1913.37s WALL (    6474 calls)
     add_vuspsi   :   1734.71s CPU   1735.21s WALL (    6474 calls)

     General routines
     calbec       :   3306.67s CPU   3307.54s WALL (    8634 calls)
     fft          :     88.92s CPU     88.95s WALL (    4535 calls)
     ffts         :     47.82s CPU     47.84s WALL (    8754 calls)
     fftw         :   1745.45s CPU   1746.37s WALL (  704972 calls)
     interpolate  :      2.10s CPU      2.10s WALL (      72 calls)

     Parallel routines

     PWSCF        :      3h54m CPU      3h58m WALL


   This run was terminated on:   3:57:34  14Jun2026            

=------------------------------------------------------------------------------=
   JOB DONE.
=------------------------------------------------------------------------------=
Note: The following floating-point exceptions are signalling: IEEE_UNDERFLOW_FLAG IEEE_DENORMAL
