Authorization required, but no authorization protocol specified

Authorization required, but no authorization protocol specified

Authorization required, but no authorization protocol specified

Authorization required, but no authorization protocol specified

Authorization required, but no authorization protocol specified

Authorization required, but no authorization protocol specified

Authorization required, but no authorization protocol specified

Authorization required, but no authorization protocol specified


     Program PWSCF v.7.3 starts on 11Jun2026 at 13:22:37 

     This program is part of the open-source Quantum ESPRESSO suite
     for quantum simulation of materials; please cite
         "P. Giannozzi et al., J. Phys.:Condens. Matter 21 395502 (2009);
         "P. Giannozzi et al., J. Phys.:Condens. Matter 29 465901 (2017);
         "P. Giannozzi et al., J. Chem. Phys. 152 154105 (2020);
          URL http://www.quantum-espresso.org", 
     in publications or presentations arising from this work. More details at
     http://www.quantum-espresso.org/quote

     Parallel version (MPI), running on     1 processors

     MPI processes distributed on     1 nodes
     47179 MiB available memory on the printing compute node when the environment starts

     Waiting for input...
     Reading input from standard input

     Current dimensions of program PWSCF are:
     Max number of different atomic species (ntypx) = 10
     Max number of k-points (npk) =  40000
     Max angular momentum in pseudopotentials (lmaxx) =  4
     file Mo.pbe-spn-kjpaw_psl.1.0.0.UPF: wavefunction(s)  4S 4D renormalized
     file S.pbe-n-kjpaw_psl.1.0.0.UPF: wavefunction(s)  3S 3P renormalized

     IMPORTANT: XC functional enforced from input :
     Exchange-correlation= VDW-DF2-B86R
                           (   1   4  26   0   2   0   0)
     Any further DFT definition will be discarded
     Please, verify this is what you really want


     Subspace diagonalization in iterative solution of the eigenvalue problem:
     a serial algorithm will be used


     G-vector sticks info
     --------------------
     sticks:   dense  smooth     PW     G-vecs:    dense   smooth      PW
     Sum        1573     769    223               797393   281171   43435

     Using Slab Decomposition



     bravais-lattice index     =            4
     lattice parameter (alat)  =       5.9715  a.u.
     unit-cell volume          =    2917.9067 (a.u.)^3
     number of atoms/cell      =           12
     number of atomic types    =            2
     number of electrons       =       104.00
     number of Kohn-Sham states=           62
     kinetic-energy cutoff     =      80.0000  Ry
     charge density cutoff     =     640.0000  Ry
     scf convergence threshold =      1.0E-08
     mixing beta               =       0.2000
     number of iterations used =            8  local-TF  mixing
     Exchange-correlation= VDW-DF2-B86R
                           (   1   4  26   0   2   0   0)

     celldm(1)=   5.971535  celldm(2)=   0.000000  celldm(3)=  15.822785
     celldm(4)=   0.000000  celldm(5)=   0.000000  celldm(6)=   0.000000

     crystal axes: (cart. coord. in units of alat)
               a(1) = (   1.000000   0.000000   0.000000 )  
               a(2) = (  -0.500000   0.866025   0.000000 )  
               a(3) = (   0.000000   0.000000  15.822785 )  

     reciprocal axes: (cart. coord. in units 2 pi/alat)
               b(1) = (  1.000000  0.577350 -0.000000 )  
               b(2) = (  0.000000  1.154701  0.000000 )  
               b(3) = (  0.000000 -0.000000  0.063200 )  


     PseudoPot. # 1 for Mo read from file:
     ./pseudo/Mo.pbe-spn-kjpaw_psl.1.0.0.UPF
     MD5 check sum: 4396e0c640fcce5c25f020efccf1ab12
     Pseudo is Projector augmented-wave + core cor, Zval = 14.0
     Generated using &quot;atomic&quot; code by A. Dal Corso  v.6.3
     Shape of augmentation charge: PSQ
     Using radial grid of 1229 points,  6 beta functions with: 
                l(1) =   0
                l(2) =   0
                l(3) =   1
                l(4) =   1
                l(5) =   2
                l(6) =   2
     Q(r) pseudized with 0 coefficients 


     PseudoPot. # 2 for S  read from file:
     ./pseudo/S.pbe-n-kjpaw_psl.1.0.0.UPF
     MD5 check sum: fb45dfebcf3e72a4e1bd4a866ec2e262
     Pseudo is Projector augmented-wave + core cor, Zval =  6.0
     Generated using &quot;atomic&quot; code by A. Dal Corso  v.6.3
     Shape of augmentation charge: PSQ
     Using radial grid of 1151 points,  6 beta functions with: 
                l(1) =   0
                l(2) =   0
                l(3) =   1
                l(4) =   1
                l(5) =   2
                l(6) =   2
     Q(r) pseudized with 0 coefficients 


     atomic species   valence    mass     pseudopotential
     Mo               14.00    95.96000     Mo( 1.00)
     S                 6.00    32.06000     S ( 1.00)

      6 Sym. Ops. (no inversion) found



   Cartesian axes

     site n.     atom                  positions (alat units)
         1        S      tau(   1) = (  -0.0000005   0.5773503  -0.9967195  )
         2        Mo     tau(   2) = (   0.0000000   0.0000000  -0.4993332  )
         3        S      tau(   3) = (  -0.0000005   0.5773503  -0.0017175  )
         4        S      tau(   4) = (   0.5000003   0.2886747   0.9835827  )
         5        Mo     tau(   5) = (  -0.0000005   0.5773503   1.4818950  )
         6        S      tau(   6) = (   0.5000003   0.2886747   1.9798512  )
         7        S      tau(   7) = (   0.0000000   0.0000000   2.9586848  )
         8        Mo     tau(   8) = (   0.5000003   0.2886747   3.4569999  )
         9        S      tau(   9) = (   0.0000000   0.0000000   3.9548385  )
        10        S      tau(  10) = (  -0.0000005   0.5773503   5.6802553  )
        11        Mo     tau(  11) = (   0.0000000   0.0000000   6.1778919  )
        12        S      tau(  12) = (  -0.0000005   0.5773503   6.6750260  )

     number of k points=    30  Methfessel-Paxton smearing, width (Ry)=  0.0200
                       cart. coord. in units 2pi/alat
        k(    1) = (   0.0000000   0.0000000   0.0000000), wk =   0.0078125
        k(    2) = (   0.0000000   0.0721688   0.0000000), wk =   0.0468750
        k(    3) = (   0.0000000   0.1443376   0.0000000), wk =   0.0468750
        k(    4) = (   0.0000000   0.2165064   0.0000000), wk =   0.0468750
        k(    5) = (   0.0000000   0.2886751   0.0000000), wk =   0.0468750
        k(    6) = (   0.0000000   0.3608439   0.0000000), wk =   0.0468750
        k(    7) = (   0.0000000   0.4330127   0.0000000), wk =   0.0468750
        k(    8) = (   0.0000000   0.5051815   0.0000000), wk =   0.0468750
        k(    9) = (   0.0000000  -0.5773503   0.0000000), wk =   0.0234375
        k(   10) = (   0.0625000   0.1082532   0.0000000), wk =   0.0468750
        k(   11) = (   0.0625000   0.1804220   0.0000000), wk =   0.0937500
        k(   12) = (   0.0625000   0.2525907   0.0000000), wk =   0.0937500
        k(   13) = (   0.0625000   0.3247595   0.0000000), wk =   0.0937500
        k(   14) = (   0.0625000   0.3969283   0.0000000), wk =   0.0937500
        k(   15) = (   0.0625000   0.4690971   0.0000000), wk =   0.0937500
        k(   16) = (   0.0625000   0.5412659   0.0000000), wk =   0.0937500
        k(   17) = (   0.1250000   0.2165064   0.0000000), wk =   0.0468750
        k(   18) = (   0.1250000   0.2886751   0.0000000), wk =   0.0937500
        k(   19) = (   0.1250000   0.3608439   0.0000000), wk =   0.0937500
        k(   20) = (   0.1250000   0.4330127   0.0000000), wk =   0.0937500
        k(   21) = (   0.1250000   0.5051815   0.0000000), wk =   0.0937500
        k(   22) = (   0.1250000   0.5773503   0.0000000), wk =   0.0468750
        k(   23) = (   0.1875000   0.3247595   0.0000000), wk =   0.0468750
        k(   24) = (   0.1875000   0.3969283   0.0000000), wk =   0.0937500
        k(   25) = (   0.1875000   0.4690971   0.0000000), wk =   0.0937500
        k(   26) = (   0.1875000   0.5412659   0.0000000), wk =   0.0937500
        k(   27) = (   0.2500000   0.4330127   0.0000000), wk =   0.0468750
        k(   28) = (   0.2500000   0.5051815   0.0000000), wk =   0.0937500
        k(   29) = (   0.2500000   0.5773503   0.0000000), wk =   0.0468750
        k(   30) = (   0.3125000   0.5412659   0.0000000), wk =   0.0468750

     Dense  grid:   797393 G-vectors     FFT dimensions: (  50,  50, 768)

     Smooth grid:   281171 G-vectors     FFT dimensions: (  36,  36, 540)

     Estimated max dynamical RAM per process >       3.90 GB

     Initial potential from superposition of free atoms

     starting charge     103.9962, renormalised to     104.0000

     negative rho (up, down):  1.387E-04 0.000E+00


     %%%%%%%%%%%%%%%%%%%%%%%%%%%%%%%%%%%%%%%%%%%%%%%%%%%%%%%%%%%%%%%%%%%%%%%%
     %                                                                      %
     % You are using vdW-DF, which was implemented by the Thonhauser group. %
     % Please cite the following two papers that made this development      %
     % possible and the two reviews that describe the various versions:     %
     %                                                                      %
     %   T. Thonhauser et al., PRL 115, 136402 (2015).                      %
     %   T. Thonhauser et al., PRB 76, 125112 (2007).                       %
     %   K. Berland et al., Rep. Prog. Phys. 78, 066501 (2015).             %
     %   D.C. Langreth et al., J. Phys.: Condens. Matter 21, 084203 (2009). %
     %                                                                      %
     % If you are calculating stress with vdW-DF, please also cite:         %
     %                                                                      %
     %   R. Sabatini et al., J. Phys.: Condens. Matter 24, 424209 (2012).   %
     %                                                                      %
     %%%%%%%%%%%%%%%%%%%%%%%%%%%%%%%%%%%%%%%%%%%%%%%%%%%%%%%%%%%%%%%%%%%%%%%%

     %%%%%%%%%%%%%%%%%%%%%%%%%%%%%%%%%%%%%%%%%%%%%%%%%%%%%%%%%%%%%%%%%%%%%%%%
     %                                                                      %
     %  vdW-DF NEWS:                                                        %
     %                                                                      %
     %  * vdW-DF3 is now available. DOI: 10.1021/acs.jctc.0c00471           %
     %    use with input_dft = 'vdW-DF3-opt1' or 'vdW-DF3-opt2'             %
     %                                                                      %
     %  * Unscreened and range-separated hybrid vdW-DF-cx functionals       %
     %    DOI: 10.1063/1.4986522 and 10.1088/1361-648X/ac2ad2               %
     %    use with input_dft = 'vdW-DF-cx0'    and 'vdW-DF-ahcx'            %
     %  * Unscreened and range-separated hybrid vdW-DF2-b86r functionals    %
     %    DOI: 10.1063/1.4986522 and DOI: 10.1103/PhysRevX.12.041003        %
     %    use with input_dft = 'vdW-DF2-br0' and 'vdW-DF2-ahbr'             %
     %                                                                      %
     %%%%%%%%%%%%%%%%%%%%%%%%%%%%%%%%%%%%%%%%%%%%%%%%%%%%%%%%%%%%%%%%%%%%%%%%


     Starting wfcs are   72 randomized atomic wfcs
     Checking if some PAW data can be deallocated... 

     total cpu time spent up to now is      123.6 secs

     Self-consistent Calculation

     iteration #  1     ecut=    80.00 Ry     beta= 0.20
     Davidson diagonalization with overlap
     ethr =  1.00E-02,  avg # of iterations =  2.3

     Threshold (ethr) on eigenvalues was too large:
     Diagonalizing with lowered threshold

     Davidson diagonalization with overlap
     ethr =  2.86E-04,  avg # of iterations =  3.6

     negative rho (up, down):  4.853E-05 0.000E+00

     total cpu time spent up to now is      601.6 secs

     total energy              =   -1978.45597531 Ry
     estimated scf accuracy    <       0.44802926 Ry

     iteration #  2     ecut=    80.00 Ry     beta= 0.20
     Davidson diagonalization with overlap
     ethr =  4.31E-04,  avg # of iterations =  1.0

     negative rho (up, down):  5.454E-05 0.000E+00

     total cpu time spent up to now is      781.0 secs

     total energy              =   -1978.27719652 Ry
     estimated scf accuracy    <       0.37072453 Ry

     iteration #  3     ecut=    80.00 Ry     beta= 0.20
     Davidson diagonalization with overlap
     ethr =  3.56E-04,  avg # of iterations =  2.0

     negative rho (up, down):  4.524E-06 0.000E+00

     total cpu time spent up to now is     1017.9 secs

     total energy              =   -1978.35678982 Ry
     estimated scf accuracy    <       0.04802833 Ry

     iteration #  4     ecut=    80.00 Ry     beta= 0.20
     Davidson diagonalization with overlap
     ethr =  4.62E-05,  avg # of iterations =  2.2

     negative rho (up, down):  4.178E-08 0.000E+00

     total cpu time spent up to now is     1251.5 secs

     total energy              =   -1978.35955084 Ry
     estimated scf accuracy    <       0.01993686 Ry

     iteration #  5     ecut=    80.00 Ry     beta= 0.20
     Davidson diagonalization with overlap
     ethr =  1.92E-05,  avg # of iterations =  3.2

     negative rho (up, down):  1.914E-08 0.000E+00

     total cpu time spent up to now is     1468.5 secs

     total energy              =   -1978.36132539 Ry
     estimated scf accuracy    <       0.00452502 Ry

     iteration #  6     ecut=    80.00 Ry     beta= 0.20
     Davidson diagonalization with overlap
     c_bands:  1 eigenvalues not converged
     c_bands:  1 eigenvalues not converged
     ethr =  4.35E-06,  avg # of iterations =  6.2

     negative rho (up, down):  3.619E-07 0.000E+00

     total cpu time spent up to now is     1689.3 secs

     total energy              =   -1978.36005481 Ry
     estimated scf accuracy    <       0.00400677 Ry

     iteration #  7     ecut=    80.00 Ry     beta= 0.20
     Davidson diagonalization with overlap
     c_bands:  1 eigenvalues not converged
     ethr =  3.85E-06,  avg # of iterations =  5.6

     negative rho (up, down):  3.689E-08 0.000E+00

     total cpu time spent up to now is     1980.6 secs

     total energy              =   -1978.35897365 Ry
     estimated scf accuracy    <       0.01390055 Ry

     iteration #  8     ecut=    80.00 Ry     beta= 0.20
     Davidson diagonalization with overlap
     c_bands:  1 eigenvalues not converged
     ethr =  3.85E-06,  avg # of iterations =  3.8

     negative rho (up, down):  8.629E-08 0.000E+00

     total cpu time spent up to now is     2218.7 secs

     total energy              =   -1978.35990555 Ry
     estimated scf accuracy    <       0.00232238 Ry

     iteration #  9     ecut=    80.00 Ry     beta= 0.20
     Davidson diagonalization with overlap
     c_bands:  1 eigenvalues not converged
     ethr =  2.23E-06,  avg # of iterations =  8.1

     negative rho (up, down):  1.739E-07 0.000E+00

     total cpu time spent up to now is     2464.1 secs

     total energy              =   -1978.36018503 Ry
     estimated scf accuracy    <       0.00237064 Ry

     iteration # 10     ecut=    80.00 Ry     beta= 0.20
     Davidson diagonalization with overlap
     ethr =  2.23E-06,  avg # of iterations =  1.6

     negative rho (up, down):  2.135E-03 0.000E+00

     total cpu time spent up to now is     2656.3 secs

     total energy              =   -1978.35968886 Ry
     estimated scf accuracy    <       0.00206301 Ry

     iteration # 11     ecut=    80.00 Ry     beta= 0.20
     Davidson diagonalization with overlap
     ethr =  1.98E-06,  avg # of iterations =  2.4

     negative rho (up, down):  5.082E-03 0.000E+00

     total cpu time spent up to now is     2867.8 secs

     total energy              =   -1978.35989955 Ry
     estimated scf accuracy    <       0.00058985 Ry

     iteration # 12     ecut=    80.00 Ry     beta= 0.20
     Davidson diagonalization with overlap
     ethr =  5.67E-07,  avg # of iterations =  7.8

     negative rho (up, down):  3.442E-05 0.000E+00

     total cpu time spent up to now is     3124.4 secs

     total energy              =   -1978.35971910 Ry
     estimated scf accuracy    <       0.00272989 Ry

     iteration # 13     ecut=    80.00 Ry     beta= 0.20
     Davidson diagonalization with overlap
     ethr =  5.67E-07,  avg # of iterations =  4.2

     negative rho (up, down):  3.925E-03 0.000E+00

     total cpu time spent up to now is     3365.8 secs

     total energy              =   -1978.35989833 Ry
     estimated scf accuracy    <       0.00048879 Ry

     iteration # 14     ecut=    80.00 Ry     beta= 0.20
     Davidson diagonalization with overlap
     ethr =  4.70E-07,  avg # of iterations =  2.0

     negative rho (up, down):  2.919E-03 0.000E+00

     total cpu time spent up to now is     3569.1 secs

     total energy              =   -1978.35987775 Ry
     estimated scf accuracy    <       0.00026995 Ry

     iteration # 15     ecut=    80.00 Ry     beta= 0.20
     Davidson diagonalization with overlap
     ethr =  2.60E-07,  avg # of iterations =  4.0

     negative rho (up, down):  2.337E-03 0.000E+00

     total cpu time spent up to now is     3792.2 secs

     total energy              =   -1978.35987984 Ry
     estimated scf accuracy    <       0.00032378 Ry

     iteration # 16     ecut=    80.00 Ry     beta= 0.20
     Davidson diagonalization with overlap
     ethr =  2.60E-07,  avg # of iterations =  1.2

     negative rho (up, down):  2.108E-03 0.000E+00

     total cpu time spent up to now is     3976.0 secs

     total energy              =   -1978.35988904 Ry
     estimated scf accuracy    <       0.00015647 Ry

     iteration # 17     ecut=    80.00 Ry     beta= 0.20
     Davidson diagonalization with overlap
     ethr =  1.50E-07,  avg # of iterations =  2.4

     negative rho (up, down):  1.075E-03 0.000E+00

     total cpu time spent up to now is     4182.7 secs

     total energy              =   -1978.35990464 Ry
     estimated scf accuracy    <       0.00009974 Ry

     iteration # 18     ecut=    80.00 Ry     beta= 0.20
     Davidson diagonalization with overlap
     ethr =  9.59E-08,  avg # of iterations =  2.7

     negative rho (up, down):  1.609E-04 0.000E+00

     total cpu time spent up to now is     4394.7 secs

     total energy              =   -1978.35991933 Ry
     estimated scf accuracy    <       0.00013575 Ry

     iteration # 19     ecut=    80.00 Ry     beta= 0.20
     Davidson diagonalization with overlap
     ethr =  9.59E-08,  avg # of iterations =  1.1

     negative rho (up, down):  3.101E-04 0.000E+00

     total cpu time spent up to now is     4578.2 secs

     total energy              =   -1978.35991849 Ry
     estimated scf accuracy    <       0.00007192 Ry

     iteration # 20     ecut=    80.00 Ry     beta= 0.20
     Davidson diagonalization with overlap
     ethr =  6.92E-08,  avg # of iterations =  1.1

     negative rho (up, down):  3.634E-04 0.000E+00

     total cpu time spent up to now is     4760.7 secs

     total energy              =   -1978.35991411 Ry
     estimated scf accuracy    <       0.00005838 Ry

     iteration # 21     ecut=    80.00 Ry     beta= 0.20
     Davidson diagonalization with overlap
     ethr =  5.61E-08,  avg # of iterations =  1.0

     negative rho (up, down):  4.714E-04 0.000E+00

     total cpu time spent up to now is     4941.1 secs

     total energy              =   -1978.35991640 Ry
     estimated scf accuracy    <       0.00006057 Ry

     iteration # 22     ecut=    80.00 Ry     beta= 0.20
     Davidson diagonalization with overlap
     ethr =  5.61E-08,  avg # of iterations =  1.0

     negative rho (up, down):  3.681E-04 0.000E+00

     total cpu time spent up to now is     5121.6 secs

     total energy              =   -1978.35992645 Ry
     estimated scf accuracy    <       0.00005543 Ry

     iteration # 23     ecut=    80.00 Ry     beta= 0.20
     Davidson diagonalization with overlap
     ethr =  5.33E-08,  avg # of iterations =  2.0

     negative rho (up, down):  4.941E-04 0.000E+00

     total cpu time spent up to now is     5330.6 secs

     total energy              =   -1978.35992096 Ry
     estimated scf accuracy    <       0.00009913 Ry

     iteration # 24     ecut=    80.00 Ry     beta= 0.20
     Davidson diagonalization with overlap
     ethr =  5.33E-08,  avg # of iterations =  1.1

     negative rho (up, down):  6.926E-04 0.000E+00

     total cpu time spent up to now is     5517.8 secs

     total energy              =   -1978.35992499 Ry
     estimated scf accuracy    <       0.00006014 Ry

     iteration # 25     ecut=    80.00 Ry     beta= 0.20
     Davidson diagonalization with overlap
     ethr =  5.33E-08,  avg # of iterations =  1.0

     negative rho (up, down):  4.876E-04 0.000E+00

     total cpu time spent up to now is     5704.6 secs

     total energy              =   -1978.35992541 Ry
     estimated scf accuracy    <       0.00005195 Ry

     iteration # 26     ecut=    80.00 Ry     beta= 0.20
     Davidson diagonalization with overlap
     ethr =  4.99E-08,  avg # of iterations =  1.0

     negative rho (up, down):  3.857E-04 0.000E+00

     total cpu time spent up to now is     5888.8 secs

     total energy              =   -1978.35992857 Ry
     estimated scf accuracy    <       0.00004616 Ry

     iteration # 27     ecut=    80.00 Ry     beta= 0.20
     Davidson diagonalization with overlap
     ethr =  4.44E-08,  avg # of iterations =  1.1

     negative rho (up, down):  2.511E-04 0.000E+00

     total cpu time spent up to now is     6077.7 secs

     total energy              =   -1978.35992925 Ry
     estimated scf accuracy    <       0.00004551 Ry

     iteration # 28     ecut=    80.00 Ry     beta= 0.20
     Davidson diagonalization with overlap
     ethr =  4.38E-08,  avg # of iterations =  1.0

     negative rho (up, down):  3.108E-04 0.000E+00

     total cpu time spent up to now is     6264.3 secs

     total energy              =   -1978.35992968 Ry
     estimated scf accuracy    <       0.00004539 Ry

     iteration # 29     ecut=    80.00 Ry     beta= 0.20
     Davidson diagonalization with overlap
     ethr =  4.36E-08,  avg # of iterations =  1.0

     negative rho (up, down):  4.247E-04 0.000E+00

     total cpu time spent up to now is     6446.0 secs

     total energy              =   -1978.35992973 Ry
     estimated scf accuracy    <       0.00004554 Ry

     iteration # 30     ecut=    80.00 Ry     beta= 0.20
     Davidson diagonalization with overlap
     ethr =  4.36E-08,  avg # of iterations =  1.0

     negative rho (up, down):  4.509E-04 0.000E+00

     total cpu time spent up to now is     6627.3 secs

     total energy              =   -1978.35992613 Ry
     estimated scf accuracy    <       0.00004433 Ry

     iteration # 31     ecut=    80.00 Ry     beta= 0.20
     Davidson diagonalization with overlap
     ethr =  4.26E-08,  avg # of iterations =  1.0

     negative rho (up, down):  3.235E-04 0.000E+00

     total cpu time spent up to now is     6810.0 secs

     total energy              =   -1978.35991031 Ry
     estimated scf accuracy    <       0.00004087 Ry

     iteration # 32     ecut=    80.00 Ry     beta= 0.20
     Davidson diagonalization with overlap
     ethr =  3.93E-08,  avg # of iterations =  1.6

     negative rho (up, down):  5.809E-04 0.000E+00

     total cpu time spent up to now is     7003.7 secs

     total energy              =   -1978.35990485 Ry
     estimated scf accuracy    <       0.00004134 Ry

     iteration # 33     ecut=    80.00 Ry     beta= 0.20
     Davidson diagonalization with overlap
     ethr =  3.93E-08,  avg # of iterations =  1.1

     negative rho (up, down):  9.208E-04 0.000E+00

     total cpu time spent up to now is     7193.3 secs

     total energy              =   -1978.35990182 Ry
     estimated scf accuracy    <       0.00003121 Ry

     iteration # 34     ecut=    80.00 Ry     beta= 0.20
     Davidson diagonalization with overlap
     ethr =  3.00E-08,  avg # of iterations =  1.2

     negative rho (up, down):  7.297E-04 0.000E+00

     total cpu time spent up to now is     7387.5 secs

     total energy              =   -1978.35990331 Ry
     estimated scf accuracy    <       0.00002727 Ry

     iteration # 35     ecut=    80.00 Ry     beta= 0.20
     Davidson diagonalization with overlap
     ethr =  2.62E-08,  avg # of iterations =  1.1

     negative rho (up, down):  6.692E-04 0.000E+00

     total cpu time spent up to now is     7580.4 secs

     total energy              =   -1978.35991278 Ry
     estimated scf accuracy    <       0.00002112 Ry

     iteration # 36     ecut=    80.00 Ry     beta= 0.20
     Davidson diagonalization with overlap
     ethr =  2.03E-08,  avg # of iterations =  2.1

     negative rho (up, down):  4.176E-04 0.000E+00

     total cpu time spent up to now is     7791.4 secs

     total energy              =   -1978.35991382 Ry
     estimated scf accuracy    <       0.00001681 Ry

     iteration # 37     ecut=    80.00 Ry     beta= 0.20
     Davidson diagonalization with overlap
     ethr =  1.62E-08,  avg # of iterations =  1.1

     negative rho (up, down):  2.935E-04 0.000E+00

     total cpu time spent up to now is     7980.7 secs

     total energy              =   -1978.35991153 Ry
     estimated scf accuracy    <       0.00001432 Ry

     iteration # 38     ecut=    80.00 Ry     beta= 0.20
     Davidson diagonalization with overlap
     ethr =  1.38E-08,  avg # of iterations =  2.6

     negative rho (up, down):  3.637E-04 0.000E+00

     total cpu time spent up to now is     8192.9 secs

     total energy              =   -1978.35991005 Ry
     estimated scf accuracy    <       0.00001291 Ry

     iteration # 39     ecut=    80.00 Ry     beta= 0.20
     Davidson diagonalization with overlap
     ethr =  1.24E-08,  avg # of iterations =  1.3

     negative rho (up, down):  3.692E-04 0.000E+00

     total cpu time spent up to now is     8381.2 secs

     total energy              =   -1978.35991042 Ry
     estimated scf accuracy    <       0.00001001 Ry

     iteration # 40     ecut=    80.00 Ry     beta= 0.20
     Davidson diagonalization with overlap
     ethr =  9.62E-09,  avg # of iterations =  1.0

     negative rho (up, down):  4.383E-04 0.000E+00

     total cpu time spent up to now is     8566.1 secs

     total energy              =   -1978.35991203 Ry
     estimated scf accuracy    <       0.00000956 Ry

     iteration # 41     ecut=    80.00 Ry     beta= 0.20
     Davidson diagonalization with overlap
     ethr =  9.19E-09,  avg # of iterations =  1.3

     negative rho (up, down):  4.590E-04 0.000E+00

     total cpu time spent up to now is     8753.0 secs

     total energy              =   -1978.35991243 Ry
     estimated scf accuracy    <       0.00000908 Ry

     iteration # 42     ecut=    80.00 Ry     beta= 0.20
     Davidson diagonalization with overlap
     ethr =  8.73E-09,  avg # of iterations =  1.0

     negative rho (up, down):  4.864E-04 0.000E+00

     total cpu time spent up to now is     8935.1 secs

     total energy              =   -1978.35991248 Ry
     estimated scf accuracy    <       0.00000878 Ry

     iteration # 43     ecut=    80.00 Ry     beta= 0.20
     Davidson diagonalization with overlap
     ethr =  8.45E-09,  avg # of iterations =  1.1

     negative rho (up, down):  5.904E-04 0.000E+00

     total cpu time spent up to now is     9116.4 secs

     total energy              =   -1978.35991193 Ry
     estimated scf accuracy    <       0.00000851 Ry

     iteration # 44     ecut=    80.00 Ry     beta= 0.20
     Davidson diagonalization with overlap
     ethr =  8.18E-09,  avg # of iterations =  1.3

     negative rho (up, down):  6.773E-04 0.000E+00

     total cpu time spent up to now is     9304.0 secs

     total energy              =   -1978.35991069 Ry
     estimated scf accuracy    <       0.00000786 Ry

     iteration # 45     ecut=    80.00 Ry     beta= 0.20
     Davidson diagonalization with overlap
     ethr =  7.56E-09,  avg # of iterations =  2.1

     negative rho (up, down):  5.636E-04 0.000E+00

     total cpu time spent up to now is     9488.3 secs

     total energy              =   -1978.35990486 Ry
     estimated scf accuracy    <       0.00000712 Ry

     iteration # 46     ecut=    80.00 Ry     beta= 0.20
     Davidson diagonalization with overlap
     ethr =  6.85E-09,  avg # of iterations =  2.5

     negative rho (up, down):  5.383E-04 0.000E+00

     total cpu time spent up to now is     9691.7 secs

     total energy              =   -1978.35990350 Ry
     estimated scf accuracy    <       0.00000495 Ry

     iteration # 47     ecut=    80.00 Ry     beta= 0.20
     Davidson diagonalization with overlap
     ethr =  4.76E-09,  avg # of iterations =  1.6

     negative rho (up, down):  4.098E-04 0.000E+00

     total cpu time spent up to now is     9881.1 secs

     total energy              =   -1978.35990574 Ry
     estimated scf accuracy    <       0.00000328 Ry

     iteration # 48     ecut=    80.00 Ry     beta= 0.20
     Davidson diagonalization with overlap
     ethr =  3.15E-09,  avg # of iterations =  2.3

     negative rho (up, down):  3.267E-04 0.000E+00

     total cpu time spent up to now is    10076.8 secs

     total energy              =   -1978.35990714 Ry
     estimated scf accuracy    <       0.00000208 Ry

     iteration # 49     ecut=    80.00 Ry     beta= 0.20
     Davidson diagonalization with overlap
     ethr =  2.00E-09,  avg # of iterations =  1.8

     negative rho (up, down):  3.010E-04 0.000E+00

     total cpu time spent up to now is    10272.2 secs

     total energy              =   -1978.35990850 Ry
     estimated scf accuracy    <       0.00000173 Ry

     iteration # 50     ecut=    80.00 Ry     beta= 0.20
     Davidson diagonalization with overlap
     ethr =  1.67E-09,  avg # of iterations =  2.6

     negative rho (up, down):  2.564E-04 0.000E+00

     total cpu time spent up to now is    10473.5 secs

     total energy              =   -1978.35990856 Ry
     estimated scf accuracy    <       0.00000147 Ry

     iteration # 51     ecut=    80.00 Ry     beta= 0.20
     Davidson diagonalization with overlap
     ethr =  1.41E-09,  avg # of iterations =  1.3

     negative rho (up, down):  1.810E-04 0.000E+00

     total cpu time spent up to now is    10658.5 secs

     total energy              =   -1978.35990887 Ry
     estimated scf accuracy    <       0.00000107 Ry

     iteration # 52     ecut=    80.00 Ry     beta= 0.20
     Davidson diagonalization with overlap
     ethr =  1.03E-09,  avg # of iterations =  2.0

     negative rho (up, down):  1.393E-04 0.000E+00

     total cpu time spent up to now is    10861.3 secs

     total energy              =   -1978.35990791 Ry
     estimated scf accuracy    <       0.00000084 Ry

     iteration # 53     ecut=    80.00 Ry     beta= 0.20
     Davidson diagonalization with overlap
     ethr =  8.12E-10,  avg # of iterations =  2.2

     negative rho (up, down):  1.217E-04 0.000E+00

     total cpu time spent up to now is    11070.4 secs

     total energy              =   -1978.35990825 Ry
     estimated scf accuracy    <       0.00000048 Ry

     iteration # 54     ecut=    80.00 Ry     beta= 0.20
     Davidson diagonalization with overlap
     ethr =  4.58E-10,  avg # of iterations =  1.2

     negative rho (up, down):  1.327E-04 0.000E+00

     total cpu time spent up to now is    11260.2 secs

     total energy              =   -1978.35990836 Ry
     estimated scf accuracy    <       0.00000039 Ry

     iteration # 55     ecut=    80.00 Ry     beta= 0.20
     Davidson diagonalization with overlap
     ethr =  3.76E-10,  avg # of iterations =  3.0

     negative rho (up, down):  1.431E-04 0.000E+00

     total cpu time spent up to now is    11485.8 secs

     total energy              =   -1978.35990709 Ry
     estimated scf accuracy    <       0.00000040 Ry

     iteration # 56     ecut=    80.00 Ry     beta= 0.20
     Davidson diagonalization with overlap
     ethr =  3.76E-10,  avg # of iterations =  2.2

     negative rho (up, down):  1.529E-04 0.000E+00

     total cpu time spent up to now is    11705.8 secs

     total energy              =   -1978.35990728 Ry
     estimated scf accuracy    <       0.00000015 Ry

     iteration # 57     ecut=    80.00 Ry     beta= 0.20
     Davidson diagonalization with overlap
     ethr =  1.43E-10,  avg # of iterations =  2.0

     negative rho (up, down):  1.504E-04 0.000E+00

     total cpu time spent up to now is    11909.5 secs

     total energy              =   -1978.35990734 Ry
     estimated scf accuracy    <       0.00000009 Ry

     iteration # 58     ecut=    80.00 Ry     beta= 0.20
     Davidson diagonalization with overlap
     ethr =  8.61E-11,  avg # of iterations =  1.6

     negative rho (up, down):  1.291E-04 0.000E+00

     total cpu time spent up to now is    12105.7 secs

     total energy              =   -1978.35990794 Ry
     estimated scf accuracy    <       0.00000007 Ry

     iteration # 59     ecut=    80.00 Ry     beta= 0.20
     Davidson diagonalization with overlap
     ethr =  6.70E-11,  avg # of iterations =  2.1

     negative rho (up, down):  1.367E-04 0.000E+00

     total cpu time spent up to now is    12309.7 secs

     total energy              =   -1978.35990814 Ry
     estimated scf accuracy    <       0.00000004 Ry

     iteration # 60     ecut=    80.00 Ry     beta= 0.20
     Davidson diagonalization with overlap
     ethr =  3.86E-11,  avg # of iterations =  2.1

     negative rho (up, down):  1.383E-04 0.000E+00

     total cpu time spent up to now is    12516.9 secs

     total energy              =   -1978.35990809 Ry
     estimated scf accuracy    <       0.00000003 Ry

     iteration # 61     ecut=    80.00 Ry     beta= 0.20
     Davidson diagonalization with overlap
     ethr =  3.23E-11,  avg # of iterations =  1.0

     negative rho (up, down):  1.407E-04 0.000E+00

     total cpu time spent up to now is    12699.7 secs

     total energy              =   -1978.35990807 Ry
     estimated scf accuracy    <       0.00000003 Ry

     iteration # 62     ecut=    80.00 Ry     beta= 0.20
     Davidson diagonalization with overlap
     ethr =  2.56E-11,  avg # of iterations =  1.2

     negative rho (up, down):  1.420E-04 0.000E+00

     total cpu time spent up to now is    12884.8 secs

     total energy              =   -1978.35990819 Ry
     estimated scf accuracy    <       0.00000002 Ry

     iteration # 63     ecut=    80.00 Ry     beta= 0.20
     Davidson diagonalization with overlap
     ethr =  2.00E-11,  avg # of iterations =  2.0

     negative rho (up, down):  1.446E-04 0.000E+00

     total cpu time spent up to now is    13091.9 secs

     total energy              =   -1978.35990814 Ry
     estimated scf accuracy    <       0.00000002 Ry

     iteration # 64     ecut=    80.00 Ry     beta= 0.20
     Davidson diagonalization with overlap
     ethr =  1.60E-11,  avg # of iterations =  1.2

     negative rho (up, down):  1.485E-04 0.000E+00

     total cpu time spent up to now is    13277.8 secs

     total energy              =   -1978.35990802 Ry
     estimated scf accuracy    <       0.00000001 Ry

     iteration # 65     ecut=    80.00 Ry     beta= 0.20
     Davidson diagonalization with overlap
     ethr =  1.03E-11,  avg # of iterations =  2.3

     negative rho (up, down):  1.611E-04 0.000E+00

     total cpu time spent up to now is    13484.9 secs

     End of self-consistent calculation

          k = 0.0000 0.0000 0.0000 ( 35507 PWs)   bands (ev):

   -58.9020 -58.8886 -58.8532 -58.8029 -33.0760 -33.0623 -33.0278 -32.9773
   -32.8386 -32.8386 -32.8264 -32.8264 -32.7897 -32.7897 -32.7406 -32.7406
   -12.2451 -12.1630 -12.1468 -12.0489 -11.0102 -10.8760 -10.8521 -10.7179
    -4.0430  -3.7101  -3.6878  -3.3567  -0.6244  -0.6244  -0.6204  -0.6204
    -0.6058  -0.5780  -0.5780  -0.5361  -0.5361   0.0270   0.0872   0.4901
     0.4901   0.4988   0.4989   0.5362   0.5362   0.5823   0.5824   0.8186
     1.5937   1.8254   2.1311   2.4576   4.7220   4.7220   4.7585   4.7586
     4.7739   4.7739   4.8324   4.8324   4.9364   4.9365

          k = 0.0000 0.0722 0.0000 ( 35493 PWs)   bands (ev):

   -58.9005 -58.8870 -58.8517 -58.8014 -33.0729 -33.0592 -33.0248 -32.9743
   -32.8542 -32.8422 -32.8420 -32.8299 -32.8053 -32.7933 -32.7561 -32.7441
   -12.1855 -12.1036 -12.0875 -11.9898 -10.9826 -10.8511 -10.8268 -10.6947
    -3.9741  -3.6425  -3.6187  -3.2887  -0.7616  -0.7547  -0.7415  -0.7136
    -0.6702  -0.5622  -0.5579  -0.5158  -0.4736  -0.2311  -0.1908   0.1752
     0.3929   0.4022   0.4394   0.4860   0.5952   0.6905   0.7105   1.0594
     1.5958   1.8063   2.0963   2.3778   4.6462   4.6676   4.6938   4.7489
     4.7793   4.8069   4.8422   4.8597   4.8625   4.8906

          k = 0.0000 0.1443 0.0000 ( 35435 PWs)   bands (ev):

   -58.8960 -58.8826 -58.8472 -58.7969 -33.0643 -33.0506 -33.0161 -32.9656
   -32.8982 -32.8861 -32.8522 -32.8494 -32.8400 -32.8033 -32.8003 -32.7542
   -12.0115 -11.9305 -11.9147 -11.8176 -10.9021 -10.7786 -10.7532 -10.6274
    -3.7824  -3.4565  -3.4282  -3.1035  -1.1129  -1.1008  -1.0688  -1.0551
    -1.0109  -0.6802  -0.6307  -0.3831  -0.3777  -0.3400  -0.3367  -0.2935
     0.1416   0.1522   0.1890   0.2366   0.6555   0.8318   0.8655   1.2097
     1.5647   1.7172   1.9419   2.1206   4.3530   4.4062   4.4626   4.5134
     4.5439   4.5915   4.6637   4.6641   4.7189   4.7414

          k = 0.0000 0.2165 0.0000 ( 35345 PWs)   bands (ev):

   -58.8894 -58.8759 -58.8406 -58.7903 -33.0513 -33.0376 -33.0031 -32.9636
   -32.9526 -32.9515 -32.9147 -32.8672 -32.8657 -32.8550 -32.8183 -32.7692
   -11.7381 -11.6591 -11.6436 -11.5481 -10.7757 -10.6652 -10.6383 -10.5225
    -3.5226  -3.2153  -3.1811  -2.8771  -1.5495  -1.5231  -1.5023  -1.4706
    -1.3968  -1.1647  -1.0965  -0.8848  -0.1849  -0.1714  -0.1390  -0.1083
    -0.1026  -0.0884  -0.0587  -0.0170   0.5686   0.7836   0.8123   1.1285
     1.4164   1.4961   1.6199   1.7118   3.9805   4.1018   4.1852   4.4114
     4.4437   4.5108   4.5273   4.5620   4.5974   4.6125

          k = 0.0000 0.2887 0.0000 ( 35323 PWs)   bands (ev):

   -58.8815 -58.8681 -58.8327 -58.7824 -33.0399 -33.0360 -33.0279 -33.0222
   -32.9910 -32.9878 -32.9421 -32.9372 -32.8848 -32.8726 -32.8359 -32.7868
   -11.3906 -11.3160 -11.3008 -11.2087 -10.6162 -10.5230 -10.4943 -10.3915
    -3.3228  -3.0727  -3.0436  -2.8119  -1.9482  -1.8739  -1.8363  -1.8148
    -1.7125  -1.6550  -1.5399  -1.4238  -0.5129  -0.4992  -0.4640  -0.4139
     0.2151   0.2268   0.2644   0.3130   0.3534   0.5822   0.6046   0.8863
     1.1379   1.1766   1.2366   1.3024   3.8470   4.0311   4.1089   4.2556
     4.3178   4.3372   4.4109   4.4199   4.7800   4.8594

          k = 0.0000 0.3608 0.0000 ( 35299 PWs)   bands (ev):

   -58.8737 -58.8602 -58.8249 -58.7746 -33.1153 -33.1033 -33.0664 -33.0206
   -33.0176 -33.0068 -32.9724 -32.9218 -32.9023 -32.8902 -32.8535 -32.8044
   -11.0075 -10.9406 -10.9255 -10.8394 -10.4427 -10.3699 -10.3397 -10.2520
    -3.3599  -3.2060  -3.1988  -3.0628  -2.3127  -2.1896  -2.1224  -2.0230
    -1.9538  -1.9183  -1.8250  -1.7287  -0.8013  -0.7866  -0.7516  -0.7009
     0.1183   0.3463   0.3639   0.5343   0.5550   0.5893   0.6121   0.6445
     0.9177   0.9559   1.0078   1.0721   3.9630   4.1521   4.1569   4.2015
     4.2150   4.2241   4.2989   4.5044   5.1104   5.2173

          k = 0.0000 0.4330 0.0000 ( 35224 PWs)   bands (ev):

   -58.8670 -58.8535 -58.8182 -58.7679 -33.1785 -33.1666 -33.1297 -33.0809
   -33.0075 -32.9937 -32.9593 -32.9172 -32.9087 -32.9050 -32.8683 -32.8192
   -10.6436 -10.5883 -10.5728 -10.4961 -10.2812 -10.2300 -10.1994 -10.1264
    -3.5929  -3.5032  -3.5010  -3.4113  -2.6507  -2.5399  -2.5176  -2.4142
    -2.0659  -1.9695  -1.9402  -1.8101  -1.0221  -1.0068  -0.9719  -0.9207
    -0.0568   0.1627   0.1745   0.3971   0.7884   0.8221   0.8532   0.9173
     0.9375   0.9966   1.0435   1.1251   4.1463   4.1786   4.2053   4.2235
     4.2691   4.3831   4.4215   4.6447   5.4193   5.5369

          k = 0.0000 0.5052 0.0000 ( 35152 PWs)   bands (ev):

   -58.8625 -58.8490 -58.8137 -58.7634 -33.2204 -33.2086 -33.1716 -33.1228
   -32.9987 -32.9849 -32.9505 -32.9270 -32.9149 -32.8999 -32.8782 -32.8291
   -10.3714 -10.3295 -10.3132 -10.2479 -10.1630 -10.1303 -10.1013 -10.0390
    -3.8213  -3.7552  -3.7543  -3.6781  -2.8880  -2.8032  -2.7851  -2.6947
    -2.1691  -2.0676  -2.0471  -1.9227  -1.1598  -1.1441  -1.1094  -1.0578
    -0.1521   0.0560   0.0653   0.2663   0.9421   0.9881   1.0169   1.0892
     1.1261   1.1954   1.2277   1.3131   4.1949   4.2144   4.2454   4.3003
     4.5140   4.6159   4.6413   4.7800   5.6115   5.7810

          k = 0.0000-0.5774 0.0000 ( 35026 PWs)   bands (ev):

   -58.8610 -58.8475 -58.8122 -58.7618 -33.2350 -33.2233 -33.1863 -33.1375
   -32.9957 -32.9818 -32.9475 -32.9305 -32.9184 -32.8968 -32.8816 -32.8326
   -10.2678 -10.2330 -10.2160 -10.1574 -10.1185 -10.0939 -10.0666 -10.0078
    -3.9133  -3.8526  -3.8505  -3.7774  -2.9730  -2.8993  -2.8799  -2.7937
    -2.2172  -2.1164  -2.0963  -1.9750  -1.2065  -1.1907  -1.1560  -1.1044
    -0.1806   0.0216   0.0306   0.2223   0.9920   1.0429   1.0708   1.1465
     1.2424   1.3021   1.3248   1.4004   4.2233   4.2389   4.2719   4.3239
     4.6680   4.7251   4.7488   4.8271   5.6710   5.8285

          k = 0.0625 0.1083 0.0000 ( 35467 PWs)   bands (ev):

   -58.8975 -58.8840 -58.8487 -58.7984 -33.0671 -33.0534 -33.0189 -32.9684
   -32.8835 -32.8713 -32.8494 -32.8372 -32.8347 -32.8005 -32.7855 -32.7514
   -12.0687 -11.9873 -11.9714 -11.8741 -10.9285 -10.8023 -10.7774 -10.6495
    -3.8434  -3.5151  -3.4883  -3.1614  -1.0023  -0.9928  -0.9604  -0.9515
    -0.9065  -0.5418  -0.4964  -0.4433  -0.4386  -0.3969  -0.3546  -0.1752
     0.1780   0.1877   0.2241   0.2711   0.6922   0.8445   0.8753   1.2134
     1.5827   1.7524   2.0033   2.2090   4.4738   4.5026   4.5346   4.5482
     4.5523   4.6224   4.6380   4.7119   4.7347   4.8036

          k = 0.0625 0.1804 0.0000 ( 35370 PWs)   bands (ev):

   -58.8919 -58.8785 -58.8431 -58.7928 -33.0563 -33.0425 -33.0081 -32.9576
   -32.9370 -32.9249 -32.8882 -32.8631 -32.8509 -32.8391 -32.8142 -32.7651
   -11.8448 -11.7649 -11.7493 -11.6531 -10.8249 -10.7092 -10.6829 -10.5631
    -3.6135  -3.2961  -3.2636  -2.9479  -1.3863  -1.3709  -1.3424  -1.3058
    -1.2478  -0.9486  -0.8885  -0.6336  -0.2276  -0.2209  -0.1951  -0.1777
    -0.1734  -0.1494  -0.1283  -0.0943   0.7434   0.9233   0.9570   1.2539
     1.4962   1.5959   1.7641   1.8725   4.0891   4.1809   4.2513   4.3976
     4.4573   4.4762   4.5237   4.5796   4.6224   4.6851

          k = 0.0625 0.2526 0.0000 ( 35362 PWs)   bands (ev):

   -58.8847 -58.8712 -58.8359 -58.7856 -33.0421 -33.0283 -33.0062 -32.9942
   -32.9939 -32.9573 -32.9434 -32.9084 -32.8811 -32.8689 -32.8322 -32.7831
   -11.5337 -11.4571 -11.4418 -11.3480 -10.6814 -10.5808 -10.5528 -10.4445
    -3.3700  -3.0871  -3.0523  -2.7789  -1.7786  -1.7320  -1.7252  -1.6863
    -1.5770  -1.4028  -1.3190  -1.1569  -0.5656  -0.5519  -0.5136  -0.4621
     0.0406   0.0511   0.0879   0.1356   0.6412   0.8260   0.8480   1.1026
     1.2805   1.3193   1.3992   1.4620   3.8260   3.9855   4.0566   4.2530
     4.3743   4.3995   4.4368   4.4832   4.5846   4.6161

          k = 0.0625 0.3248 0.0000 ( 35310 PWs)   bands (ev):

   -58.8768 -58.8633 -58.8280 -58.7777 -33.0802 -33.0683 -33.0314 -33.0268
   -33.0129 -32.9825 -32.9785 -32.9280 -32.9004 -32.8883 -32.8515 -32.8024
   -11.1669 -11.0962 -11.0811 -10.9921 -10.5135 -10.4318 -10.4021 -10.3079
    -3.2809  -3.0816  -3.0646  -2.8888  -2.1164  -2.0226  -1.9046  -1.8878
    -1.8853  -1.8190  -1.6970  -1.6548  -0.8708  -0.8443  -0.8054  -0.7437
     0.2747   0.2944   0.3206   0.3740   0.4305   0.5979   0.6176   0.8370
     1.0480   1.0719   1.1156   1.1733   3.7884   3.9679   4.0173   4.1685
     4.3054   4.3306   4.3851   4.5013   4.8410   4.9240

          k = 0.0625 0.3969 0.0000 ( 35243 PWs)   bands (ev):

   -58.8696 -58.8561 -58.8207 -58.7704 -33.1479 -33.1360 -33.0991 -33.0502
   -33.0125 -32.9987 -32.9643 -32.9182 -32.9137 -32.9061 -32.8694 -32.8203
   -10.7902 -10.7292 -10.7140 -10.6328 -10.3436 -10.2830 -10.2524 -10.1731
    -3.4356  -3.3193  -3.3172  -3.2093  -2.4854  -2.3728  -2.3461  -2.2453
    -1.9941  -1.9074  -1.8733  -1.7415  -1.0699  -1.0381  -1.0022  -0.9395
     0.1659   0.3423   0.3533   0.4200   0.4421   0.4796   0.5047   0.5943
     1.0577   1.0770   1.1156   1.1697   3.9207   4.0633   4.0912   4.1996
     4.3499   4.3876   4.4305   4.5900   5.1806   5.2831

          k = 0.0625 0.4691 0.0000 ( 35169 PWs)   bands (ev):

   -58.8640 -58.8505 -58.8152 -58.7649 -33.1992 -33.1874 -33.1504 -33.1016
   -33.0016 -32.9877 -32.9534 -32.9318 -32.9197 -32.9028 -32.8830 -32.8339
   -10.4670 -10.4191 -10.4033 -10.3329 -10.2006 -10.1605 -10.1305 -10.0643
    -3.6733  -3.5979  -3.5965  -3.5153  -2.8017  -2.7158  -2.7026  -2.6134
    -2.0967  -1.9910  -1.9745  -1.8448  -1.1774  -1.1510  -1.1214  -1.0628
    -0.0258   0.1529   0.1631   0.3406   0.5432   0.5820   0.6068   0.6815
     1.2313   1.2577   1.2923   1.3526   4.1119   4.1827   4.2048   4.2774
     4.4868   4.5481   4.5811   4.7209   5.4946   5.6519

          k = 0.0625 0.5413 0.0000 ( 35128 PWs)   bands (ev):

   -58.8610 -58.8475 -58.8122 -58.7618 -33.2268 -33.2150 -33.1780 -33.1292
   -32.9957 -32.9818 -32.9475 -32.9392 -32.9271 -32.8968 -32.8903 -32.8413
   -10.2736 -10.2374 -10.2206 -10.1610 -10.1161 -10.0906 -10.0628 -10.0037
    -3.8333  -3.7717  -3.7694  -3.6956  -2.9802  -2.9114  -2.8976  -2.8139
    -2.1860  -2.0809  -2.0639  -1.9408  -1.2206  -1.2018  -1.1761  -1.1212
    -0.1307   0.0495   0.0609   0.2339   0.6333   0.6847   0.7048   0.7798
     1.3853   1.4229   1.4521   1.5185   4.2231   4.2421   4.2678   4.3208
     4.6627   4.7233   4.7489   4.8380   5.7176   5.8377

          k = 0.1250 0.2165 0.0000 ( 35331 PWs)   bands (ev):

   -58.8858 -58.8723 -58.8370 -58.7867 -33.0443 -33.0305 -32.9961 -32.9922
   -32.9801 -32.9456 -32.9433 -32.8943 -32.8819 -32.8697 -32.8330 -32.7839
   -11.5829 -11.5056 -11.4902 -11.3960 -10.7036 -10.6005 -10.5728 -10.4626
    -3.3892  -3.0952  -3.0590  -2.7711  -1.7068  -1.6800  -1.6658  -1.6188
    -1.4815  -1.2411  -1.1636  -0.9698  -0.7040  -0.6952  -0.6510  -0.6030
    -0.0389  -0.0287   0.0071   0.0546   0.8264   0.9869   1.0129   1.2329
     1.3476   1.3772   1.4752   1.5311   3.8136   3.9621   4.0264   4.2134
     4.3634   4.3968   4.4305   4.4497   4.4664   4.5196

          k = 0.1250 0.2887 0.0000 ( 35357 PWs)   bands (ev):

   -58.8785 -58.8650 -58.8297 -58.7794 -33.0555 -33.0435 -33.0301 -33.0163
   -33.0067 -32.9819 -32.9577 -32.9313 -32.9052 -32.8931 -32.8563 -32.8072
   -11.2508 -11.1783 -11.1632 -11.0728 -10.5501 -10.4637 -10.4344 -10.3367
    -3.2324  -2.9998  -2.9750  -2.7649  -1.9592  -1.9022  -1.8502  -1.8091
    -1.7061  -1.6439  -1.5388  -1.4733  -1.1344  -1.0895  -1.0364  -0.9253
     0.0642   0.0836   0.1118   0.1660   0.7534   0.8868   0.9034   1.0725
     1.1546   1.1587   1.1957   1.2474   3.6541   3.8411   3.8939   4.0886
     4.3657   4.3911   4.4145   4.4748   4.5978   4.6221

          k = 0.1250 0.3608 0.0000 ( 35341 PWs)   bands (ev):

   -58.8713 -58.8578 -58.8225 -58.7722 -33.1177 -33.1058 -33.0689 -33.0200
   -33.0159 -33.0020 -32.9677 -32.9289 -32.9171 -32.9168 -32.8800 -32.8309
   -10.8863 -10.8219 -10.8068 -10.7228 -10.3826 -10.3158 -10.2852 -10.2016
    -3.2798  -3.1318  -3.1272  -2.9953  -2.2854  -2.1944  -2.1663  -2.0930
    -1.9008  -1.8276  -1.8047  -1.6777  -1.3294  -1.2406  -1.1768  -1.0573
     0.0062   0.0362   0.0584   0.1180   0.5326   0.6415   0.6582   0.7953
     1.1104   1.1266   1.1575   1.2106   3.6901   3.8987   3.9409   4.1561
     4.4362   4.4588   4.4915   4.5759   4.8375   4.9168

          k = 0.1250 0.4330 0.0000 ( 35215 PWs)   bands (ev):

   -58.8651 -58.8516 -58.8163 -58.7660 -33.1699 -33.1580 -33.1211 -33.0722
   -33.0038 -32.9899 -32.9556 -32.9491 -32.9370 -32.9050 -32.9002 -32.8511
   -10.5424 -10.4898 -10.4744 -10.4001 -10.2260 -10.1799 -10.1492 -10.0793
    -3.4604  -3.3666  -3.3641  -3.2714  -2.6979  -2.6327  -2.6286  -2.5522
    -1.9720  -1.8584  -1.8537  -1.7233  -1.3593  -1.2674  -1.2194  -1.1137
    -0.0485   0.0064   0.0229   0.0992   0.2574   0.3595   0.3766   0.5028
     1.2492   1.2662   1.2991   1.3525   3.8972   4.0923   4.1238   4.3252
     4.5451   4.5605   4.6037   4.6660   5.1481   5.3089

          k = 0.1250 0.5052 0.0000 ( 35141 PWs)   bands (ev):

   -58.8610 -58.8475 -58.8122 -58.7618 -33.2044 -33.1926 -33.1556 -33.1068
   -32.9957 -32.9818 -32.9626 -32.9505 -32.9475 -32.9137 -32.8969 -32.8647
   -10.2873 -10.2479 -10.2316 -10.1696 -10.1105 -10.0826 -10.0536  -9.9935
    -3.6236  -3.5554  -3.5533  -3.4758  -2.9932  -2.9403  -2.9376  -2.8608
    -2.0907  -1.9743  -1.9658  -1.8424  -1.3114  -1.2405  -1.2121  -1.1317
    -0.0524   0.0343   0.0570   0.0852   0.1298   0.1356   0.1772   0.2914
     1.4361   1.4629   1.4957   1.5557   4.1163   4.2080   4.2347   4.3295
     4.6959   4.7456   4.7725   4.8671   5.4230   5.5383

          k = 0.1250 0.5774 0.0000 ( 35180 PWs)   bands (ev):

   -58.8595 -58.8460 -58.8107 -58.7604 -33.2165 -33.2047 -33.1677 -33.1189
   -32.9929 -32.9790 -32.9673 -32.9552 -32.9446 -32.9185 -32.8940 -32.8694
   -10.1908 -10.1584 -10.1411 -10.0886 -10.0647 -10.0470 -10.0195  -9.9629
    -3.6868  -3.6284  -3.6232  -3.5509  -3.0985  -3.0490  -3.0459  -2.9687
    -2.1508  -2.0369  -2.0248  -1.9035  -1.2647  -1.2204  -1.2053  -1.1372
    -0.1084   0.0244   0.0462   0.0600   0.0859   0.1092   0.1611   0.2357
     1.5285   1.5636   1.5954   1.6610   4.1906   4.2104   4.2342   4.2893
     4.8073   4.8728   4.8940   4.9678   5.5358   5.6533

          k = 0.1875 0.3248 0.0000 ( 35337 PWs)   bands (ev):

   -58.8719 -58.8584 -58.8231 -58.7728 -33.1042 -33.0922 -33.0554 -33.0171
   -33.0065 -33.0032 -32.9688 -32.9357 -32.9235 -32.9183 -32.8868 -32.8377
   -10.9196 -10.8541 -10.8391 -10.7542 -10.3959 -10.3269 -10.2963 -10.2112
    -3.2136  -3.0496  -3.0431  -2.8984  -2.1567  -2.0874  -2.0628  -2.0222
    -1.8553  -1.7862  -1.7732  -1.6825  -1.4706  -1.3704  -1.2753  -1.1271
    -0.1678  -0.1373  -0.1171  -0.0557   0.6971   0.7825   0.7956   0.9052
     1.1164   1.1369   1.1664   1.2226   3.6021   3.8331   3.8768   4.1297
     4.4609   4.4822   4.5017   4.5572   4.6941   4.7467

          k = 0.1875 0.3969 0.0000 ( 35241 PWs)   bands (ev):

   -58.8657 -58.8522 -58.8169 -58.7666 -33.1461 -33.1342 -33.0973 -33.0484
   -33.0050 -32.9911 -32.9665 -32.9568 -32.9544 -32.9176 -32.9062 -32.8686
   -10.5838 -10.5286 -10.5134 -10.4371 -10.2387 -10.1891 -10.1580 -10.0859
    -3.2994  -3.1857  -3.1821  -3.0755  -2.6049  -2.5727  -2.5718  -2.5090
    -1.8365  -1.7581  -1.6989  -1.6380  -1.4683  -1.3837  -1.2869  -1.1528
    -0.4860  -0.4450  -0.4250  -0.3575   0.4687   0.5331   0.5381   0.6259
     1.2193   1.2409   1.2750   1.3333   3.7562   4.0131   4.0470   4.3578
     4.5726   4.5877   4.6139   4.6676   4.8741   5.0533

          k = 0.1875 0.4691 0.0000 ( 35167 PWs)   bands (ev):

   -58.8610 -58.8475 -58.8122 -58.7618 -33.1766 -33.1647 -33.1278 -33.0789
   -32.9957 -32.9914 -32.9819 -32.9793 -32.9475 -32.9426 -32.8969 -32.8935
   -10.3006 -10.2583 -10.2424 -10.1780 -10.1049 -10.0746 -10.0446  -9.9834
    -3.3856  -3.2991  -3.2980  -3.2107  -3.0017  -2.9744  -2.9669  -2.9038
    -1.9210  -1.7968  -1.7900  -1.6988  -1.4102  -1.2916  -1.2454  -1.1201
    -0.6705  -0.5932  -0.5764  -0.4756   0.1684   0.2418   0.2541   0.3395
     1.4201   1.4380   1.4732   1.5274   3.9741   4.1406   4.1614   4.3278
     4.7373   4.7856   4.8030   4.9019   5.0838   5.2034

          k = 0.1875 0.5413 0.0000 ( 35162 PWs)   bands (ev):

   -58.8584 -58.8449 -58.8096 -58.7593 -33.1925 -33.1807 -33.1438 -33.0950
   -33.0053 -32.9933 -32.9907 -32.9768 -32.9565 -32.9425 -32.9075 -32.8919
   -10.1338 -10.1026 -10.0852 -10.0407 -10.0183 -10.0088  -9.9803  -9.9257
    -3.4229  -3.3630  -3.3509  -3.2780  -3.2178  -3.1917  -3.1797  -3.1150
    -2.0641  -1.9418  -1.9319  -1.8209  -1.2826  -1.1910  -1.1783  -1.0846
    -0.7146  -0.6117  -0.5949  -0.4866  -0.0399   0.0311   0.0518   0.1386
     1.6043   1.6296   1.6634   1.7233   4.0431   4.0805   4.1070   4.1719
     4.9248   5.0212   5.0447   5.1449   5.1964   5.3007

          k = 0.2500 0.4330 0.0000 ( 35195 PWs)   bands (ev):

   -58.8610 -58.8475 -58.8122 -58.7618 -33.1621 -33.1502 -33.1133 -33.0644
   -33.0063 -32.9957 -32.9943 -32.9819 -32.9575 -32.9475 -32.9085 -32.8969
   -10.3060 -10.2625 -10.2468 -10.1815 -10.1025 -10.0712 -10.0409  -9.9792
    -3.2770  -3.1779  -3.1754  -3.0866  -3.0026  -2.9888  -2.9719  -2.9214
    -1.7396  -1.6927  -1.6210  -1.6085  -1.4008  -1.3154  -1.2362  -1.1038
    -0.9858  -0.9574  -0.9308  -0.8772   0.2383   0.2898   0.2925   0.3749
     1.4034   1.4202   1.4573   1.5108   3.9139   4.1068   4.1253   4.3189
     4.7481   4.8021   4.8062   4.9085   4.9556   5.0988

          k = 0.2500 0.5052 0.0000 ( 35193 PWs)   bands (ev):

   -58.8578 -58.8443 -58.8090 -58.7587 -33.1668 -33.1550 -33.1180 -33.0692
   -33.0389 -33.0269 -32.9901 -32.9895 -32.9757 -32.9413 -32.9411 -32.8907
   -10.1057 -10.0744 -10.0572 -10.0163  -9.9918  -9.9861  -9.9565  -9.9033
    -3.3101  -3.2811  -3.2785  -3.2212  -3.1578  -3.0906  -3.0801  -2.9998
    -1.8934  -1.7752  -1.7652  -1.7072  -1.3449  -1.2788  -1.2175  -1.2064
    -1.1596  -1.1497  -1.0574  -0.9880  -0.0389   0.0203   0.0291   0.1139
     1.6440   1.6603   1.6961   1.7489   3.9110   3.9668   3.9917   4.0712
     4.8927   4.9638   4.9850   5.0375   5.1769   5.2513

          k = 0.2500 0.5774 0.0000 ( 35190 PWs)   bands (ev):

   -58.8567 -58.8432 -58.8079 -58.7576 -33.1666 -33.1548 -33.1178 -33.0690
   -33.0521 -33.0401 -33.0033 -32.9874 -32.9735 -32.9543 -32.9392 -32.8885
   -10.0308 -10.0061  -9.9885  -9.9722  -9.9548  -9.9422  -9.9206  -9.8756
    -3.4095  -3.3852  -3.3793  -3.3207  -3.0734  -3.0226  -3.0205  -2.9495
    -2.0482  -1.9383  -1.9220  -1.8342  -1.3823  -1.2765  -1.2482  -1.1805
    -1.1044  -1.0654  -1.0106  -0.9544  -0.1589  -0.1153  -0.0992  -0.0227
     1.7707   1.7905   1.8249   1.8808   3.8386   3.8523   3.8843   3.9345
     4.9190   4.9805   5.0240   5.0430   5.3352   5.3751

          k = 0.3125 0.5413 0.0000 ( 35172 PWs)   bands (ev):

   -58.8561 -58.8426 -58.8073 -58.7570 -33.1456 -33.1338 -33.0968 -33.0806
   -33.0685 -33.0480 -33.0318 -32.9862 -32.9828 -32.9723 -32.9380 -32.8874
    -9.9943  -9.9725  -9.9571  -9.9470  -9.9349  -9.9185  -9.8946  -9.8566
    -3.4774  -3.4567  -3.4468  -3.3891  -2.8495  -2.7843  -2.7832  -2.7057
    -2.0400  -2.0283  -1.9992  -1.9613  -1.5595  -1.5321  -1.5308  -1.5010
    -1.0546  -0.9919  -0.9667  -0.8970  -0.2469  -0.1939  -0.1737  -0.0930
     1.8526   1.8689   1.9034   1.9562   3.7226   3.7350   3.7695   3.8189
     4.8562   4.8862   4.9469   4.9530   5.4301   5.5003

     the Fermi energy is     2.9657 ev

!    total energy              =   -1978.35990790 Ry
     total all-electron energy =    -38771.680753 Ry
     estimated scf accuracy    <          7.2E-09 Ry
     smearing contrib. (-TS)   =       0.00003380 Ry
     internal energy E=F+TS    =   -1978.35994171 Ry

     The total energy is F=E-TS. E is the sum of the following terms:
     one-electron contribution =  -14992.82858411 Ry
     hartree contribution      =    7518.00749677 Ry
     xc contribution           =    -119.22543823 Ry
     ewald contribution        =    6885.53913225 Ry
     one-center paw contrib.   =   -1269.85254839 Ry

     convergence has been achieved in  65 iterations

     Writing all to output data dir ./tmp/cleave2/cleave_dz012_dz2p4/mos2_cleave.save/ :
     XML data file, charge density, pseudopotentials, collected wavefunctions

     init_run     :    121.41s CPU    123.56s WALL (       1 calls)
     electrons    :  13142.22s CPU  13361.31s WALL (       1 calls)

     Called by init_run:
     wfcinit      :     74.19s CPU     74.88s WALL (       1 calls)
     potinit      :     43.63s CPU     44.05s WALL (       1 calls)
     hinit0       :      0.37s CPU      0.39s WALL (       1 calls)

     Called by electrons:
     c_bands      :  10900.62s CPU  10965.84s WALL (      66 calls)
     sum_band     :   1706.30s CPU   1777.54s WALL (      66 calls)
     v_of_rho     :    257.57s CPU    278.87s WALL (      66 calls)
     newd         :    203.84s CPU    265.18s WALL (      66 calls)
     PAW_pot      :     26.80s CPU     26.81s WALL (      66 calls)
     mix_rho      :     91.05s CPU     92.43s WALL (      66 calls)
     vdW_kernel   :     39.94s CPU     39.95s WALL (       1 calls)

     Called by c_bands:
     init_us_2    :     50.18s CPU     50.23s WALL (    3990 calls)
     init_us_2:cp :     50.17s CPU     50.22s WALL (    3990 calls)
     cegterg      :  10414.20s CPU  10478.93s WALL (    1980 calls)

     Called by *egterg:
     cdiaghg      :     15.47s CPU     15.48s WALL (    6116 calls)
     h_psi        :   5590.00s CPU   5615.05s WALL (    6176 calls)
     s_psi        :   1635.83s CPU   1636.27s WALL (    6176 calls)
     g_psi        :     23.71s CPU     23.72s WALL (    4166 calls)

     Called by h_psi:
     h_psi:calbec :   2128.49s CPU   2129.03s WALL (    6176 calls)
     vloc_psi     :   1814.44s CPU   1815.72s WALL (    6176 calls)
     add_vuspsi   :   1635.79s CPU   1636.17s WALL (    6176 calls)

     General routines
     calbec       :   3108.80s CPU   3109.59s WALL (    8156 calls)
     fft          :     83.38s CPU     83.41s WALL (    4157 calls)
     ffts         :     44.59s CPU     44.60s WALL (    8004 calls)
     fftw         :   1642.37s CPU   1643.27s WALL (  654496 calls)
     interpolate  :      1.98s CPU      1.98s WALL (      66 calls)

     Parallel routines

     PWSCF        :      3h41m CPU      3h44m WALL


   This run was terminated on:  17: 7:22  11Jun2026            

=------------------------------------------------------------------------------=
   JOB DONE.
=------------------------------------------------------------------------------=
Note: The following floating-point exceptions are signalling: IEEE_UNDERFLOW_FLAG IEEE_DENORMAL
