Authorization required, but no authorization protocol specified

Authorization required, but no authorization protocol specified

Authorization required, but no authorization protocol specified

Authorization required, but no authorization protocol specified

Authorization required, but no authorization protocol specified

Authorization required, but no authorization protocol specified

Authorization required, but no authorization protocol specified

Authorization required, but no authorization protocol specified


     Program PWSCF v.7.3 starts on 12Jun2026 at 20:20:56 

     This program is part of the open-source Quantum ESPRESSO suite
     for quantum simulation of materials; please cite
         "P. Giannozzi et al., J. Phys.:Condens. Matter 21 395502 (2009);
         "P. Giannozzi et al., J. Phys.:Condens. Matter 29 465901 (2017);
         "P. Giannozzi et al., J. Chem. Phys. 152 154105 (2020);
          URL http://www.quantum-espresso.org", 
     in publications or presentations arising from this work. More details at
     http://www.quantum-espresso.org/quote

     Parallel version (MPI), running on     1 processors

     MPI processes distributed on     1 nodes
     38477 MiB available memory on the printing compute node when the environment starts

     Waiting for input...
     Reading input from standard input

     Current dimensions of program PWSCF are:
     Max number of different atomic species (ntypx) = 10
     Max number of k-points (npk) =  40000
     Max angular momentum in pseudopotentials (lmaxx) =  4
     file Mo.pbe-spn-kjpaw_psl.1.0.0.UPF: wavefunction(s)  4S 4D renormalized
     file S.pbe-n-kjpaw_psl.1.0.0.UPF: wavefunction(s)  3S 3P renormalized

     IMPORTANT: XC functional enforced from input :
     Exchange-correlation= VDW-DF2-B86R
                           (   1   4  26   0   2   0   0)
     Any further DFT definition will be discarded
     Please, verify this is what you really want


     Subspace diagonalization in iterative solution of the eigenvalue problem:
     a serial algorithm will be used


     G-vector sticks info
     --------------------
     sticks:   dense  smooth     PW     G-vecs:    dense   smooth      PW
     Sum        1573     769    223               797393   281171   43435

     Using Slab Decomposition



     bravais-lattice index     =            4
     lattice parameter (alat)  =       5.9715  a.u.
     unit-cell volume          =    2917.9067 (a.u.)^3
     number of atoms/cell      =           12
     number of atomic types    =            2
     number of electrons       =       104.00
     number of Kohn-Sham states=           62
     kinetic-energy cutoff     =      80.0000  Ry
     charge density cutoff     =     640.0000  Ry
     scf convergence threshold =      1.0E-08
     mixing beta               =       0.2000
     number of iterations used =            8  local-TF  mixing
     Exchange-correlation= VDW-DF2-B86R
                           (   1   4  26   0   2   0   0)

     celldm(1)=   5.971535  celldm(2)=   0.000000  celldm(3)=  15.822785
     celldm(4)=   0.000000  celldm(5)=   0.000000  celldm(6)=   0.000000

     crystal axes: (cart. coord. in units of alat)
               a(1) = (   1.000000   0.000000   0.000000 )  
               a(2) = (  -0.500000   0.866025   0.000000 )  
               a(3) = (   0.000000   0.000000  15.822785 )  

     reciprocal axes: (cart. coord. in units 2 pi/alat)
               b(1) = (  1.000000  0.577350 -0.000000 )  
               b(2) = (  0.000000  1.154701  0.000000 )  
               b(3) = (  0.000000 -0.000000  0.063200 )  


     PseudoPot. # 1 for Mo read from file:
     ./pseudo/Mo.pbe-spn-kjpaw_psl.1.0.0.UPF
     MD5 check sum: 4396e0c640fcce5c25f020efccf1ab12
     Pseudo is Projector augmented-wave + core cor, Zval = 14.0
     Generated using &quot;atomic&quot; code by A. Dal Corso  v.6.3
     Shape of augmentation charge: PSQ
     Using radial grid of 1229 points,  6 beta functions with: 
                l(1) =   0
                l(2) =   0
                l(3) =   1
                l(4) =   1
                l(5) =   2
                l(6) =   2
     Q(r) pseudized with 0 coefficients 


     PseudoPot. # 2 for S  read from file:
     ./pseudo/S.pbe-n-kjpaw_psl.1.0.0.UPF
     MD5 check sum: fb45dfebcf3e72a4e1bd4a866ec2e262
     Pseudo is Projector augmented-wave + core cor, Zval =  6.0
     Generated using &quot;atomic&quot; code by A. Dal Corso  v.6.3
     Shape of augmentation charge: PSQ
     Using radial grid of 1151 points,  6 beta functions with: 
                l(1) =   0
                l(2) =   0
                l(3) =   1
                l(4) =   1
                l(5) =   2
                l(6) =   2
     Q(r) pseudized with 0 coefficients 


     atomic species   valence    mass     pseudopotential
     Mo               14.00    95.96000     Mo( 1.00)
     S                 6.00    32.06000     S ( 1.00)

      6 Sym. Ops. (no inversion) found



   Cartesian axes

     site n.     atom                  positions (alat units)
         1        S      tau(   1) = (  -0.0000005   0.5773503  -0.9967195  )
         2        Mo     tau(   2) = (   0.0000000   0.0000000  -0.4993332  )
         3        S      tau(   3) = (  -0.0000005   0.5773503  -0.0017175  )
         4        S      tau(   4) = (   0.5000003   0.2886747   0.9835827  )
         5        Mo     tau(   5) = (  -0.0000005   0.5773503   1.4818950  )
         6        S      tau(   6) = (   0.5000003   0.2886747   1.9798512  )
         7        S      tau(   7) = (   0.0000000   0.0000000   2.9586848  )
         8        Mo     tau(   8) = (   0.5000003   0.2886747   3.4569999  )
         9        S      tau(   9) = (   0.0000000   0.0000000   3.9548385  )
        10        S      tau(  10) = (  -0.0000005   0.5773503   6.1865844  )
        11        Mo     tau(  11) = (   0.0000000   0.0000000   6.6842210  )
        12        S      tau(  12) = (  -0.0000005   0.5773503   7.1813551  )

     number of k points=    30  Methfessel-Paxton smearing, width (Ry)=  0.0200
                       cart. coord. in units 2pi/alat
        k(    1) = (   0.0000000   0.0000000   0.0000000), wk =   0.0078125
        k(    2) = (   0.0000000   0.0721688   0.0000000), wk =   0.0468750
        k(    3) = (   0.0000000   0.1443376   0.0000000), wk =   0.0468750
        k(    4) = (   0.0000000   0.2165064   0.0000000), wk =   0.0468750
        k(    5) = (   0.0000000   0.2886751   0.0000000), wk =   0.0468750
        k(    6) = (   0.0000000   0.3608439   0.0000000), wk =   0.0468750
        k(    7) = (   0.0000000   0.4330127   0.0000000), wk =   0.0468750
        k(    8) = (   0.0000000   0.5051815   0.0000000), wk =   0.0468750
        k(    9) = (   0.0000000  -0.5773503   0.0000000), wk =   0.0234375
        k(   10) = (   0.0625000   0.1082532   0.0000000), wk =   0.0468750
        k(   11) = (   0.0625000   0.1804220   0.0000000), wk =   0.0937500
        k(   12) = (   0.0625000   0.2525907   0.0000000), wk =   0.0937500
        k(   13) = (   0.0625000   0.3247595   0.0000000), wk =   0.0937500
        k(   14) = (   0.0625000   0.3969283   0.0000000), wk =   0.0937500
        k(   15) = (   0.0625000   0.4690971   0.0000000), wk =   0.0937500
        k(   16) = (   0.0625000   0.5412659   0.0000000), wk =   0.0937500
        k(   17) = (   0.1250000   0.2165064   0.0000000), wk =   0.0468750
        k(   18) = (   0.1250000   0.2886751   0.0000000), wk =   0.0937500
        k(   19) = (   0.1250000   0.3608439   0.0000000), wk =   0.0937500
        k(   20) = (   0.1250000   0.4330127   0.0000000), wk =   0.0937500
        k(   21) = (   0.1250000   0.5051815   0.0000000), wk =   0.0937500
        k(   22) = (   0.1250000   0.5773503   0.0000000), wk =   0.0468750
        k(   23) = (   0.1875000   0.3247595   0.0000000), wk =   0.0468750
        k(   24) = (   0.1875000   0.3969283   0.0000000), wk =   0.0937500
        k(   25) = (   0.1875000   0.4690971   0.0000000), wk =   0.0937500
        k(   26) = (   0.1875000   0.5412659   0.0000000), wk =   0.0937500
        k(   27) = (   0.2500000   0.4330127   0.0000000), wk =   0.0468750
        k(   28) = (   0.2500000   0.5051815   0.0000000), wk =   0.0937500
        k(   29) = (   0.2500000   0.5773503   0.0000000), wk =   0.0468750
        k(   30) = (   0.3125000   0.5412659   0.0000000), wk =   0.0468750

     Dense  grid:   797393 G-vectors     FFT dimensions: (  50,  50, 768)

     Smooth grid:   281171 G-vectors     FFT dimensions: (  36,  36, 540)

     Estimated max dynamical RAM per process >       3.90 GB

     Initial potential from superposition of free atoms

     starting charge     103.9962, renormalised to     104.0000

     negative rho (up, down):  1.320E-04 0.000E+00


     %%%%%%%%%%%%%%%%%%%%%%%%%%%%%%%%%%%%%%%%%%%%%%%%%%%%%%%%%%%%%%%%%%%%%%%%
     %                                                                      %
     % You are using vdW-DF, which was implemented by the Thonhauser group. %
     % Please cite the following two papers that made this development      %
     % possible and the two reviews that describe the various versions:     %
     %                                                                      %
     %   T. Thonhauser et al., PRL 115, 136402 (2015).                      %
     %   T. Thonhauser et al., PRB 76, 125112 (2007).                       %
     %   K. Berland et al., Rep. Prog. Phys. 78, 066501 (2015).             %
     %   D.C. Langreth et al., J. Phys.: Condens. Matter 21, 084203 (2009). %
     %                                                                      %
     % If you are calculating stress with vdW-DF, please also cite:         %
     %                                                                      %
     %   R. Sabatini et al., J. Phys.: Condens. Matter 24, 424209 (2012).   %
     %                                                                      %
     %%%%%%%%%%%%%%%%%%%%%%%%%%%%%%%%%%%%%%%%%%%%%%%%%%%%%%%%%%%%%%%%%%%%%%%%

     %%%%%%%%%%%%%%%%%%%%%%%%%%%%%%%%%%%%%%%%%%%%%%%%%%%%%%%%%%%%%%%%%%%%%%%%
     %                                                                      %
     %  vdW-DF NEWS:                                                        %
     %                                                                      %
     %  * vdW-DF3 is now available. DOI: 10.1021/acs.jctc.0c00471           %
     %    use with input_dft = 'vdW-DF3-opt1' or 'vdW-DF3-opt2'             %
     %                                                                      %
     %  * Unscreened and range-separated hybrid vdW-DF-cx functionals       %
     %    DOI: 10.1063/1.4986522 and 10.1088/1361-648X/ac2ad2               %
     %    use with input_dft = 'vdW-DF-cx0'    and 'vdW-DF-ahcx'            %
     %  * Unscreened and range-separated hybrid vdW-DF2-b86r functionals    %
     %    DOI: 10.1063/1.4986522 and DOI: 10.1103/PhysRevX.12.041003        %
     %    use with input_dft = 'vdW-DF2-br0' and 'vdW-DF2-ahbr'             %
     %                                                                      %
     %%%%%%%%%%%%%%%%%%%%%%%%%%%%%%%%%%%%%%%%%%%%%%%%%%%%%%%%%%%%%%%%%%%%%%%%


     Starting wfcs are   72 randomized atomic wfcs
     Checking if some PAW data can be deallocated... 

     total cpu time spent up to now is      124.4 secs

     Self-consistent Calculation

     iteration #  1     ecut=    80.00 Ry     beta= 0.20
     Davidson diagonalization with overlap
     ethr =  1.00E-02,  avg # of iterations =  2.3

     Threshold (ethr) on eigenvalues was too large:
     Diagonalizing with lowered threshold

     Davidson diagonalization with overlap
     ethr =  2.87E-04,  avg # of iterations =  3.7

     negative rho (up, down):  2.426E-05 0.000E+00

     total cpu time spent up to now is      600.4 secs

     total energy              =   -1978.45422184 Ry
     estimated scf accuracy    <       0.44925899 Ry

     iteration #  2     ecut=    80.00 Ry     beta= 0.20
     Davidson diagonalization with overlap
     ethr =  4.32E-04,  avg # of iterations =  1.0

     negative rho (up, down):  2.698E-06 0.000E+00

     total cpu time spent up to now is      780.2 secs

     total energy              =   -1978.27569130 Ry
     estimated scf accuracy    <       0.37164593 Ry

     iteration #  3     ecut=    80.00 Ry     beta= 0.20
     Davidson diagonalization with overlap
     ethr =  3.57E-04,  avg # of iterations =  2.0

     negative rho (up, down):  3.757E-07 0.000E+00

     total cpu time spent up to now is     1016.7 secs

     total energy              =   -1978.35510658 Ry
     estimated scf accuracy    <       0.04864621 Ry

     iteration #  4     ecut=    80.00 Ry     beta= 0.20
     Davidson diagonalization with overlap
     ethr =  4.68E-05,  avg # of iterations =  2.2

     negative rho (up, down):  6.197E-08 0.000E+00

     total cpu time spent up to now is     1248.7 secs

     total energy              =   -1978.35788330 Ry
     estimated scf accuracy    <       0.02099213 Ry

     iteration #  5     ecut=    80.00 Ry     beta= 0.20
     Davidson diagonalization with overlap
     ethr =  2.02E-05,  avg # of iterations =  3.0

     negative rho (up, down):  3.558E-08 0.000E+00

     total cpu time spent up to now is     1459.7 secs

     total energy              =   -1978.35960259 Ry
     estimated scf accuracy    <       0.00521447 Ry

     iteration #  6     ecut=    80.00 Ry     beta= 0.20
     Davidson diagonalization with overlap
     c_bands:  1 eigenvalues not converged
     ethr =  5.01E-06,  avg # of iterations =  5.6

     negative rho (up, down):  4.279E-07 0.000E+00

     total cpu time spent up to now is     1673.0 secs

     total energy              =   -1978.35797209 Ry
     estimated scf accuracy    <       0.00460638 Ry

     iteration #  7     ecut=    80.00 Ry     beta= 0.20
     Davidson diagonalization with overlap
     c_bands:  1 eigenvalues not converged
     c_bands:  1 eigenvalues not converged
     ethr =  4.43E-06,  avg # of iterations =  5.5

     negative rho (up, down):  3.542E-08 0.000E+00

     total cpu time spent up to now is     1956.4 secs

     total energy              =   -1978.35725891 Ry
     estimated scf accuracy    <       0.01562040 Ry

     iteration #  8     ecut=    80.00 Ry     beta= 0.20
     Davidson diagonalization with overlap
     c_bands:  1 eigenvalues not converged
     ethr =  4.43E-06,  avg # of iterations =  4.4

     negative rho (up, down):  2.763E-07 0.000E+00

     total cpu time spent up to now is     2183.9 secs

     total energy              =   -1978.35754549 Ry
     estimated scf accuracy    <       0.00323827 Ry

     iteration #  9     ecut=    80.00 Ry     beta= 0.20
     Davidson diagonalization with overlap
     ethr =  3.11E-06,  avg # of iterations =  5.5

     negative rho (up, down):  1.094E-04 0.000E+00

     total cpu time spent up to now is     2417.4 secs

     total energy              =   -1978.35807258 Ry
     estimated scf accuracy    <       0.00240700 Ry

     iteration # 10     ecut=    80.00 Ry     beta= 0.20
     Davidson diagonalization with overlap
     c_bands:  1 eigenvalues not converged
     ethr =  2.31E-06,  avg # of iterations =  2.5

     negative rho (up, down):  6.345E-03 0.000E+00

     total cpu time spent up to now is     2616.3 secs

     total energy              =   -1978.35737815 Ry
     estimated scf accuracy    <       0.00213849 Ry

     iteration # 11     ecut=    80.00 Ry     beta= 0.20
     Davidson diagonalization with overlap
     c_bands:  1 eigenvalues not converged
     c_bands:  1 eigenvalues not converged
     ethr =  2.06E-06,  avg # of iterations =  7.5

     negative rho (up, down):  5.394E-03 0.000E+00

     total cpu time spent up to now is     2847.7 secs

     total energy              =   -1978.35792290 Ry
     estimated scf accuracy    <       0.00094899 Ry

     iteration # 12     ecut=    80.00 Ry     beta= 0.20
     Davidson diagonalization with overlap
     c_bands:  1 eigenvalues not converged
     ethr =  9.12E-07,  avg # of iterations =  5.1

     negative rho (up, down):  1.646E-03 0.000E+00

     total cpu time spent up to now is     3066.3 secs

     total energy              =   -1978.35763042 Ry
     estimated scf accuracy    <       0.00248116 Ry

     iteration # 13     ecut=    80.00 Ry     beta= 0.20
     Davidson diagonalization with overlap
     ethr =  9.12E-07,  avg # of iterations =  2.9

     negative rho (up, down):  5.048E-03 0.000E+00

     total cpu time spent up to now is     3289.6 secs

     total energy              =   -1978.35780906 Ry
     estimated scf accuracy    <       0.00039879 Ry

     iteration # 14     ecut=    80.00 Ry     beta= 0.20
     Davidson diagonalization with overlap
     ethr =  3.83E-07,  avg # of iterations =  2.2

     negative rho (up, down):  4.535E-03 0.000E+00

     total cpu time spent up to now is     3492.4 secs

     total energy              =   -1978.35787959 Ry
     estimated scf accuracy    <       0.00031645 Ry

     iteration # 15     ecut=    80.00 Ry     beta= 0.20
     Davidson diagonalization with overlap
     c_bands:  2 eigenvalues not converged
     ethr =  3.04E-07,  avg # of iterations =  2.2

     negative rho (up, down):  2.368E-03 0.000E+00

     total cpu time spent up to now is     3685.7 secs

     total energy              =   -1978.35778036 Ry
     estimated scf accuracy    <       0.00033356 Ry

     iteration # 16     ecut=    80.00 Ry     beta= 0.20
     Davidson diagonalization with overlap
     ethr =  3.04E-07,  avg # of iterations =  5.5

     negative rho (up, down):  2.312E-03 0.000E+00

     total cpu time spent up to now is     3917.7 secs

     total energy              =   -1978.35787057 Ry
     estimated scf accuracy    <       0.00012035 Ry

     iteration # 17     ecut=    80.00 Ry     beta= 0.20
     Davidson diagonalization with overlap
     ethr =  1.16E-07,  avg # of iterations =  2.1

     negative rho (up, down):  7.461E-04 0.000E+00

     total cpu time spent up to now is     4115.5 secs

     total energy              =   -1978.35788244 Ry
     estimated scf accuracy    <       0.00013716 Ry

     iteration # 18     ecut=    80.00 Ry     beta= 0.20
     Davidson diagonalization with overlap
     ethr =  1.16E-07,  avg # of iterations =  1.3

     negative rho (up, down):  3.833E-04 0.000E+00

     total cpu time spent up to now is     4300.6 secs

     total energy              =   -1978.35788716 Ry
     estimated scf accuracy    <       0.00007677 Ry

     iteration # 19     ecut=    80.00 Ry     beta= 0.20
     Davidson diagonalization with overlap
     ethr =  7.38E-08,  avg # of iterations =  2.3

     negative rho (up, down):  3.402E-04 0.000E+00

     total cpu time spent up to now is     4499.7 secs

     total energy              =   -1978.35789229 Ry
     estimated scf accuracy    <       0.00003936 Ry

     iteration # 20     ecut=    80.00 Ry     beta= 0.20
     Davidson diagonalization with overlap
     ethr =  3.79E-08,  avg # of iterations =  1.1

     negative rho (up, down):  2.992E-04 0.000E+00

     total cpu time spent up to now is     4681.7 secs

     total energy              =   -1978.35789143 Ry
     estimated scf accuracy    <       0.00003709 Ry

     iteration # 21     ecut=    80.00 Ry     beta= 0.20
     Davidson diagonalization with overlap
     ethr =  3.57E-08,  avg # of iterations =  1.5

     negative rho (up, down):  4.039E-04 0.000E+00

     total cpu time spent up to now is     4870.6 secs

     total energy              =   -1978.35789111 Ry
     estimated scf accuracy    <       0.00003374 Ry

     iteration # 22     ecut=    80.00 Ry     beta= 0.20
     Davidson diagonalization with overlap
     ethr =  3.24E-08,  avg # of iterations =  1.1

     negative rho (up, down):  4.243E-04 0.000E+00

     total cpu time spent up to now is     5052.8 secs

     total energy              =   -1978.35789165 Ry
     estimated scf accuracy    <       0.00003280 Ry

     iteration # 23     ecut=    80.00 Ry     beta= 0.20
     Davidson diagonalization with overlap
     ethr =  3.15E-08,  avg # of iterations =  1.2

     negative rho (up, down):  5.912E-04 0.000E+00

     total cpu time spent up to now is     5236.7 secs

     total energy              =   -1978.35788968 Ry
     estimated scf accuracy    <       0.00003135 Ry

     iteration # 24     ecut=    80.00 Ry     beta= 0.20
     Davidson diagonalization with overlap
     ethr =  3.01E-08,  avg # of iterations =  1.3

     negative rho (up, down):  7.637E-04 0.000E+00

     total cpu time spent up to now is     5422.4 secs

     total energy              =   -1978.35788315 Ry
     estimated scf accuracy    <       0.00002583 Ry

     iteration # 25     ecut=    80.00 Ry     beta= 0.20
     Davidson diagonalization with overlap
     ethr =  2.48E-08,  avg # of iterations =  2.0

     negative rho (up, down):  5.216E-04 0.000E+00

     total cpu time spent up to now is     5623.9 secs

     total energy              =   -1978.35788132 Ry
     estimated scf accuracy    <       0.00002811 Ry

     iteration # 26     ecut=    80.00 Ry     beta= 0.20
     Davidson diagonalization with overlap
     ethr =  2.48E-08,  avg # of iterations =  1.3

     negative rho (up, down):  5.235E-04 0.000E+00

     total cpu time spent up to now is     5809.7 secs

     total energy              =   -1978.35788543 Ry
     estimated scf accuracy    <       0.00002056 Ry

     iteration # 27     ecut=    80.00 Ry     beta= 0.20
     Davidson diagonalization with overlap
     ethr =  1.98E-08,  avg # of iterations =  2.8

     negative rho (up, down):  5.743E-04 0.000E+00

     total cpu time spent up to now is     6020.9 secs

     total energy              =   -1978.35788375 Ry
     estimated scf accuracy    <       0.00002740 Ry

     iteration # 28     ecut=    80.00 Ry     beta= 0.20
     Davidson diagonalization with overlap
     ethr =  1.98E-08,  avg # of iterations =  2.1

     negative rho (up, down):  7.329E-04 0.000E+00

     total cpu time spent up to now is     6224.7 secs

     total energy              =   -1978.35788463 Ry
     estimated scf accuracy    <       0.00001388 Ry

     iteration # 29     ecut=    80.00 Ry     beta= 0.20
     Davidson diagonalization with overlap
     ethr =  1.33E-08,  avg # of iterations =  1.3

     negative rho (up, down):  6.584E-04 0.000E+00

     total cpu time spent up to now is     6409.7 secs

     total energy              =   -1978.35788447 Ry
     estimated scf accuracy    <       0.00001265 Ry

     iteration # 30     ecut=    80.00 Ry     beta= 0.20
     Davidson diagonalization with overlap
     ethr =  1.22E-08,  avg # of iterations =  1.2

     negative rho (up, down):  6.175E-04 0.000E+00

     total cpu time spent up to now is     6592.7 secs

     total energy              =   -1978.35788392 Ry
     estimated scf accuracy    <       0.00001140 Ry

     iteration # 31     ecut=    80.00 Ry     beta= 0.20
     Davidson diagonalization with overlap
     ethr =  1.10E-08,  avg # of iterations =  1.0

     negative rho (up, down):  4.865E-04 0.000E+00

     total cpu time spent up to now is     6774.4 secs

     total energy              =   -1978.35788306 Ry
     estimated scf accuracy    <       0.00001101 Ry

     iteration # 32     ecut=    80.00 Ry     beta= 0.20
     Davidson diagonalization with overlap
     ethr =  1.06E-08,  avg # of iterations =  1.0

     negative rho (up, down):  5.596E-04 0.000E+00

     total cpu time spent up to now is     6953.8 secs

     total energy              =   -1978.35788056 Ry
     estimated scf accuracy    <       0.00001024 Ry

     iteration # 33     ecut=    80.00 Ry     beta= 0.20
     Davidson diagonalization with overlap
     ethr =  9.85E-09,  avg # of iterations =  1.2

     negative rho (up, down):  7.026E-04 0.000E+00

     total cpu time spent up to now is     7138.3 secs

     total energy              =   -1978.35788073 Ry
     estimated scf accuracy    <       0.00000947 Ry

     iteration # 34     ecut=    80.00 Ry     beta= 0.20
     Davidson diagonalization with overlap
     ethr =  9.11E-09,  avg # of iterations =  1.1

     negative rho (up, down):  5.891E-04 0.000E+00

     total cpu time spent up to now is     7320.1 secs

     total energy              =   -1978.35788071 Ry
     estimated scf accuracy    <       0.00000938 Ry

     iteration # 35     ecut=    80.00 Ry     beta= 0.20
     Davidson diagonalization with overlap
     ethr =  9.02E-09,  avg # of iterations =  1.0

     negative rho (up, down):  4.712E-04 0.000E+00

     total cpu time spent up to now is     7500.5 secs

     total energy              =   -1978.35788059 Ry
     estimated scf accuracy    <       0.00000906 Ry

     iteration # 36     ecut=    80.00 Ry     beta= 0.20
     Davidson diagonalization with overlap
     ethr =  8.72E-09,  avg # of iterations =  1.0

     negative rho (up, down):  2.862E-04 0.000E+00

     total cpu time spent up to now is     7679.9 secs

     total energy              =   -1978.35788099 Ry
     estimated scf accuracy    <       0.00000893 Ry

     iteration # 37     ecut=    80.00 Ry     beta= 0.20
     Davidson diagonalization with overlap
     ethr =  8.59E-09,  avg # of iterations =  1.1

     negative rho (up, down):  2.102E-04 0.000E+00

     total cpu time spent up to now is     7860.6 secs

     total energy              =   -1978.35788240 Ry
     estimated scf accuracy    <       0.00000813 Ry

     iteration # 38     ecut=    80.00 Ry     beta= 0.20
     Davidson diagonalization with overlap
     ethr =  7.81E-09,  avg # of iterations =  1.9

     negative rho (up, down):  2.491E-04 0.000E+00

     total cpu time spent up to now is     8054.5 secs

     total energy              =   -1978.35788183 Ry
     estimated scf accuracy    <       0.00000663 Ry

     iteration # 39     ecut=    80.00 Ry     beta= 0.20
     Davidson diagonalization with overlap
     ethr =  6.37E-09,  avg # of iterations =  1.5

     negative rho (up, down):  3.662E-04 0.000E+00

     total cpu time spent up to now is     8244.3 secs

     total energy              =   -1978.35788065 Ry
     estimated scf accuracy    <       0.00000593 Ry

     iteration # 40     ecut=    80.00 Ry     beta= 0.20
     Davidson diagonalization with overlap
     ethr =  5.71E-09,  avg # of iterations =  1.4

     negative rho (up, down):  3.015E-04 0.000E+00

     total cpu time spent up to now is     8432.7 secs

     total energy              =   -1978.35788010 Ry
     estimated scf accuracy    <       0.00000465 Ry

     iteration # 41     ecut=    80.00 Ry     beta= 0.20
     Davidson diagonalization with overlap
     ethr =  4.47E-09,  avg # of iterations =  1.2

     negative rho (up, down):  1.961E-04 0.000E+00

     total cpu time spent up to now is     8617.3 secs

     total energy              =   -1978.35787893 Ry
     estimated scf accuracy    <       0.00000386 Ry

     iteration # 42     ecut=    80.00 Ry     beta= 0.20
     Davidson diagonalization with overlap
     c_bands:  1 eigenvalues not converged
     c_bands:  1 eigenvalues not converged
     ethr =  3.71E-09,  avg # of iterations =  2.6

     negative rho (up, down):  1.863E-04 0.000E+00

     total cpu time spent up to now is     8807.0 secs

     total energy              =   -1978.35787928 Ry
     estimated scf accuracy    <       0.00000278 Ry

     iteration # 43     ecut=    80.00 Ry     beta= 0.20
     Davidson diagonalization with overlap
     ethr =  2.68E-09,  avg # of iterations =  1.2

     negative rho (up, down):  1.500E-04 0.000E+00

     total cpu time spent up to now is     8991.2 secs

     total energy              =   -1978.35787845 Ry
     estimated scf accuracy    <       0.00000233 Ry

     iteration # 44     ecut=    80.00 Ry     beta= 0.20
     Davidson diagonalization with overlap
     ethr =  2.24E-09,  avg # of iterations =  2.2

     negative rho (up, down):  1.390E-04 0.000E+00

     total cpu time spent up to now is     9196.0 secs

     total energy              =   -1978.35787880 Ry
     estimated scf accuracy    <       0.00000112 Ry

     iteration # 45     ecut=    80.00 Ry     beta= 0.20
     Davidson diagonalization with overlap
     ethr =  1.07E-09,  avg # of iterations =  1.1

     negative rho (up, down):  1.160E-04 0.000E+00

     total cpu time spent up to now is     9377.9 secs

     total energy              =   -1978.35787907 Ry
     estimated scf accuracy    <       0.00000097 Ry

     iteration # 46     ecut=    80.00 Ry     beta= 0.20
     Davidson diagonalization with overlap
     ethr =  9.36E-10,  avg # of iterations =  2.1

     negative rho (up, down):  1.738E-04 0.000E+00

     total cpu time spent up to now is     9578.6 secs

     total energy              =   -1978.35787802 Ry
     estimated scf accuracy    <       0.00000072 Ry

     iteration # 47     ecut=    80.00 Ry     beta= 0.20
     Davidson diagonalization with overlap
     ethr =  6.88E-10,  avg # of iterations =  1.4

     negative rho (up, down):  2.391E-04 0.000E+00

     total cpu time spent up to now is     9765.9 secs

     total energy              =   -1978.35787680 Ry
     estimated scf accuracy    <       0.00000063 Ry

     iteration # 48     ecut=    80.00 Ry     beta= 0.20
     Davidson diagonalization with overlap
     ethr =  6.06E-10,  avg # of iterations =  2.0

     negative rho (up, down):  2.620E-04 0.000E+00

     total cpu time spent up to now is     9966.7 secs

     total energy              =   -1978.35787684 Ry
     estimated scf accuracy    <       0.00000037 Ry

     iteration # 49     ecut=    80.00 Ry     beta= 0.20
     Davidson diagonalization with overlap
     ethr =  3.58E-10,  avg # of iterations =  1.9

     negative rho (up, down):  2.542E-04 0.000E+00

     total cpu time spent up to now is    10162.4 secs

     total energy              =   -1978.35787695 Ry
     estimated scf accuracy    <       0.00000032 Ry

     iteration # 50     ecut=    80.00 Ry     beta= 0.20
     Davidson diagonalization with overlap
     ethr =  3.05E-10,  avg # of iterations =  1.2

     negative rho (up, down):  1.733E-04 0.000E+00

     total cpu time spent up to now is    10347.7 secs

     total energy              =   -1978.35787744 Ry
     estimated scf accuracy    <       0.00000026 Ry

     iteration # 51     ecut=    80.00 Ry     beta= 0.20
     Davidson diagonalization with overlap
     ethr =  2.53E-10,  avg # of iterations =  2.0

     negative rho (up, down):  1.480E-04 0.000E+00

     total cpu time spent up to now is    10545.8 secs

     total energy              =   -1978.35787811 Ry
     estimated scf accuracy    <       0.00000018 Ry

     iteration # 52     ecut=    80.00 Ry     beta= 0.20
     Davidson diagonalization with overlap
     ethr =  1.68E-10,  avg # of iterations =  2.0

     negative rho (up, down):  1.486E-04 0.000E+00

     total cpu time spent up to now is    10747.3 secs

     total energy              =   -1978.35787815 Ry
     estimated scf accuracy    <       0.00000016 Ry

     iteration # 53     ecut=    80.00 Ry     beta= 0.20
     Davidson diagonalization with overlap
     ethr =  1.56E-10,  avg # of iterations =  1.0

     negative rho (up, down):  1.488E-04 0.000E+00

     total cpu time spent up to now is    10928.4 secs

     total energy              =   -1978.35787812 Ry
     estimated scf accuracy    <       0.00000016 Ry

     iteration # 54     ecut=    80.00 Ry     beta= 0.20
     Davidson diagonalization with overlap
     ethr =  1.51E-10,  avg # of iterations =  1.0

     negative rho (up, down):  1.484E-04 0.000E+00

     total cpu time spent up to now is    11108.4 secs

     total energy              =   -1978.35787784 Ry
     estimated scf accuracy    <       0.00000017 Ry

     iteration # 55     ecut=    80.00 Ry     beta= 0.20
     Davidson diagonalization with overlap
     ethr =  1.51E-10,  avg # of iterations =  1.2

     negative rho (up, down):  1.413E-04 0.000E+00

     total cpu time spent up to now is    11292.1 secs

     total energy              =   -1978.35787799 Ry
     estimated scf accuracy    <       0.00000013 Ry

     iteration # 56     ecut=    80.00 Ry     beta= 0.20
     Davidson diagonalization with overlap
     ethr =  1.28E-10,  avg # of iterations =  1.3

     negative rho (up, down):  1.545E-04 0.000E+00

     total cpu time spent up to now is    11478.5 secs

     total energy              =   -1978.35787840 Ry
     estimated scf accuracy    <       0.00000010 Ry

     iteration # 57     ecut=    80.00 Ry     beta= 0.20
     Davidson diagonalization with overlap
     ethr =  1.00E-10,  avg # of iterations =  2.2

     negative rho (up, down):  1.608E-04 0.000E+00

     total cpu time spent up to now is    11680.7 secs

     total energy              =   -1978.35787831 Ry
     estimated scf accuracy    <       0.00000006 Ry

     iteration # 58     ecut=    80.00 Ry     beta= 0.20
     Davidson diagonalization with overlap
     ethr =  5.78E-11,  avg # of iterations =  1.0

     negative rho (up, down):  1.618E-04 0.000E+00

     total cpu time spent up to now is    11860.1 secs

     total energy              =   -1978.35787817 Ry
     estimated scf accuracy    <       0.00000005 Ry

     iteration # 59     ecut=    80.00 Ry     beta= 0.20
     Davidson diagonalization with overlap
     ethr =  4.71E-11,  avg # of iterations =  1.4

     negative rho (up, down):  1.835E-04 0.000E+00

     total cpu time spent up to now is    12049.7 secs

     total energy              =   -1978.35787793 Ry
     estimated scf accuracy    <       0.00000003 Ry

     iteration # 60     ecut=    80.00 Ry     beta= 0.20
     Davidson diagonalization with overlap
     ethr =  3.15E-11,  avg # of iterations =  2.1

     negative rho (up, down):  1.853E-04 0.000E+00

     total cpu time spent up to now is    12255.1 secs

     total energy              =   -1978.35787799 Ry
     estimated scf accuracy    <       0.00000002 Ry

     iteration # 61     ecut=    80.00 Ry     beta= 0.20
     Davidson diagonalization with overlap
     ethr =  1.71E-11,  avg # of iterations =  1.6

     negative rho (up, down):  1.796E-04 0.000E+00

     total cpu time spent up to now is    12447.0 secs

     total energy              =   -1978.35787809 Ry
     estimated scf accuracy    <       0.00000001 Ry

     iteration # 62     ecut=    80.00 Ry     beta= 0.20
     Davidson diagonalization with overlap
     ethr =  1.39E-11,  avg # of iterations =  1.8

     negative rho (up, down):  1.717E-04 0.000E+00

     total cpu time spent up to now is    12643.4 secs

     total energy              =   -1978.35787822 Ry
     estimated scf accuracy    <       0.00000001 Ry

     iteration # 63     ecut=    80.00 Ry     beta= 0.20
     Davidson diagonalization with overlap
     ethr =  1.11E-11,  avg # of iterations =  1.7

     negative rho (up, down):  1.548E-04 0.000E+00

     total cpu time spent up to now is    12836.5 secs

     End of self-consistent calculation

          k = 0.0000 0.0000 0.0000 ( 35507 PWs)   bands (ev):

   -58.8995 -58.8781 -58.8511 -58.8013 -33.0734 -33.0518 -33.0256 -32.9756
   -32.8360 -32.8360 -32.8160 -32.8159 -32.7876 -32.7876 -32.7389 -32.7389
   -12.2428 -12.1529 -12.1447 -12.0469 -11.0081 -10.8661 -10.8501 -10.7159
    -4.0406  -3.7064  -3.6786  -3.3545  -0.6218  -0.6218  -0.6100  -0.6100
    -0.6023  -0.5758  -0.5758  -0.5343  -0.5343   0.0519   0.0799   0.4925
     0.4925   0.5090   0.5091   0.5384   0.5385   0.5841   0.5841   0.8216
     1.5999   1.8346   2.1324   2.4597   4.7242   4.7243   4.7684   4.7685
     4.7759   4.7760   4.8342   4.8342   4.9385   4.9386

          k = 0.0000 0.0722 0.0000 ( 35493 PWs)   bands (ev):

   -58.8979 -58.8765 -58.8495 -58.7997 -33.0704 -33.0488 -33.0226 -32.9726
   -32.8516 -32.8396 -32.8315 -32.8195 -32.8031 -32.7911 -32.7545 -32.7425
   -12.1831 -12.0935 -12.0854 -11.9878 -10.9805 -10.8412 -10.8248 -10.6927
    -3.9718  -3.6389  -3.6095  -3.2866  -0.7590  -0.7443  -0.7383  -0.7114
    -0.6684  -0.5596  -0.5475  -0.5136  -0.4718  -0.2079  -0.1983   0.1775
     0.3953   0.4124   0.4416   0.4878   0.5981   0.7055   0.7093   1.0623
     1.6017   1.8152   2.0978   2.3799   4.6491   4.6778   4.6960   4.7508
     4.7832   4.8088   4.8446   4.8622   4.8646   4.8924

          k = 0.0000 0.1443 0.0000 ( 35435 PWs)   bands (ev):

   -58.8935 -58.8721 -58.8451 -58.7953 -33.0617 -33.0401 -33.0139 -32.9639
   -32.8956 -32.8756 -32.8496 -32.8472 -32.8295 -32.8011 -32.7986 -32.7525
   -12.0092 -11.9204 -11.9126 -11.8156 -10.8999 -10.7687 -10.7512 -10.6254
    -3.7801  -3.4532  -3.4187  -3.1014  -1.1103  -1.0904  -1.0664  -1.0525
    -1.0089  -0.6663  -0.6305  -0.3805  -0.3673  -0.3378  -0.3344  -0.2917
     0.1441   0.1624   0.1912   0.2384   0.6583   0.8413   0.8710   1.2123
     1.5695   1.7259   1.9438   2.1227   4.3678   4.4166   4.4604   4.5176
     4.5481   4.5934   4.6660   4.6666   4.7209   4.7438

          k = 0.0000 0.2165 0.0000 ( 35345 PWs)   bands (ev):

   -58.8868 -58.8655 -58.8384 -58.7886 -33.0488 -33.0271 -33.0009 -32.9610
   -32.9509 -32.9411 -32.9126 -32.8646 -32.8640 -32.8445 -32.8161 -32.7675
   -11.7357 -11.6490 -11.6415 -11.5462 -10.7736 -10.6553 -10.6363 -10.5204
    -3.5203  -3.2123  -3.1713  -2.8749  -1.5471  -1.5128  -1.5000  -1.4685
    -1.3945  -1.1535  -1.0947  -0.8827  -0.1824  -0.1612  -0.1368  -0.1058
    -0.0923  -0.0865  -0.0565  -0.0153   0.5714   0.7949   0.8151   1.1308
     1.4201   1.5052   1.6220   1.7138   3.9894   4.1221   4.1801   4.4145
     4.4459   4.5206   4.5294   4.5718   4.5977   4.6144

          k = 0.0000 0.2887 0.0000 ( 35323 PWs)   bands (ev):

   -58.8790 -58.8576 -58.8306 -58.7808 -33.0373 -33.0334 -33.0174 -33.0117
   -32.9889 -32.9856 -32.9404 -32.9356 -32.8822 -32.8622 -32.8337 -32.7851
   -11.3883 -11.3059 -11.2987 -11.2067 -10.6141 -10.5131 -10.4922 -10.3895
    -3.3205  -3.0700  -3.0336  -2.8097  -1.9459  -1.8717  -1.8257  -1.8128
    -1.7105  -1.6447  -1.5377  -1.4217  -0.5105  -0.4890  -0.4618  -0.4121
     0.2175   0.2370   0.2666   0.3148   0.3561   0.5982   0.6016   0.8883
     1.1408   1.1862   1.2388   1.3042   3.8533   4.0547   4.1027   4.2578
     4.3278   4.3392   4.4136   4.4218   4.7905   4.8621

          k = 0.0000 0.3608 0.0000 ( 35299 PWs)   bands (ev):

   -58.8711 -58.8497 -58.8227 -58.7729 -33.1127 -33.0929 -33.0643 -33.0180
   -33.0159 -32.9963 -32.9702 -32.9201 -32.8998 -32.8797 -32.8513 -32.8027
   -11.0052 -10.9305 -10.9233 -10.8374 -10.4406 -10.3600 -10.3376 -10.2500
    -3.3575  -3.2034  -3.1889  -3.0607  -2.3103  -2.1873  -2.1120  -2.0210
    -1.9516  -1.9086  -1.8228  -1.7267  -0.7989  -0.7765  -0.7494  -0.6991
     0.1208   0.3604   0.3621   0.5366   0.5651   0.5914   0.6141   0.6463
     0.9204   0.9658   1.0100   1.0740   3.9678   4.1544   4.1783   4.2103
     4.2116   4.2262   4.3008   4.5068   5.1201   5.3457

          k = 0.0000 0.4330 0.0000 ( 35224 PWs)   bands (ev):

   -58.8644 -58.8430 -58.8160 -58.7662 -33.1759 -33.1562 -33.1275 -33.0792
   -33.0049 -32.9832 -32.9571 -32.9146 -32.9070 -32.8946 -32.8661 -32.8175
   -10.6413 -10.5782 -10.5707 -10.4942 -10.2790 -10.2200 -10.1973 -10.1244
    -3.5906  -3.4990  -3.4926  -3.4094  -2.6484  -2.5376  -2.5076  -2.4123
    -2.0638  -1.9596  -1.9383  -1.8081  -1.0197  -0.9966  -0.9697  -0.9189
    -0.0546   0.1727   0.1764   0.3991   0.7906   0.8321   0.8554   0.9192
     0.9401   1.0068   1.0457   1.1270   4.1487   4.1888   4.2074   4.2272
     4.2709   4.4000   4.4198   4.6470   5.4263   5.6287

          k = 0.0000 0.5052 0.0000 ( 35152 PWs)   bands (ev):

   -58.8600 -58.8386 -58.8115 -58.7618 -33.2178 -33.1981 -33.1694 -33.1212
   -32.9962 -32.9744 -32.9484 -32.9245 -32.9044 -32.8983 -32.8760 -32.8274
   -10.3690 -10.3194 -10.3111 -10.2460 -10.1608 -10.1203 -10.0991 -10.0371
    -3.8190  -3.7527  -3.7443  -3.6762  -2.8857  -2.8010  -2.7751  -2.6928
    -2.1670  -2.0577  -2.0451  -1.9208  -1.1574  -1.1339  -1.1072  -1.0560
    -0.1499   0.0653   0.0676   0.2683   0.9443   0.9980   1.0190   1.0911
     1.1285   1.2057   1.2298   1.3150   4.1973   4.2247   4.2475   4.3021
     4.5172   4.6285   4.6426   4.7820   5.6155   5.7922

          k = 0.0000-0.5774 0.0000 ( 35026 PWs)   bands (ev):

   -58.8584 -58.8370 -58.8100 -58.7602 -33.2325 -33.2128 -33.1841 -33.1358
   -32.9931 -32.9714 -32.9453 -32.9279 -32.9079 -32.8952 -32.8795 -32.8309
   -10.2654 -10.2230 -10.2138 -10.1555 -10.1164 -10.0840 -10.0644 -10.0060
    -3.9110  -3.8503  -3.8404  -3.7755  -2.9708  -2.8971  -2.8699  -2.7918
    -2.2151  -2.1065  -2.0943  -1.9731  -1.2041  -1.1805  -1.1538  -1.1025
    -0.1785   0.0313   0.0324   0.2243   0.9941   1.0528   1.0729   1.1484
     1.2448   1.3122   1.3269   1.4023   4.2259   4.2492   4.2741   4.3256
     4.6709   4.7361   4.7511   4.8289   5.6742   5.8343

          k = 0.0625 0.1083 0.0000 ( 35467 PWs)   bands (ev):

   -58.8949 -58.8735 -58.8465 -58.7967 -33.0645 -33.0429 -33.0167 -32.9667
   -32.8809 -32.8609 -32.8468 -32.8325 -32.8267 -32.7983 -32.7839 -32.7497
   -12.0663 -11.9772 -11.9693 -11.8721 -10.9264 -10.7924 -10.7754 -10.6475
    -3.8410  -3.5117  -3.4788  -3.1592  -0.9997  -0.9824  -0.9577  -0.9490
    -0.9046  -0.5263  -0.4975  -0.4408  -0.4282  -0.3947  -0.3528  -0.1730
     0.1804   0.1979   0.2264   0.2728   0.6950   0.8536   0.8811   1.2162
     1.5878   1.7610   2.0051   2.2111   4.4919   4.5135   4.5309   4.5516
     4.5543   4.6242   4.6400   4.7139   4.7367   4.8056

          k = 0.0625 0.1804 0.0000 ( 35370 PWs)   bands (ev):

   -58.8894 -58.8680 -58.8410 -58.7912 -33.0537 -33.0321 -33.0059 -32.9559
   -32.9344 -32.9144 -32.8860 -32.8605 -32.8405 -32.8374 -32.8121 -32.7634
   -11.8425 -11.7548 -11.7472 -11.6511 -10.8228 -10.6993 -10.6809 -10.5611
    -3.6111  -3.2930  -3.2539  -2.9457  -1.3838  -1.3606  -1.3402  -1.3037
    -1.2453  -0.9365  -0.8871  -0.6314  -0.2251  -0.2106  -0.1928  -0.1712
    -0.1675  -0.1474  -0.1263  -0.0925   0.7462   0.9317   0.9633   1.2564
     1.5002   1.6046   1.7662   1.8746   4.0990   4.1990   4.2472   4.4017
     4.4630   4.4788   4.5256   4.5815   4.6244   4.6874

          k = 0.0625 0.2526 0.0000 ( 35362 PWs)   bands (ev):

   -58.8821 -58.8607 -58.8337 -58.7839 -33.0396 -33.0179 -33.0036 -32.9917
   -32.9837 -32.9552 -32.9417 -32.9067 -32.8785 -32.8584 -32.8300 -32.7814
   -11.5314 -11.4470 -11.4397 -11.3460 -10.6792 -10.5709 -10.5507 -10.4425
    -3.3676  -3.0843  -3.0423  -2.7767  -1.7762  -1.7230  -1.7216  -1.6843
    -1.5747  -1.3921  -1.3169  -1.1548  -0.5630  -0.5418  -0.5114  -0.4603
     0.0430   0.0614   0.0901   0.1373   0.6440   0.8372   0.8503   1.1047
     1.2836   1.3285   1.4015   1.4639   3.8329   4.0074   4.0516   4.2552
     4.3785   4.4102   4.4390   4.4858   4.5933   4.6166

          k = 0.0625 0.3248 0.0000 ( 35310 PWs)   bands (ev):

   -58.8743 -58.8529 -58.8259 -58.7761 -33.0776 -33.0578 -33.0292 -33.0242
   -33.0025 -32.9808 -32.9764 -32.9263 -32.8978 -32.8778 -32.8494 -32.8008
   -11.1646 -11.0861 -11.0790 -10.9901 -10.5113 -10.4219 -10.4000 -10.3059
    -3.2785  -3.0790  -3.0545  -2.8867  -2.1141  -2.0204  -1.8995  -1.8793
    -1.8763  -1.8173  -1.6947  -1.6528  -0.8683  -0.8341  -0.8032  -0.7418
     0.2770   0.3045   0.3229   0.3758   0.4330   0.6120   0.6159   0.8390
     1.0507   1.0818   1.1179   1.1751   3.7935   3.9875   4.0142   4.1706
     4.3099   4.3403   4.3868   4.5039   4.8500   4.9285

          k = 0.0625 0.3969 0.0000 ( 35243 PWs)   bands (ev):

   -58.8670 -58.8456 -58.8186 -58.7688 -33.1453 -33.1255 -33.0969 -33.0485
   -33.0100 -32.9882 -32.9621 -32.9157 -32.9121 -32.8956 -32.8672 -32.8186
   -10.7879 -10.7192 -10.7119 -10.6308 -10.3414 -10.2731 -10.2502 -10.1712
    -3.4332  -3.3159  -3.3079  -3.2073  -2.4831  -2.3705  -2.3360  -2.2433
    -1.9919  -1.8975  -1.8713  -1.7395  -1.0675  -1.0280  -1.0001  -0.9377
     0.1682   0.3478   0.3600   0.4222   0.4522   0.4817   0.5065   0.5963
     1.0603   1.0871   1.1178   1.1715   3.9245   4.0779   4.0912   4.2016
     4.3539   4.3987   4.4319   4.5923   5.1881   5.3865

          k = 0.0625 0.4691 0.0000 ( 35169 PWs)   bands (ev):

   -58.8614 -58.8400 -58.8130 -58.7632 -33.1966 -33.1769 -33.1482 -33.0999
   -32.9990 -32.9773 -32.9512 -32.9293 -32.9093 -32.9011 -32.8808 -32.8322
   -10.4646 -10.4090 -10.4012 -10.3310 -10.1984 -10.1506 -10.1283 -10.0624
    -3.6709  -3.5945  -3.5874  -3.5134  -2.7994  -2.7135  -2.6925  -2.6115
    -2.0946  -1.9811  -1.9726  -1.8429  -1.1750  -1.1408  -1.1192  -1.0610
    -0.0236   0.1632   0.1645   0.3426   0.5454   0.5920   0.6090   0.6834
     1.2338   1.2678   1.2945   1.3544   4.1150   4.1937   4.2068   4.2793
     4.4900   4.5600   4.5826   4.7230   5.4996   5.6613

          k = 0.0625 0.5413 0.0000 ( 35128 PWs)   bands (ev):

   -58.8584 -58.8370 -58.8100 -58.7602 -33.2242 -33.2045 -33.1758 -33.1276
   -32.9931 -32.9714 -32.9453 -32.9366 -32.9166 -32.8952 -32.8882 -32.8396
   -10.2712 -10.2273 -10.2184 -10.1591 -10.1140 -10.0807 -10.0605 -10.0018
    -3.8309  -3.7694  -3.7593  -3.6938  -2.9780  -2.9092  -2.8875  -2.8121
    -2.1839  -2.0710  -2.0619  -1.9388  -1.2183  -1.1917  -1.1739  -1.1195
    -0.1286   0.0598   0.0620   0.2359   0.6355   0.6946   0.7069   0.7817
     1.3877   1.4331   1.4543   1.5203   4.2258   4.2525   4.2701   4.3225
     4.6657   4.7344   4.7510   4.8399   5.7211   5.8418

          k = 0.1250 0.2165 0.0000 ( 35331 PWs)   bands (ev):

   -58.8832 -58.8618 -58.8348 -58.7850 -33.0417 -33.0201 -32.9939 -32.9896
   -32.9697 -32.9439 -32.9412 -32.8927 -32.8793 -32.8593 -32.8309 -32.7823
   -11.5806 -11.4955 -11.4881 -11.3940 -10.7015 -10.5906 -10.5707 -10.4606
    -3.3868  -3.0924  -3.0491  -2.7690  -1.7044  -1.6697  -1.6636  -1.6169
    -1.4790  -1.2300  -1.1616  -0.9677  -0.7015  -0.6852  -0.6489  -0.6012
    -0.0364  -0.0184   0.0093   0.0564   0.8291   0.9945   1.0192   1.2352
     1.3506   1.3860   1.4775   1.5330   3.8205   3.9834   4.0218   4.2155
     4.3727   4.4036   4.4370   4.4566   4.4641   4.5213

          k = 0.1250 0.2887 0.0000 ( 35357 PWs)   bands (ev):

   -58.8760 -58.8546 -58.8276 -58.7778 -33.0529 -33.0331 -33.0275 -33.0058
   -33.0045 -32.9797 -32.9561 -32.9297 -32.9026 -32.8826 -32.8542 -32.8056
   -11.2485 -11.1683 -11.1611 -11.0708 -10.5480 -10.4538 -10.4323 -10.3347
    -3.2300  -2.9972  -2.9649  -2.7628  -1.9569  -1.9001  -1.8398  -1.8070
    -1.7040  -1.6337  -1.5365  -1.4713  -1.1320  -1.0793  -1.0344  -0.9232
     0.0666   0.0938   0.1140   0.1678   0.7560   0.8998   0.9029   1.0745
     1.1577   1.1679   1.1979   1.2491   3.6593   3.8615   3.8901   4.0907
     4.3694   4.4076   4.4140   4.4784   4.6041   4.6251

          k = 0.1250 0.3608 0.0000 ( 35341 PWs)   bands (ev):

   -58.8687 -58.8473 -58.8203 -58.7705 -33.1152 -33.0954 -33.0668 -33.0184
   -33.0133 -32.9916 -32.9655 -32.9263 -32.9154 -32.9063 -32.8778 -32.8293
   -10.8839 -10.8118 -10.8047 -10.7209 -10.3805 -10.3059 -10.2831 -10.1997
    -3.2774  -3.1290  -3.1173  -2.9933  -2.2831  -2.1921  -2.1560  -2.0910
    -1.8986  -1.8176  -1.8029  -1.6758  -1.3271  -1.2304  -1.1747  -1.0553
     0.0085   0.0463   0.0606   0.1198   0.5350   0.6528   0.6587   0.7972
     1.1128   1.1367   1.1597   1.2123   3.6942   3.9184   3.9372   4.1582
     4.4400   4.4697   4.4932   4.5784   4.8438   5.0519

          k = 0.1250 0.4330 0.0000 ( 35215 PWs)   bands (ev):

   -58.8625 -58.8411 -58.8141 -58.7643 -33.1673 -33.1475 -33.1189 -33.0706
   -33.0012 -32.9795 -32.9534 -32.9465 -32.9265 -32.9033 -32.8980 -32.8495
   -10.5400 -10.4797 -10.4723 -10.3982 -10.2239 -10.1700 -10.1470 -10.0773
    -3.4580  -3.3621  -3.3561  -3.2694  -2.6956  -2.6303  -2.6185  -2.5503
    -1.9699  -1.8556  -1.8447  -1.7214  -1.3571  -1.2572  -1.2174  -1.1117
    -0.0462   0.0165   0.0250   0.1011   0.2596   0.3697   0.3780   0.5048
     1.2517   1.2765   1.3014   1.3542   3.9005   4.1094   4.1216   4.3274
     4.5484   4.5708   4.6058   4.6680   5.1529   5.3163

          k = 0.1250 0.5052 0.0000 ( 35141 PWs)   bands (ev):

   -58.8584 -58.8370 -58.8100 -58.7602 -33.2018 -33.1821 -33.1534 -33.1052
   -32.9931 -32.9714 -32.9600 -32.9453 -32.9400 -32.9115 -32.8952 -32.8630
   -10.2849 -10.2378 -10.2294 -10.1677 -10.1083 -10.0727 -10.0514  -9.9917
    -3.6212  -3.5531  -3.5432  -3.4739  -2.9909  -2.9381  -2.9275  -2.8590
    -2.0886  -1.9643  -1.9640  -1.8404  -1.3092  -1.2304  -1.2100  -1.1298
    -0.0501   0.0362   0.0669   0.0874   0.1326   0.1443   0.1791   0.2933
     1.4386   1.4732   1.4979   1.5575   4.1191   4.2194   4.2365   4.3315
     4.6989   4.7568   4.7745   4.8690   5.4264   5.5410

          k = 0.1250 0.5774 0.0000 ( 35180 PWs)   bands (ev):

   -58.8569 -58.8355 -58.8085 -58.7587 -33.2139 -33.1942 -33.1655 -33.1173
   -32.9903 -32.9685 -32.9647 -32.9447 -32.9425 -32.9163 -32.8924 -32.8677
   -10.1884 -10.1483 -10.1389 -10.0867 -10.0627 -10.0371 -10.0173  -9.9610
    -3.6845  -3.6262  -3.6131  -3.5491  -3.0962  -3.0467  -3.0358  -2.9669
    -2.1487  -2.0270  -2.0229  -1.9015  -1.2624  -1.2103  -1.2031  -1.1354
    -0.1062   0.0265   0.0561   0.0614   0.0957   0.1113   0.1631   0.2377
     1.5310   1.5739   1.5976   1.6628   4.1932   4.2209   4.2364   4.2911
     4.8102   4.8838   4.8963   4.9696   5.5383   5.6552

          k = 0.1875 0.3248 0.0000 ( 35337 PWs)   bands (ev):

   -58.8693 -58.8479 -58.8209 -58.7711 -33.1016 -33.0818 -33.0532 -33.0145
   -33.0048 -32.9928 -32.9667 -32.9331 -32.9166 -32.9131 -32.8846 -32.8361
   -10.9173 -10.8441 -10.8370 -10.7523 -10.3937 -10.3170 -10.2942 -10.2092
    -3.2112  -3.0469  -3.0332  -2.8963  -2.1544  -2.0850  -2.0525  -2.0202
    -1.8531  -1.7759  -1.7716  -1.6806  -1.4684  -1.3602  -1.2732  -1.1250
    -0.1655  -0.1272  -0.1148  -0.0539   0.6995   0.7939   0.7958   0.9071
     1.1187   1.1470   1.1686   1.2244   3.6062   3.8552   3.8713   4.1319
     4.4639   4.4960   4.5024   4.5603   4.6995   4.7528

          k = 0.1875 0.3969 0.0000 ( 35241 PWs)   bands (ev):

   -58.8631 -58.8417 -58.8147 -58.7649 -33.1435 -33.1237 -33.0951 -33.0467
   -33.0024 -32.9807 -32.9639 -32.9546 -32.9439 -32.9154 -32.9045 -32.8669
   -10.5814 -10.5186 -10.5113 -10.4351 -10.2366 -10.1791 -10.1559 -10.0839
    -3.2970  -3.1801  -3.1751  -3.0735  -2.6025  -2.5696  -2.5625  -2.5072
    -1.8342  -1.7560  -1.6890  -1.6362  -1.4663  -1.3736  -1.2848  -1.1507
    -0.4837  -0.4349  -0.4228  -0.3557   0.4709   0.5389   0.5438   0.6278
     1.2217   1.2512   1.2772   1.3351   3.7597   4.0352   4.0410   4.3603
     4.5753   4.5982   4.6162   4.6694   4.8787   5.0604

          k = 0.1875 0.4691 0.0000 ( 35167 PWs)   bands (ev):

   -58.8584 -58.8370 -58.8100 -58.7602 -33.1740 -33.1543 -33.1256 -33.0773
   -32.9932 -32.9888 -32.9714 -32.9689 -32.9453 -32.9404 -32.8952 -32.8919
   -10.2982 -10.2482 -10.2402 -10.1761 -10.1027 -10.0646 -10.0424  -9.9815
    -3.3832  -3.2963  -3.2885  -3.2087  -2.9993  -2.9646  -2.9642  -2.9020
    -1.9188  -1.7947  -1.7805  -1.6969  -1.4081  -1.2816  -1.2434  -1.1181
    -0.6683  -0.5832  -0.5744  -0.4737   0.1703   0.2514   0.2560   0.3413
     1.4226   1.4483   1.4754   1.5292   3.9769   4.1550   4.1609   4.3299
     4.7403   4.7970   4.8048   4.9039   5.0879   5.2058

          k = 0.1875 0.5413 0.0000 ( 35162 PWs)   bands (ev):

   -58.8558 -58.8344 -58.8074 -58.7576 -33.1900 -33.1703 -33.1416 -33.0933
   -33.0028 -32.9881 -32.9828 -32.9664 -32.9543 -32.9403 -32.9058 -32.8902
   -10.1314 -10.0925 -10.0831 -10.0387 -10.0162  -9.9988  -9.9781  -9.9239
    -3.4206  -3.3607  -3.3408  -3.2761  -3.2155  -3.1815  -3.1775  -3.1132
    -2.0619  -1.9319  -1.9300  -1.8189  -1.2804  -1.1810  -1.1763  -1.0827
    -0.7124  -0.6019  -0.5930  -0.4846  -0.0380   0.0406   0.0538   0.1404
     1.6069   1.6400   1.6657   1.7251   4.0458   4.0910   4.1092   4.1737
     4.9276   5.0242   5.0555   5.1468   5.1992   5.3034

          k = 0.2500 0.4330 0.0000 ( 35195 PWs)   bands (ev):

   -58.8584 -58.8370 -58.8100 -58.7602 -33.1595 -33.1397 -33.1111 -33.0628
   -33.0038 -32.9932 -32.9838 -32.9714 -32.9553 -32.9453 -32.9068 -32.8952
   -10.3036 -10.2525 -10.2446 -10.1796 -10.1004 -10.0613 -10.0387  -9.9773
    -3.2746  -3.1734  -3.1675  -3.0846  -3.0002  -2.9786  -2.9697  -2.9196
    -1.7373  -1.6907  -1.6111  -1.6070  -1.3988  -1.3054  -1.2342  -1.1017
    -0.9835  -0.9473  -0.9285  -0.8754   0.2401   0.2920   0.3019   0.3767
     1.4059   1.4306   1.4595   1.5126   3.9168   4.1211   4.1252   4.3211
     4.7510   4.8067   4.8151   4.9107   4.9594   5.1012

          k = 0.2500 0.5052 0.0000 ( 35193 PWs)   bands (ev):

   -58.8552 -58.8338 -58.8068 -58.7570 -33.1642 -33.1445 -33.1158 -33.0675
   -33.0363 -33.0164 -32.9879 -32.9870 -32.9652 -32.9394 -32.9392 -32.8890
   -10.1032 -10.0643 -10.0550 -10.0143  -9.9898  -9.9762  -9.9543  -9.9015
    -3.3076  -3.2762  -3.2709  -3.2194  -3.1555  -3.0805  -3.0779  -2.9979
    -1.8912  -1.7654  -1.7633  -1.7053  -1.3426  -1.2768  -1.2076  -1.2043
    -1.1494  -1.1480  -1.0554  -0.9859  -0.0371   0.0297   0.0312   0.1157
     1.6466   1.6707   1.6983   1.7506   3.9136   3.9774   3.9939   4.0731
     4.8953   4.9662   4.9891   5.0487   5.1794   5.2544

          k = 0.2500 0.5774 0.0000 ( 35190 PWs)   bands (ev):

   -58.8541 -58.8327 -58.8057 -58.7559 -33.1640 -33.1443 -33.1157 -33.0674
   -33.0496 -33.0297 -33.0011 -32.9848 -32.9630 -32.9527 -32.9370 -32.8869
   -10.0283  -9.9961  -9.9864  -9.9701  -9.9449  -9.9400  -9.9186  -9.8738
    -3.4071  -3.3770  -3.3749  -3.3189  -3.0711  -3.0204  -3.0104  -2.9477
    -2.0459  -1.9283  -1.9200  -1.8322  -1.3802  -1.2746  -1.2385  -1.1785
    -1.1023  -1.0555  -1.0087  -0.9524  -0.1572  -0.1060  -0.0970  -0.0209
     1.7733   1.8010   1.8271   1.8826   3.8412   3.8627   3.8865   3.9363
     4.9216   4.9839   5.0259   5.0543   5.3380   5.3786

          k = 0.3125 0.5413 0.0000 ( 35172 PWs)   bands (ev):

   -58.8535 -58.8321 -58.8051 -58.7553 -33.1430 -33.1233 -33.0946 -33.0780
   -33.0581 -33.0463 -33.0296 -32.9836 -32.9811 -32.9619 -32.9358 -32.8857
    -9.9918  -9.9624  -9.9550  -9.9448  -9.9250  -9.9163  -9.8928  -9.8548
    -3.4749  -3.4465  -3.4445  -3.3873  -2.8472  -2.7821  -2.7732  -2.7039
    -2.0377  -2.0261  -1.9890  -1.9594  -1.5575  -1.5289  -1.5226  -1.4991
    -1.0525  -0.9820  -0.9646  -0.8951  -0.2453  -0.1845  -0.1715  -0.0911
     1.8553   1.8793   1.9057   1.9579   3.7252   3.7455   3.7717   3.8206
     4.8585   4.8900   4.9487   4.9643   5.4328   5.5043

     the Fermi energy is     2.9693 ev

!    total energy              =   -1978.35787834 Ry
     total all-electron energy =    -38771.678723 Ry
     estimated scf accuracy    <          8.7E-09 Ry
     smearing contrib. (-TS)   =       0.00003317 Ry
     internal energy E=F+TS    =   -1978.35791150 Ry

     The total energy is F=E-TS. E is the sum of the following terms:
     one-electron contribution =  -13125.60037369 Ry
     hartree contribution      =    6584.40319377 Ry
     xc contribution           =    -119.22537298 Ry
     ewald contribution        =    5951.91746221 Ry
     one-center paw contrib.   =   -1269.85282082 Ry

     convergence has been achieved in  63 iterations

     Writing all to output data dir ./tmp/cleave2/cleave_dz020_dz4p0/mos2_cleave.save/ :
     XML data file, charge density, pseudopotentials, collected wavefunctions

     init_run     :    122.15s CPU    124.30s WALL (       1 calls)
     electrons    :  12496.77s CPU  12712.15s WALL (       1 calls)

     Called by init_run:
     wfcinit      :     75.35s CPU     76.04s WALL (       1 calls)
     potinit      :     43.27s CPU     43.68s WALL (       1 calls)
     hinit0       :      0.35s CPU      0.37s WALL (       1 calls)

     Called by electrons:
     c_bands      :  10356.95s CPU  10419.24s WALL (      64 calls)
     sum_band     :   1630.00s CPU   1700.76s WALL (      64 calls)
     v_of_rho     :    246.12s CPU    267.47s WALL (      64 calls)
     newd         :    195.17s CPU    256.18s WALL (      64 calls)
     PAW_pot      :     25.67s CPU     25.68s WALL (      64 calls)
     mix_rho      :     86.60s CPU     87.93s WALL (      64 calls)
     vdW_kernel   :     39.63s CPU     39.64s WALL (       1 calls)

     Called by c_bands:
     init_us_2    :     48.11s CPU     48.16s WALL (    3870 calls)
     init_us_2:cp :     48.10s CPU     48.15s WALL (    3870 calls)
     cegterg      :   9890.00s CPU   9951.79s WALL (    1920 calls)

     Called by *egterg:
     cdiaghg      :     14.60s CPU     14.62s WALL (    5932 calls)
     h_psi        :   5293.42s CPU   5317.11s WALL (    5992 calls)
     s_psi        :   1554.82s CPU   1555.25s WALL (    5992 calls)
     g_psi        :     22.39s CPU     22.40s WALL (    4042 calls)

     Called by h_psi:
     h_psi:calbec :   2018.95s CPU   2019.45s WALL (    5992 calls)
     vloc_psi     :   1709.09s CPU   1710.32s WALL (    5992 calls)
     add_vuspsi   :   1554.35s CPU   1554.76s WALL (    5992 calls)

     General routines
     calbec       :   2958.65s CPU   2959.43s WALL (    7912 calls)
     fft          :     79.00s CPU     79.03s WALL (    4031 calls)
     ffts         :     42.52s CPU     42.54s WALL (    7754 calls)
     fftw         :   1557.98s CPU   1558.92s WALL (  631134 calls)
     interpolate  :      1.86s CPU      1.87s WALL (      64 calls)

     Parallel routines

     PWSCF        :      3h30m CPU      3h33m WALL


   This run was terminated on:  23:54:52  12Jun2026            

=------------------------------------------------------------------------------=
   JOB DONE.
=------------------------------------------------------------------------------=
Note: The following floating-point exceptions are signalling: IEEE_UNDERFLOW_FLAG IEEE_DENORMAL
