Authorization required, but no authorization protocol specified

Authorization required, but no authorization protocol specified

Authorization required, but no authorization protocol specified

Authorization required, but no authorization protocol specified

Authorization required, but no authorization protocol specified

Authorization required, but no authorization protocol specified

Authorization required, but no authorization protocol specified

Authorization required, but no authorization protocol specified


     Program PWSCF v.7.3 starts on 13Jun2026 at 16:30:38 

     This program is part of the open-source Quantum ESPRESSO suite
     for quantum simulation of materials; please cite
         "P. Giannozzi et al., J. Phys.:Condens. Matter 21 395502 (2009);
         "P. Giannozzi et al., J. Phys.:Condens. Matter 29 465901 (2017);
         "P. Giannozzi et al., J. Chem. Phys. 152 154105 (2020);
          URL http://www.quantum-espresso.org", 
     in publications or presentations arising from this work. More details at
     http://www.quantum-espresso.org/quote

     Parallel version (MPI), running on     1 processors

     MPI processes distributed on     1 nodes
     5353 MiB available memory on the printing compute node when the environment starts

     Waiting for input...
     Reading input from standard input

     Current dimensions of program PWSCF are:
     Max number of different atomic species (ntypx) = 10
     Max number of k-points (npk) =  40000
     Max angular momentum in pseudopotentials (lmaxx) =  4
     file Mo.pbe-spn-kjpaw_psl.1.0.0.UPF: wavefunction(s)  4S 4D renormalized
     file S.pbe-n-kjpaw_psl.1.0.0.UPF: wavefunction(s)  3S 3P renormalized

     IMPORTANT: XC functional enforced from input :
     Exchange-correlation= VDW-DF2-B86R
                           (   1   4  26   0   2   0   0)
     Any further DFT definition will be discarded
     Please, verify this is what you really want


     Subspace diagonalization in iterative solution of the eigenvalue problem:
     a serial algorithm will be used


     G-vector sticks info
     --------------------
     sticks:   dense  smooth     PW     G-vecs:    dense   smooth      PW
     Sum        1573     769    223               797393   281171   43435

     Using Slab Decomposition



     bravais-lattice index     =            4
     lattice parameter (alat)  =       5.9715  a.u.
     unit-cell volume          =    2917.9067 (a.u.)^3
     number of atoms/cell      =           12
     number of atomic types    =            2
     number of electrons       =       104.00
     number of Kohn-Sham states=           62
     kinetic-energy cutoff     =      80.0000  Ry
     charge density cutoff     =     640.0000  Ry
     scf convergence threshold =      1.0E-08
     mixing beta               =       0.2000
     number of iterations used =            8  local-TF  mixing
     Exchange-correlation= VDW-DF2-B86R
                           (   1   4  26   0   2   0   0)

     celldm(1)=   5.971535  celldm(2)=   0.000000  celldm(3)=  15.822785
     celldm(4)=   0.000000  celldm(5)=   0.000000  celldm(6)=   0.000000

     crystal axes: (cart. coord. in units of alat)
               a(1) = (   1.000000   0.000000   0.000000 )  
               a(2) = (  -0.500000   0.866025   0.000000 )  
               a(3) = (   0.000000   0.000000  15.822785 )  

     reciprocal axes: (cart. coord. in units 2 pi/alat)
               b(1) = (  1.000000  0.577350 -0.000000 )  
               b(2) = (  0.000000  1.154701  0.000000 )  
               b(3) = (  0.000000 -0.000000  0.063200 )  


     PseudoPot. # 1 for Mo read from file:
     ./pseudo/Mo.pbe-spn-kjpaw_psl.1.0.0.UPF
     MD5 check sum: 4396e0c640fcce5c25f020efccf1ab12
     Pseudo is Projector augmented-wave + core cor, Zval = 14.0
     Generated using &quot;atomic&quot; code by A. Dal Corso  v.6.3
     Shape of augmentation charge: PSQ
     Using radial grid of 1229 points,  6 beta functions with: 
                l(1) =   0
                l(2) =   0
                l(3) =   1
                l(4) =   1
                l(5) =   2
                l(6) =   2
     Q(r) pseudized with 0 coefficients 


     PseudoPot. # 2 for S  read from file:
     ./pseudo/S.pbe-n-kjpaw_psl.1.0.0.UPF
     MD5 check sum: fb45dfebcf3e72a4e1bd4a866ec2e262
     Pseudo is Projector augmented-wave + core cor, Zval =  6.0
     Generated using &quot;atomic&quot; code by A. Dal Corso  v.6.3
     Shape of augmentation charge: PSQ
     Using radial grid of 1151 points,  6 beta functions with: 
                l(1) =   0
                l(2) =   0
                l(3) =   1
                l(4) =   1
                l(5) =   2
                l(6) =   2
     Q(r) pseudized with 0 coefficients 


     atomic species   valence    mass     pseudopotential
     Mo               14.00    95.96000     Mo( 1.00)
     S                 6.00    32.06000     S ( 1.00)

      6 Sym. Ops. (no inversion) found



   Cartesian axes

     site n.     atom                  positions (alat units)
         1        S      tau(   1) = (  -0.0000005   0.5773503  -0.9967195  )
         2        Mo     tau(   2) = (   0.0000000   0.0000000  -0.4993332  )
         3        S      tau(   3) = (  -0.0000005   0.5773503  -0.0017175  )
         4        S      tau(   4) = (   0.5000003   0.2886747   0.9835827  )
         5        Mo     tau(   5) = (  -0.0000005   0.5773503   1.4818950  )
         6        S      tau(   6) = (   0.5000003   0.2886747   1.9798512  )
         7        S      tau(   7) = (   0.0000000   0.0000000   2.9586848  )
         8        Mo     tau(   8) = (   0.5000003   0.2886747   3.4569999  )
         9        S      tau(   9) = (   0.0000000   0.0000000   3.9548385  )
        10        S      tau(  10) = (  -0.0000005   0.5773503   6.9777236  )
        11        Mo     tau(  11) = (   0.0000000   0.0000000   7.4753602  )
        12        S      tau(  12) = (  -0.0000005   0.5773503   7.9724944  )

     number of k points=    30  Methfessel-Paxton smearing, width (Ry)=  0.0200
                       cart. coord. in units 2pi/alat
        k(    1) = (   0.0000000   0.0000000   0.0000000), wk =   0.0078125
        k(    2) = (   0.0000000   0.0721688   0.0000000), wk =   0.0468750
        k(    3) = (   0.0000000   0.1443376   0.0000000), wk =   0.0468750
        k(    4) = (   0.0000000   0.2165064   0.0000000), wk =   0.0468750
        k(    5) = (   0.0000000   0.2886751   0.0000000), wk =   0.0468750
        k(    6) = (   0.0000000   0.3608439   0.0000000), wk =   0.0468750
        k(    7) = (   0.0000000   0.4330127   0.0000000), wk =   0.0468750
        k(    8) = (   0.0000000   0.5051815   0.0000000), wk =   0.0468750
        k(    9) = (   0.0000000  -0.5773503   0.0000000), wk =   0.0234375
        k(   10) = (   0.0625000   0.1082532   0.0000000), wk =   0.0468750
        k(   11) = (   0.0625000   0.1804220   0.0000000), wk =   0.0937500
        k(   12) = (   0.0625000   0.2525907   0.0000000), wk =   0.0937500
        k(   13) = (   0.0625000   0.3247595   0.0000000), wk =   0.0937500
        k(   14) = (   0.0625000   0.3969283   0.0000000), wk =   0.0937500
        k(   15) = (   0.0625000   0.4690971   0.0000000), wk =   0.0937500
        k(   16) = (   0.0625000   0.5412659   0.0000000), wk =   0.0937500
        k(   17) = (   0.1250000   0.2165064   0.0000000), wk =   0.0468750
        k(   18) = (   0.1250000   0.2886751   0.0000000), wk =   0.0937500
        k(   19) = (   0.1250000   0.3608439   0.0000000), wk =   0.0937500
        k(   20) = (   0.1250000   0.4330127   0.0000000), wk =   0.0937500
        k(   21) = (   0.1250000   0.5051815   0.0000000), wk =   0.0937500
        k(   22) = (   0.1250000   0.5773503   0.0000000), wk =   0.0468750
        k(   23) = (   0.1875000   0.3247595   0.0000000), wk =   0.0468750
        k(   24) = (   0.1875000   0.3969283   0.0000000), wk =   0.0937500
        k(   25) = (   0.1875000   0.4690971   0.0000000), wk =   0.0937500
        k(   26) = (   0.1875000   0.5412659   0.0000000), wk =   0.0937500
        k(   27) = (   0.2500000   0.4330127   0.0000000), wk =   0.0468750
        k(   28) = (   0.2500000   0.5051815   0.0000000), wk =   0.0937500
        k(   29) = (   0.2500000   0.5773503   0.0000000), wk =   0.0468750
        k(   30) = (   0.3125000   0.5412659   0.0000000), wk =   0.0468750

     Dense  grid:   797393 G-vectors     FFT dimensions: (  50,  50, 768)

     Smooth grid:   281171 G-vectors     FFT dimensions: (  36,  36, 540)

     Estimated max dynamical RAM per process >       3.90 GB

     Initial potential from superposition of free atoms

     starting charge     103.9962, renormalised to     104.0000

     negative rho (up, down):  1.147E-04 0.000E+00


     %%%%%%%%%%%%%%%%%%%%%%%%%%%%%%%%%%%%%%%%%%%%%%%%%%%%%%%%%%%%%%%%%%%%%%%%
     %                                                                      %
     % You are using vdW-DF, which was implemented by the Thonhauser group. %
     % Please cite the following two papers that made this development      %
     % possible and the two reviews that describe the various versions:     %
     %                                                                      %
     %   T. Thonhauser et al., PRL 115, 136402 (2015).                      %
     %   T. Thonhauser et al., PRB 76, 125112 (2007).                       %
     %   K. Berland et al., Rep. Prog. Phys. 78, 066501 (2015).             %
     %   D.C. Langreth et al., J. Phys.: Condens. Matter 21, 084203 (2009). %
     %                                                                      %
     % If you are calculating stress with vdW-DF, please also cite:         %
     %                                                                      %
     %   R. Sabatini et al., J. Phys.: Condens. Matter 24, 424209 (2012).   %
     %                                                                      %
     %%%%%%%%%%%%%%%%%%%%%%%%%%%%%%%%%%%%%%%%%%%%%%%%%%%%%%%%%%%%%%%%%%%%%%%%

     %%%%%%%%%%%%%%%%%%%%%%%%%%%%%%%%%%%%%%%%%%%%%%%%%%%%%%%%%%%%%%%%%%%%%%%%
     %                                                                      %
     %  vdW-DF NEWS:                                                        %
     %                                                                      %
     %  * vdW-DF3 is now available. DOI: 10.1021/acs.jctc.0c00471           %
     %    use with input_dft = 'vdW-DF3-opt1' or 'vdW-DF3-opt2'             %
     %                                                                      %
     %  * Unscreened and range-separated hybrid vdW-DF-cx functionals       %
     %    DOI: 10.1063/1.4986522 and 10.1088/1361-648X/ac2ad2               %
     %    use with input_dft = 'vdW-DF-cx0'    and 'vdW-DF-ahcx'            %
     %  * Unscreened and range-separated hybrid vdW-DF2-b86r functionals    %
     %    DOI: 10.1063/1.4986522 and DOI: 10.1103/PhysRevX.12.041003        %
     %    use with input_dft = 'vdW-DF2-br0' and 'vdW-DF2-ahbr'             %
     %                                                                      %
     %%%%%%%%%%%%%%%%%%%%%%%%%%%%%%%%%%%%%%%%%%%%%%%%%%%%%%%%%%%%%%%%%%%%%%%%


     Starting wfcs are   72 randomized atomic wfcs
     Checking if some PAW data can be deallocated... 

     total cpu time spent up to now is      123.5 secs

     Self-consistent Calculation

     iteration #  1     ecut=    80.00 Ry     beta= 0.20
     Davidson diagonalization with overlap
     ethr =  1.00E-02,  avg # of iterations =  2.3

     Threshold (ethr) on eigenvalues was too large:
     Diagonalizing with lowered threshold

     Davidson diagonalization with overlap
     ethr =  2.87E-04,  avg # of iterations =  3.7

     negative rho (up, down):  5.416E-06 0.000E+00

     total cpu time spent up to now is      600.9 secs

     total energy              =   -1978.45336069 Ry
     estimated scf accuracy    <       0.44896127 Ry

     iteration #  2     ecut=    80.00 Ry     beta= 0.20
     Davidson diagonalization with overlap
     ethr =  4.32E-04,  avg # of iterations =  1.0

     negative rho (up, down):  1.541E-07 0.000E+00

     total cpu time spent up to now is      781.2 secs

     total energy              =   -1978.27492503 Ry
     estimated scf accuracy    <       0.37095970 Ry

     iteration #  3     ecut=    80.00 Ry     beta= 0.20
     Davidson diagonalization with overlap
     ethr =  3.57E-04,  avg # of iterations =  2.0

     negative rho (up, down):  1.907E-08 0.000E+00

     total cpu time spent up to now is     1018.3 secs

     total energy              =   -1978.35436229 Ry
     estimated scf accuracy    <       0.04911042 Ry

     iteration #  4     ecut=    80.00 Ry     beta= 0.20
     Davidson diagonalization with overlap
     ethr =  4.72E-05,  avg # of iterations =  2.2

     negative rho (up, down):  2.494E-08 0.000E+00

     total cpu time spent up to now is     1249.1 secs

     total energy              =   -1978.35722176 Ry
     estimated scf accuracy    <       0.02128051 Ry

     iteration #  5     ecut=    80.00 Ry     beta= 0.20
     Davidson diagonalization with overlap
     ethr =  2.05E-05,  avg # of iterations =  3.4

     negative rho (up, down):  1.639E-08 0.000E+00

     total cpu time spent up to now is     1462.2 secs

     total energy              =   -1978.35883499 Ry
     estimated scf accuracy    <       0.00572267 Ry

     iteration #  6     ecut=    80.00 Ry     beta= 0.20
     Davidson diagonalization with overlap
     ethr =  5.50E-06,  avg # of iterations =  4.6

     negative rho (up, down):  1.523E-07 0.000E+00

     total cpu time spent up to now is     1666.5 secs

     total energy              =   -1978.35722151 Ry
     estimated scf accuracy    <       0.00505934 Ry

     iteration #  7     ecut=    80.00 Ry     beta= 0.20
     Davidson diagonalization with overlap
     c_bands:  1 eigenvalues not converged
     c_bands:  1 eigenvalues not converged
     ethr =  4.86E-06,  avg # of iterations =  6.4

     negative rho (up, down):  3.352E-08 0.000E+00

     total cpu time spent up to now is     1942.9 secs

     total energy              =   -1978.35671048 Ry
     estimated scf accuracy    <       0.01605264 Ry

     iteration #  8     ecut=    80.00 Ry     beta= 0.20
     Davidson diagonalization with overlap
     c_bands:  1 eigenvalues not converged
     ethr =  4.86E-06,  avg # of iterations =  3.7

     negative rho (up, down):  3.303E-07 0.000E+00

     total cpu time spent up to now is     2157.2 secs

     total energy              =   -1978.35638953 Ry
     estimated scf accuracy    <       0.00417395 Ry

     iteration #  9     ecut=    80.00 Ry     beta= 0.20
     Davidson diagonalization with overlap
     ethr =  4.01E-06,  avg # of iterations =  4.7

     negative rho (up, down):  4.619E-04 0.000E+00

     total cpu time spent up to now is     2397.5 secs

     total energy              =   -1978.35723026 Ry
     estimated scf accuracy    <       0.00484012 Ry

     iteration # 10     ecut=    80.00 Ry     beta= 0.20
     Davidson diagonalization with overlap
     ethr =  4.01E-06,  avg # of iterations =  1.7

     negative rho (up, down):  3.189E-03 0.000E+00

     total cpu time spent up to now is     2589.6 secs

     total energy              =   -1978.35692008 Ry
     estimated scf accuracy    <       0.00296433 Ry

     iteration # 11     ecut=    80.00 Ry     beta= 0.20
     Davidson diagonalization with overlap
     ethr =  2.85E-06,  avg # of iterations =  2.6

     negative rho (up, down):  3.080E-03 0.000E+00

     total cpu time spent up to now is     2792.0 secs

     total energy              =   -1978.35715174 Ry
     estimated scf accuracy    <       0.00059663 Ry

     iteration # 12     ecut=    80.00 Ry     beta= 0.20
     Davidson diagonalization with overlap
     ethr =  5.74E-07,  avg # of iterations =  5.4

     negative rho (up, down):  1.594E-03 0.000E+00

     total cpu time spent up to now is     3019.0 secs

     total energy              =   -1978.35722046 Ry
     estimated scf accuracy    <       0.00047022 Ry

     iteration # 13     ecut=    80.00 Ry     beta= 0.20
     Davidson diagonalization with overlap
     ethr =  4.52E-07,  avg # of iterations =  2.0

     negative rho (up, down):  5.272E-03 0.000E+00

     total cpu time spent up to now is     3220.0 secs

     total energy              =   -1978.35718789 Ry
     estimated scf accuracy    <       0.00040430 Ry

     iteration # 14     ecut=    80.00 Ry     beta= 0.20
     Davidson diagonalization with overlap
     c_bands:  1 eigenvalues not converged
     ethr =  3.89E-07,  avg # of iterations =  5.0

     negative rho (up, down):  4.842E-03 0.000E+00

     total cpu time spent up to now is     3434.5 secs

     total energy              =   -1978.35714261 Ry
     estimated scf accuracy    <       0.00072478 Ry

     iteration # 15     ecut=    80.00 Ry     beta= 0.20
     Davidson diagonalization with overlap
     ethr =  3.89E-07,  avg # of iterations =  2.6

     negative rho (up, down):  3.011E-03 0.000E+00

     total cpu time spent up to now is     3639.8 secs

     total energy              =   -1978.35713329 Ry
     estimated scf accuracy    <       0.00026181 Ry

     iteration # 16     ecut=    80.00 Ry     beta= 0.20
     Davidson diagonalization with overlap
     c_bands:  1 eigenvalues not converged
     ethr =  2.52E-07,  avg # of iterations =  8.2

     negative rho (up, down):  3.348E-03 0.000E+00

     total cpu time spent up to now is     3871.6 secs

     total energy              =   -1978.35715678 Ry
     estimated scf accuracy    <       0.00021552 Ry

     iteration # 17     ecut=    80.00 Ry     beta= 0.20
     Davidson diagonalization with overlap
     ethr =  2.07E-07,  avg # of iterations =  2.1

     negative rho (up, down):  8.236E-04 0.000E+00

     total cpu time spent up to now is     4066.7 secs

     total energy              =   -1978.35718035 Ry
     estimated scf accuracy    <       0.00008679 Ry

     iteration # 18     ecut=    80.00 Ry     beta= 0.20
     Davidson diagonalization with overlap
     ethr =  8.34E-08,  avg # of iterations =  3.9

     negative rho (up, down):  1.067E-03 0.000E+00

     total cpu time spent up to now is     4288.4 secs

     total energy              =   -1978.35717488 Ry
     estimated scf accuracy    <       0.00008826 Ry

     iteration # 19     ecut=    80.00 Ry     beta= 0.20
     Davidson diagonalization with overlap
     ethr =  8.34E-08,  avg # of iterations =  2.4

     negative rho (up, down):  7.399E-04 0.000E+00

     total cpu time spent up to now is     4490.5 secs

     total energy              =   -1978.35718516 Ry
     estimated scf accuracy    <       0.00003552 Ry

     iteration # 20     ecut=    80.00 Ry     beta= 0.20
     Davidson diagonalization with overlap
     ethr =  3.42E-08,  avg # of iterations =  1.3

     negative rho (up, down):  8.316E-04 0.000E+00

     total cpu time spent up to now is     4676.1 secs

     total energy              =   -1978.35718345 Ry
     estimated scf accuracy    <       0.00002960 Ry

     iteration # 21     ecut=    80.00 Ry     beta= 0.20
     Davidson diagonalization with overlap
     ethr =  2.85E-08,  avg # of iterations =  1.3

     negative rho (up, down):  3.927E-04 0.000E+00

     total cpu time spent up to now is     4860.8 secs

     total energy              =   -1978.35718909 Ry
     estimated scf accuracy    <       0.00002572 Ry

     iteration # 22     ecut=    80.00 Ry     beta= 0.20
     Davidson diagonalization with overlap
     ethr =  2.47E-08,  avg # of iterations =  2.0

     negative rho (up, down):  3.327E-04 0.000E+00

     total cpu time spent up to now is     5059.5 secs

     total energy              =   -1978.35718525 Ry
     estimated scf accuracy    <       0.00001944 Ry

     iteration # 23     ecut=    80.00 Ry     beta= 0.20
     Davidson diagonalization with overlap
     ethr =  1.87E-08,  avg # of iterations =  1.7

     negative rho (up, down):  2.931E-04 0.000E+00

     total cpu time spent up to now is     5252.0 secs

     total energy              =   -1978.35718654 Ry
     estimated scf accuracy    <       0.00002005 Ry

     iteration # 24     ecut=    80.00 Ry     beta= 0.20
     Davidson diagonalization with overlap
     ethr =  1.87E-08,  avg # of iterations =  1.1

     negative rho (up, down):  2.883E-04 0.000E+00

     total cpu time spent up to now is     5432.2 secs

     total energy              =   -1978.35718500 Ry
     estimated scf accuracy    <       0.00001744 Ry

     iteration # 25     ecut=    80.00 Ry     beta= 0.20
     Davidson diagonalization with overlap
     ethr =  1.68E-08,  avg # of iterations =  1.1

     negative rho (up, down):  3.299E-04 0.000E+00

     total cpu time spent up to now is     5615.0 secs

     total energy              =   -1978.35718443 Ry
     estimated scf accuracy    <       0.00001710 Ry

     iteration # 26     ecut=    80.00 Ry     beta= 0.20
     Davidson diagonalization with overlap
     ethr =  1.64E-08,  avg # of iterations =  1.1

     negative rho (up, down):  3.373E-04 0.000E+00

     total cpu time spent up to now is     5795.7 secs

     total energy              =   -1978.35718366 Ry
     estimated scf accuracy    <       0.00001552 Ry

     iteration # 27     ecut=    80.00 Ry     beta= 0.20
     Davidson diagonalization with overlap
     ethr =  1.49E-08,  avg # of iterations =  1.1

     negative rho (up, down):  2.331E-04 0.000E+00

     total cpu time spent up to now is     5980.1 secs

     total energy              =   -1978.35718339 Ry
     estimated scf accuracy    <       0.00001498 Ry

     iteration # 28     ecut=    80.00 Ry     beta= 0.20
     Davidson diagonalization with overlap
     ethr =  1.44E-08,  avg # of iterations =  1.2

     negative rho (up, down):  1.156E-04 0.000E+00

     total cpu time spent up to now is     6162.3 secs

     total energy              =   -1978.35718496 Ry
     estimated scf accuracy    <       0.00001453 Ry

     iteration # 29     ecut=    80.00 Ry     beta= 0.20
     Davidson diagonalization with overlap
     ethr =  1.40E-08,  avg # of iterations =  1.3

     negative rho (up, down):  1.501E-04 0.000E+00

     total cpu time spent up to now is     6346.4 secs

     total energy              =   -1978.35718362 Ry
     estimated scf accuracy    <       0.00001505 Ry

     iteration # 30     ecut=    80.00 Ry     beta= 0.20
     Davidson diagonalization with overlap
     ethr =  1.40E-08,  avg # of iterations =  1.0

     negative rho (up, down):  1.824E-04 0.000E+00

     total cpu time spent up to now is     6528.0 secs

     total energy              =   -1978.35718047 Ry
     estimated scf accuracy    <       0.00001291 Ry

     iteration # 31     ecut=    80.00 Ry     beta= 0.20
     Davidson diagonalization with overlap
     ethr =  1.24E-08,  avg # of iterations =  2.0

     negative rho (up, down):  1.204E-04 0.000E+00

     total cpu time spent up to now is     6727.6 secs

     total energy              =   -1978.35718330 Ry
     estimated scf accuracy    <       0.00001148 Ry

     iteration # 32     ecut=    80.00 Ry     beta= 0.20
     Davidson diagonalization with overlap
     ethr =  1.10E-08,  avg # of iterations =  2.5

     negative rho (up, down):  4.202E-04 0.000E+00

     total cpu time spent up to now is     6930.5 secs

     total energy              =   -1978.35717838 Ry
     estimated scf accuracy    <       0.00001243 Ry

     iteration # 33     ecut=    80.00 Ry     beta= 0.20
     Davidson diagonalization with overlap
     ethr =  1.10E-08,  avg # of iterations =  1.7

     negative rho (up, down):  4.400E-04 0.000E+00

     total cpu time spent up to now is     7123.9 secs

     total energy              =   -1978.35717924 Ry
     estimated scf accuracy    <       0.00000867 Ry

     iteration # 34     ecut=    80.00 Ry     beta= 0.20
     Davidson diagonalization with overlap
     ethr =  8.33E-09,  avg # of iterations =  1.1

     negative rho (up, down):  2.058E-04 0.000E+00

     total cpu time spent up to now is     7304.4 secs

     total energy              =   -1978.35718423 Ry
     estimated scf accuracy    <       0.00000822 Ry

     iteration # 35     ecut=    80.00 Ry     beta= 0.20
     Davidson diagonalization with overlap
     ethr =  7.90E-09,  avg # of iterations =  1.8

     negative rho (up, down):  2.865E-04 0.000E+00

     total cpu time spent up to now is     7500.6 secs

     total energy              =   -1978.35718449 Ry
     estimated scf accuracy    <       0.00000847 Ry

     iteration # 36     ecut=    80.00 Ry     beta= 0.20
     Davidson diagonalization with overlap
     ethr =  7.90E-09,  avg # of iterations =  1.1

     negative rho (up, down):  2.507E-04 0.000E+00

     total cpu time spent up to now is     7682.6 secs

     total energy              =   -1978.35718441 Ry
     estimated scf accuracy    <       0.00000743 Ry

     iteration # 37     ecut=    80.00 Ry     beta= 0.20
     Davidson diagonalization with overlap
     ethr =  7.14E-09,  avg # of iterations =  1.0

     negative rho (up, down):  2.840E-04 0.000E+00

     total cpu time spent up to now is     7862.4 secs

     total energy              =   -1978.35718433 Ry
     estimated scf accuracy    <       0.00000749 Ry

     iteration # 38     ecut=    80.00 Ry     beta= 0.20
     Davidson diagonalization with overlap
     ethr =  7.14E-09,  avg # of iterations =  1.0

     negative rho (up, down):  2.801E-04 0.000E+00

     total cpu time spent up to now is     8042.2 secs

     total energy              =   -1978.35718550 Ry
     estimated scf accuracy    <       0.00000747 Ry

     iteration # 39     ecut=    80.00 Ry     beta= 0.20
     Davidson diagonalization with overlap
     ethr =  7.14E-09,  avg # of iterations =  1.3

     negative rho (up, down):  3.754E-04 0.000E+00

     total cpu time spent up to now is     8229.0 secs

     total energy              =   -1978.35718339 Ry
     estimated scf accuracy    <       0.00000871 Ry

     iteration # 40     ecut=    80.00 Ry     beta= 0.20
     Davidson diagonalization with overlap
     ethr =  7.14E-09,  avg # of iterations =  1.3

     negative rho (up, down):  4.410E-04 0.000E+00

     total cpu time spent up to now is     8414.5 secs

     total energy              =   -1978.35718237 Ry
     estimated scf accuracy    <       0.00000768 Ry

     iteration # 41     ecut=    80.00 Ry     beta= 0.20
     Davidson diagonalization with overlap
     ethr =  7.14E-09,  avg # of iterations =  1.2

     negative rho (up, down):  3.446E-04 0.000E+00

     total cpu time spent up to now is     8597.3 secs

     total energy              =   -1978.35718446 Ry
     estimated scf accuracy    <       0.00000972 Ry

     iteration # 42     ecut=    80.00 Ry     beta= 0.20
     Davidson diagonalization with overlap
     ethr =  7.14E-09,  avg # of iterations =  1.1

     negative rho (up, down):  3.522E-04 0.000E+00

     total cpu time spent up to now is     8781.2 secs

     total energy              =   -1978.35718293 Ry
     estimated scf accuracy    <       0.00000820 Ry

     iteration # 43     ecut=    80.00 Ry     beta= 0.20
     Davidson diagonalization with overlap
     ethr =  7.14E-09,  avg # of iterations =  1.1

     negative rho (up, down):  4.857E-04 0.000E+00

     total cpu time spent up to now is     8963.2 secs

     total energy              =   -1978.35718325 Ry
     estimated scf accuracy    <       0.00000802 Ry

     iteration # 44     ecut=    80.00 Ry     beta= 0.20
     Davidson diagonalization with overlap
     ethr =  7.14E-09,  avg # of iterations =  1.0

     negative rho (up, down):  4.327E-04 0.000E+00

     total cpu time spent up to now is     9143.0 secs

     total energy              =   -1978.35718225 Ry
     estimated scf accuracy    <       0.00000873 Ry

     iteration # 45     ecut=    80.00 Ry     beta= 0.20
     Davidson diagonalization with overlap
     ethr =  7.14E-09,  avg # of iterations =  1.0

     negative rho (up, down):  3.596E-04 0.000E+00

     total cpu time spent up to now is     9324.0 secs

     total energy              =   -1978.35718219 Ry
     estimated scf accuracy    <       0.00000976 Ry

     iteration # 46     ecut=    80.00 Ry     beta= 0.20
     Davidson diagonalization with overlap
     ethr =  7.14E-09,  avg # of iterations =  1.1

     negative rho (up, down):  2.592E-04 0.000E+00

     total cpu time spent up to now is     9504.8 secs

     total energy              =   -1978.35718221 Ry
     estimated scf accuracy    <       0.00000779 Ry

     iteration # 47     ecut=    80.00 Ry     beta= 0.20
     Davidson diagonalization with overlap
     ethr =  7.14E-09,  avg # of iterations =  1.0

     negative rho (up, down):  2.857E-04 0.000E+00

     total cpu time spent up to now is     9684.4 secs

     total energy              =   -1978.35718181 Ry
     estimated scf accuracy    <       0.00000719 Ry

     iteration # 48     ecut=    80.00 Ry     beta= 0.20
     Davidson diagonalization with overlap
     ethr =  6.91E-09,  avg # of iterations =  1.0

     negative rho (up, down):  2.845E-04 0.000E+00

     total cpu time spent up to now is     9864.3 secs

     total energy              =   -1978.35718198 Ry
     estimated scf accuracy    <       0.00000728 Ry

     iteration # 49     ecut=    80.00 Ry     beta= 0.20
     Davidson diagonalization with overlap
     ethr =  6.91E-09,  avg # of iterations =  1.0

     negative rho (up, down):  2.680E-04 0.000E+00

     total cpu time spent up to now is    10045.5 secs

     total energy              =   -1978.35718273 Ry
     estimated scf accuracy    <       0.00000712 Ry

     iteration # 50     ecut=    80.00 Ry     beta= 0.20
     Davidson diagonalization with overlap
     ethr =  6.85E-09,  avg # of iterations =  1.0

     negative rho (up, down):  2.686E-04 0.000E+00

     total cpu time spent up to now is    10224.9 secs

     total energy              =   -1978.35717818 Ry
     estimated scf accuracy    <       0.00000759 Ry

     iteration # 51     ecut=    80.00 Ry     beta= 0.20
     Davidson diagonalization with overlap
     ethr =  6.85E-09,  avg # of iterations =  1.3

     negative rho (up, down):  3.354E-04 0.000E+00

     total cpu time spent up to now is    10409.8 secs

     total energy              =   -1978.35717693 Ry
     estimated scf accuracy    <       0.00000666 Ry

     iteration # 52     ecut=    80.00 Ry     beta= 0.20
     Davidson diagonalization with overlap
     ethr =  6.40E-09,  avg # of iterations =  1.0

     negative rho (up, down):  3.796E-04 0.000E+00

     total cpu time spent up to now is    10591.5 secs

     total energy              =   -1978.35717656 Ry
     estimated scf accuracy    <       0.00000612 Ry

     iteration # 53     ecut=    80.00 Ry     beta= 0.20
     Davidson diagonalization with overlap
     ethr =  5.89E-09,  avg # of iterations =  1.1

     negative rho (up, down):  5.886E-04 0.000E+00

     total cpu time spent up to now is    10774.1 secs

     total energy              =   -1978.35717308 Ry
     estimated scf accuracy    <       0.00000494 Ry

     iteration # 54     ecut=    80.00 Ry     beta= 0.20
     Davidson diagonalization with overlap
     ethr =  4.75E-09,  avg # of iterations =  1.5

     negative rho (up, down):  3.948E-04 0.000E+00

     total cpu time spent up to now is    10964.0 secs

     total energy              =   -1978.35717364 Ry
     estimated scf accuracy    <       0.00000366 Ry

     iteration # 55     ecut=    80.00 Ry     beta= 0.20
     Davidson diagonalization with overlap
     ethr =  3.51E-09,  avg # of iterations =  2.1

     negative rho (up, down):  2.555E-04 0.000E+00

     total cpu time spent up to now is    11172.9 secs

     total energy              =   -1978.35717815 Ry
     estimated scf accuracy    <       0.00000385 Ry

     iteration # 56     ecut=    80.00 Ry     beta= 0.20
     Davidson diagonalization with overlap
     ethr =  3.51E-09,  avg # of iterations =  2.1

     negative rho (up, down):  2.068E-04 0.000E+00

     total cpu time spent up to now is    11374.2 secs

     total energy              =   -1978.35717893 Ry
     estimated scf accuracy    <       0.00000205 Ry

     iteration # 57     ecut=    80.00 Ry     beta= 0.20
     Davidson diagonalization with overlap
     ethr =  1.98E-09,  avg # of iterations =  2.0

     negative rho (up, down):  1.930E-04 0.000E+00

     total cpu time spent up to now is    11577.0 secs

     total energy              =   -1978.35717954 Ry
     estimated scf accuracy    <       0.00000064 Ry

     iteration # 58     ecut=    80.00 Ry     beta= 0.20
     Davidson diagonalization with overlap
     ethr =  6.15E-10,  avg # of iterations =  3.5

     negative rho (up, down):  1.851E-04 0.000E+00

     total cpu time spent up to now is    11786.3 secs

     total energy              =   -1978.35718023 Ry
     estimated scf accuracy    <       0.00000053 Ry

     iteration # 59     ecut=    80.00 Ry     beta= 0.20
     Davidson diagonalization with overlap
     ethr =  5.05E-10,  avg # of iterations =  1.4

     negative rho (up, down):  1.846E-04 0.000E+00

     total cpu time spent up to now is    11975.0 secs

     total energy              =   -1978.35718050 Ry
     estimated scf accuracy    <       0.00000036 Ry

     iteration # 60     ecut=    80.00 Ry     beta= 0.20
     Davidson diagonalization with overlap
     ethr =  3.47E-10,  avg # of iterations =  3.2

     negative rho (up, down):  2.038E-04 0.000E+00

     total cpu time spent up to now is    12191.5 secs

     total energy              =   -1978.35717859 Ry
     estimated scf accuracy    <       0.00000040 Ry

     iteration # 61     ecut=    80.00 Ry     beta= 0.20
     Davidson diagonalization with overlap
     ethr =  3.47E-10,  avg # of iterations =  3.1

     negative rho (up, down):  1.985E-04 0.000E+00

     total cpu time spent up to now is    12407.3 secs

     total energy              =   -1978.35717920 Ry
     estimated scf accuracy    <       0.00000016 Ry

     iteration # 62     ecut=    80.00 Ry     beta= 0.20
     Davidson diagonalization with overlap
     ethr =  1.52E-10,  avg # of iterations =  2.4

     negative rho (up, down):  1.987E-04 0.000E+00

     total cpu time spent up to now is    12613.7 secs

     total energy              =   -1978.35717948 Ry
     estimated scf accuracy    <       0.00000012 Ry

     iteration # 63     ecut=    80.00 Ry     beta= 0.20
     Davidson diagonalization with overlap
     ethr =  1.13E-10,  avg # of iterations =  2.8

     negative rho (up, down):  1.805E-04 0.000E+00

     total cpu time spent up to now is    12818.7 secs

     total energy              =   -1978.35717907 Ry
     estimated scf accuracy    <       0.00000015 Ry

     iteration # 64     ecut=    80.00 Ry     beta= 0.20
     Davidson diagonalization with overlap
     ethr =  1.13E-10,  avg # of iterations =  2.2

     negative rho (up, down):  1.679E-04 0.000E+00

     total cpu time spent up to now is    13024.3 secs

     total energy              =   -1978.35717933 Ry
     estimated scf accuracy    <       0.00000005 Ry

     iteration # 65     ecut=    80.00 Ry     beta= 0.20
     Davidson diagonalization with overlap
     ethr =  4.68E-11,  avg # of iterations =  2.1

     negative rho (up, down):  1.599E-04 0.000E+00

     total cpu time spent up to now is    13223.9 secs

     total energy              =   -1978.35717946 Ry
     estimated scf accuracy    <       0.00000005 Ry

     iteration # 66     ecut=    80.00 Ry     beta= 0.20
     Davidson diagonalization with overlap
     ethr =  4.68E-11,  avg # of iterations =  1.5

     negative rho (up, down):  1.663E-04 0.000E+00

     total cpu time spent up to now is    13413.3 secs

     total energy              =   -1978.35717932 Ry
     estimated scf accuracy    <       0.00000004 Ry

     iteration # 67     ecut=    80.00 Ry     beta= 0.20
     Davidson diagonalization with overlap
     ethr =  3.60E-11,  avg # of iterations =  2.4

     negative rho (up, down):  1.628E-04 0.000E+00

     total cpu time spent up to now is    13615.4 secs

     total energy              =   -1978.35717897 Ry
     estimated scf accuracy    <       0.00000003 Ry

     iteration # 68     ecut=    80.00 Ry     beta= 0.20
     Davidson diagonalization with overlap
     ethr =  2.66E-11,  avg # of iterations =  2.2

     negative rho (up, down):  1.588E-04 0.000E+00

     total cpu time spent up to now is    13822.5 secs

     total energy              =   -1978.35717896 Ry
     estimated scf accuracy    <       0.00000003 Ry

     iteration # 69     ecut=    80.00 Ry     beta= 0.20
     Davidson diagonalization with overlap
     ethr =  2.51E-11,  avg # of iterations =  1.6

     negative rho (up, down):  1.509E-04 0.000E+00

     total cpu time spent up to now is    14012.9 secs

     total energy              =   -1978.35717910 Ry
     estimated scf accuracy    <       0.00000002 Ry

     iteration # 70     ecut=    80.00 Ry     beta= 0.20
     Davidson diagonalization with overlap
     ethr =  1.50E-11,  avg # of iterations =  1.7

     negative rho (up, down):  1.500E-04 0.000E+00

     total cpu time spent up to now is    14207.0 secs

     total energy              =   -1978.35717914 Ry
     estimated scf accuracy    <       0.00000001 Ry

     iteration # 71     ecut=    80.00 Ry     beta= 0.20
     Davidson diagonalization with overlap
     ethr =  1.20E-11,  avg # of iterations =  1.3

     negative rho (up, down):  1.498E-04 0.000E+00

     total cpu time spent up to now is    14392.8 secs

     total energy              =   -1978.35717917 Ry
     estimated scf accuracy    <       0.00000001 Ry

     iteration # 72     ecut=    80.00 Ry     beta= 0.20
     Davidson diagonalization with overlap
     ethr =  9.76E-12,  avg # of iterations =  1.5

     negative rho (up, down):  1.337E-04 0.000E+00

     total cpu time spent up to now is    14581.6 secs

     End of self-consistent calculation

          k = 0.0000 0.0000 0.0000 ( 35507 PWs)   bands (ev):

   -58.8982 -58.8694 -58.8498 -58.8000 -33.0722 -33.0431 -33.0244 -32.9744
   -32.8348 -32.8348 -32.8073 -32.8073 -32.7864 -32.7864 -32.7377 -32.7377
   -12.2417 -12.1443 -12.1436 -12.0459 -11.0070 -10.8576 -10.8490 -10.7148
    -4.0395  -3.7053  -3.6700  -3.3534  -0.6206  -0.6206  -0.6013  -0.6013
    -0.6011  -0.5747  -0.5747  -0.5332  -0.5332   0.0538   0.0888   0.4937
     0.4937   0.5177   0.5177   0.5395   0.5396   0.5852   0.5853   0.8231
     1.6016   1.8444   2.1338   2.4609   4.7254   4.7254   4.7770   4.7770
     4.7770   4.7770   4.8353   4.8353   4.9483   4.9489

          k = 0.0000 0.0722 0.0000 ( 35493 PWs)   bands (ev):

   -58.8966 -58.8678 -58.8483 -58.7985 -33.0691 -33.0401 -33.0214 -32.9713
   -32.8503 -32.8383 -32.8228 -32.8108 -32.8019 -32.7899 -32.7532 -32.7412
   -12.1821 -12.0849 -12.0843 -11.9867 -10.9794 -10.8327 -10.8238 -10.6917
    -3.9707  -3.6378  -3.6008  -3.2855  -0.7578  -0.7371  -0.7357  -0.7102
    -0.6672  -0.5584  -0.5388  -0.5125  -0.4707  -0.1983  -0.1976   0.1786
     0.3965   0.4211   0.4427   0.4889   0.5992   0.7074   0.7176   1.0637
     1.6034   1.8248   2.0992   2.3811   4.6506   4.6868   4.6972   4.7520
     4.7855   4.8109   4.8458   4.8634   4.8684   4.8935

          k = 0.0000 0.1443 0.0000 ( 35435 PWs)   bands (ev):

   -58.8922 -58.8634 -58.8439 -58.7940 -33.0605 -33.0314 -33.0127 -32.9627
   -32.8944 -32.8669 -32.8484 -32.8460 -32.8209 -32.7999 -32.7973 -32.7512
   -12.0081 -11.9118 -11.9115 -11.8145 -10.8989 -10.7601 -10.7502 -10.6243
    -3.7789  -3.4520  -3.4100  -3.1003  -1.1092  -1.0818  -1.0652  -1.0514
    -1.0078  -0.6575  -0.6293  -0.3793  -0.3587  -0.3366  -0.3333  -0.2906
     0.1452   0.1710   0.1923   0.2395   0.6595   0.8426   0.8799   1.2137
     1.5710   1.7351   1.9450   2.1238   4.3714   4.4280   4.4616   4.5197
     4.5569   4.5945   4.6672   4.6674   4.7220   4.7446

          k = 0.0000 0.2165 0.0000 ( 35345 PWs)   bands (ev):

   -58.8855 -58.8568 -58.8372 -58.7874 -33.0475 -33.0184 -32.9997 -32.9598
   -32.9497 -32.9324 -32.9114 -32.8634 -32.8628 -32.8359 -32.8149 -32.7662
   -11.7347 -11.6405 -11.6405 -11.5451 -10.7726 -10.6468 -10.6352 -10.5194
    -3.5191  -3.2112  -3.1627  -2.8738  -1.5459  -1.5042  -1.4989  -1.4674
    -1.3934  -1.1448  -1.0935  -0.8816  -0.1813  -0.1526  -0.1357  -0.1047
    -0.0854  -0.0837  -0.0554  -0.0141   0.5725   0.7963   0.8238   1.1320
     1.4214   1.5140   1.6232   1.7150   3.9917   4.1340   4.1814   4.4168
     4.4470   4.5291   4.5304   4.5745   4.6155   4.7650

          k = 0.0000 0.2887 0.0000 ( 35323 PWs)   bands (ev):

   -58.8777 -58.8489 -58.8294 -58.7795 -33.0360 -33.0321 -33.0087 -33.0031
   -32.9877 -32.9844 -32.9392 -32.9343 -32.8810 -32.8535 -32.8325 -32.7839
   -11.3872 -11.2976 -11.2973 -11.2056 -10.6131 -10.5046 -10.4912 -10.3885
    -3.3194  -3.0689  -3.0250  -2.8086  -1.9448  -1.8706  -1.8171  -1.8117
    -1.7094  -1.6361  -1.5366  -1.4206  -0.5094  -0.4804  -0.4607  -0.4110
     0.2186   0.2456   0.2677   0.3159   0.3572   0.5999   0.6096   0.8894
     1.1420   1.1948   1.2399   1.3054   3.8552   4.0661   4.1038   4.2589
     4.3363   4.3403   4.4154   4.4229   4.7934   5.0228

          k = 0.0000 0.3608 0.0000 ( 35299 PWs)   bands (ev):

   -58.8698 -58.8410 -58.8215 -58.7716 -33.1114 -33.0842 -33.0631 -33.0168
   -33.0146 -32.9876 -32.9690 -32.9189 -32.8985 -32.8711 -32.8501 -32.8014
   -11.0041 -10.9223 -10.9219 -10.8364 -10.4395 -10.3515 -10.3366 -10.2489
    -3.3564  -3.2023  -3.1802  -3.0596  -2.3092  -2.1862  -2.1035  -2.0200
    -1.9506  -1.9001  -1.8217  -1.7257  -0.7978  -0.7679  -0.7483  -0.6980
     0.1218   0.3622   0.3698   0.5377   0.5737   0.5925   0.6152   0.6474
     0.9215   0.9745   1.0112   1.0752   3.9693   4.1555   4.1888   4.2114
     4.2201   4.2273   4.3019   4.5083   5.1225   5.3512

          k = 0.0000 0.4330 0.0000 ( 35224 PWs)   bands (ev):

   -58.8632 -58.8343 -58.8148 -58.7650 -33.1746 -33.1475 -33.1263 -33.0779
   -33.0037 -32.9745 -32.9559 -32.9133 -32.9058 -32.8859 -32.8649 -32.8163
   -10.6402 -10.5697 -10.5696 -10.4931 -10.2780 -10.2115 -10.1962 -10.1234
    -3.5894  -3.4979  -3.4840  -3.4083  -2.6473  -2.5365  -2.4990  -2.4112
    -2.0629  -1.9512  -1.9372  -1.8070  -1.0185  -0.9880  -0.9686  -0.9177
    -0.0536   0.1738   0.1848   0.4001   0.7917   0.8407   0.8564   0.9203
     0.9412   1.0155   1.0468   1.1282   4.1498   4.1974   4.2086   4.2286
     4.2721   4.4095   4.4210   4.6483   5.4281   5.6327

          k = 0.0000 0.5052 0.0000 ( 35152 PWs)   bands (ev):

   -58.8587 -58.8299 -58.8103 -58.7605 -33.2166 -33.1895 -33.1682 -33.1199
   -32.9949 -32.9658 -32.9472 -32.9232 -32.8970 -32.8958 -32.8748 -32.8262
   -10.3679 -10.3108 -10.3100 -10.2449 -10.1598 -10.1118 -10.0980 -10.0361
    -3.8179  -3.7516  -3.7357  -3.6751  -2.8847  -2.7999  -2.7665  -2.6918
    -2.1660  -2.0492  -2.0440  -1.9197  -1.1563  -1.1253  -1.1061  -1.0549
    -0.1489   0.0663   0.0759   0.2693   0.9454   1.0065   1.0200   1.0922
     1.1296   1.2143   1.2309   1.3162   4.1985   4.2333   4.2487   4.3033
     4.5185   4.6374   4.6438   4.7833   5.6170   5.7933

          k = 0.0000-0.5774 0.0000 ( 35026 PWs)   bands (ev):

   -58.8571 -58.8283 -58.8088 -58.7589 -33.2312 -33.2041 -33.1829 -33.1346
   -32.9918 -32.9627 -32.9441 -32.9267 -32.8992 -32.8939 -32.8783 -32.8296
   -10.2643 -10.2144 -10.2128 -10.1544 -10.1154 -10.0754 -10.0634 -10.0049
    -3.9098  -3.8492  -3.8318  -3.7744  -2.9697  -2.8960  -2.8613  -2.7907
    -2.2141  -2.0980  -2.0932  -1.9720  -1.2030  -1.1719  -1.1527  -1.1014
    -0.1775   0.0324   0.0407   0.2254   0.9952   1.0613   1.0739   1.1495
     1.2459   1.3208   1.3280   1.4034   4.2271   4.2579   4.2753   4.3268
     4.6722   4.7449   4.7523   4.8301   5.6757   5.8358

          k = 0.0625 0.1083 0.0000 ( 35467 PWs)   bands (ev):

   -58.8936 -58.8648 -58.8453 -58.7955 -33.0633 -33.0342 -33.0155 -32.9655
   -32.8797 -32.8522 -32.8456 -32.8313 -32.8181 -32.7971 -32.7826 -32.7484
   -12.0653 -11.9686 -11.9682 -11.8710 -10.9253 -10.7839 -10.7743 -10.6464
    -3.8399  -3.5106  -3.4702  -3.1581  -0.9985  -0.9738  -0.9565  -0.9479
    -0.9035  -0.5174  -0.4963  -0.4396  -0.4195  -0.3936  -0.3517  -0.1719
     0.1816   0.2065   0.2275   0.2740   0.6962   0.8549   0.8900   1.2176
     1.5894   1.7703   2.0064   2.2123   4.4955   4.5216   4.5356   4.5554
     4.5602   4.6253   4.6412   4.7149   4.7378   4.8063

          k = 0.0625 0.1804 0.0000 ( 35370 PWs)   bands (ev):

   -58.8881 -58.8593 -58.8398 -58.7899 -33.0525 -33.0234 -33.0047 -32.9546
   -32.9332 -32.9058 -32.8848 -32.8593 -32.8362 -32.8318 -32.8109 -32.7622
   -11.8414 -11.7462 -11.7461 -11.6500 -10.8217 -10.6908 -10.6798 -10.5601
    -3.6100  -3.2919  -3.2453  -2.9446  -1.3826  -1.3519  -1.3391  -1.3026
    -1.2442  -0.9278  -0.8859  -0.6303  -0.2239  -0.2019  -0.1917  -0.1700
    -0.1589  -0.1463  -0.1252  -0.0914   0.7473   0.9330   0.9721   1.2577
     1.5015   1.6135   1.7674   1.8757   4.1015   4.2110   4.2484   4.4042
     4.4648   4.4877   4.5267   4.5826   4.6253   4.6885

          k = 0.0625 0.2526 0.0000 ( 35362 PWs)   bands (ev):

   -58.8808 -58.8520 -58.8325 -58.7827 -33.0383 -33.0092 -33.0024 -32.9906
   -32.9750 -32.9540 -32.9405 -32.9054 -32.8772 -32.8498 -32.8288 -32.7801
   -11.5303 -11.4386 -11.4384 -11.3450 -10.6782 -10.5624 -10.5497 -10.4415
    -3.3665  -3.0832  -3.0337  -2.7756  -1.7751  -1.7219  -1.7130  -1.6831
    -1.5736  -1.3834  -1.3158  -1.1536  -0.5619  -0.5332  -0.5103  -0.4591
     0.0442   0.0700   0.0912   0.1385   0.6451   0.8384   0.8589   1.1058
     1.2848   1.3372   1.4026   1.4650   3.8348   4.0188   4.0527   4.2564
     4.3801   4.4191   4.4408   4.4873   4.5956   4.6252

          k = 0.0625 0.3248 0.0000 ( 35310 PWs)   bands (ev):

   -58.8730 -58.8442 -58.8246 -58.7748 -33.0764 -33.0491 -33.0280 -33.0229
   -32.9938 -32.9796 -32.9752 -32.9251 -32.8966 -32.8691 -32.8482 -32.7995
   -11.1635 -11.0779 -11.0776 -10.9890 -10.5103 -10.4133 -10.3990 -10.3048
    -3.2774  -3.0779  -3.0459  -2.8856  -2.1130  -2.0193  -1.8984  -1.8707
    -1.8677  -1.8162  -1.6936  -1.6517  -0.8672  -0.8255  -0.8021  -0.7407
     0.2781   0.3131   0.3240   0.3770   0.4340   0.6167   0.6208   0.8400
     1.0519   1.0904   1.1190   1.1762   3.7951   3.9977   4.0153   4.1718
     4.3113   4.3493   4.3880   4.5055   4.8522   5.0741

          k = 0.0625 0.3969 0.0000 ( 35243 PWs)   bands (ev):

   -58.8657 -58.8369 -58.8174 -58.7675 -33.1440 -33.1169 -33.0957 -33.0473
   -33.0087 -32.9796 -32.9609 -32.9144 -32.9108 -32.8870 -32.8660 -32.8174
   -10.7868 -10.7109 -10.7106 -10.6298 -10.3404 -10.2646 -10.2492 -10.1701
    -3.4321  -3.3148  -3.2993  -3.2062  -2.4820  -2.3694  -2.3274  -2.2423
    -1.9909  -1.8891  -1.8703  -1.7385  -1.0664  -1.0194  -0.9990  -0.9366
     0.1692   0.3489   0.3684   0.4233   0.4608   0.4828   0.5076   0.5974
     1.0615   1.0957   1.1189   1.1727   3.9259   4.0872   4.0923   4.2028
     4.3553   4.4078   4.4331   4.5937   5.1901   5.3893

          k = 0.0625 0.4691 0.0000 ( 35169 PWs)   bands (ev):

   -58.8601 -58.8313 -58.8118 -58.7619 -33.1953 -33.1682 -33.1470 -33.0987
   -32.9978 -32.9686 -32.9500 -32.9280 -32.9006 -32.8998 -32.8796 -32.8310
   -10.4635 -10.4004 -10.4001 -10.3299 -10.1974 -10.1421 -10.1273 -10.0613
    -3.6698  -3.5934  -3.5788  -3.5123  -2.7983  -2.7124  -2.6840  -2.6104
    -2.0936  -1.9726  -1.9715  -1.8418  -1.1739  -1.1322  -1.1181  -1.0598
    -0.0226   0.1643   0.1728   0.3437   0.5465   0.6006   0.6100   0.6845
     1.2350   1.2764   1.2956   1.3555   4.1162   4.2025   4.2080   4.2804
     4.4913   4.5689   4.5839   4.7242   5.5012   5.6631

          k = 0.0625 0.5413 0.0000 ( 35128 PWs)   bands (ev):

   -58.8571 -58.8283 -58.8088 -58.7589 -33.2229 -33.1959 -33.1746 -33.1263
   -32.9919 -32.9627 -32.9441 -32.9354 -32.9079 -32.8939 -32.8870 -32.8383
   -10.2701 -10.2188 -10.2174 -10.1580 -10.1130 -10.0721 -10.0595 -10.0007
    -3.8298  -3.7683  -3.7507  -3.6927  -2.9769  -2.9081  -2.8789  -2.8110
    -2.1829  -2.0625  -2.0609  -1.9377  -1.2172  -1.1831  -1.1728  -1.1183
    -0.1276   0.0630   0.0682   0.2369   0.6365   0.7031   0.7079   0.7827
     1.3888   1.4417   1.4555   1.5215   4.2270   4.2612   4.2712   4.3237
     4.6669   4.7432   4.7523   4.8411   5.7222   5.8426

          k = 0.1250 0.2165 0.0000 ( 35331 PWs)   bands (ev):

   -58.8819 -58.8532 -58.8336 -58.7838 -33.0405 -33.0114 -32.9927 -32.9883
   -32.9610 -32.9426 -32.9400 -32.8914 -32.8781 -32.8506 -32.8297 -32.7810
   -11.5795 -11.4871 -11.4869 -11.3929 -10.7004 -10.5821 -10.5697 -10.4596
    -3.3857  -3.0913  -3.0405  -2.7679  -1.7032  -1.6625  -1.6611  -1.6158
    -1.4779  -1.2213  -1.1605  -0.9666  -0.7004  -0.6766  -0.6477  -0.6001
    -0.0353  -0.0098   0.0104   0.0575   0.8303   0.9957   1.0278   1.2364
     1.3518   1.3947   1.4787   1.5341   3.8225   3.9947   4.0229   4.2168
     4.3753   4.4058   4.4457   4.4585   4.4726   4.5225

          k = 0.1250 0.2887 0.0000 ( 35357 PWs)   bands (ev):

   -58.8747 -58.8459 -58.8263 -58.7765 -33.0517 -33.0263 -33.0244 -33.0033
   -32.9972 -32.9785 -32.9548 -32.9284 -32.9014 -32.8739 -32.8530 -32.8043
   -11.2474 -11.1601 -11.1597 -11.0697 -10.5470 -10.4453 -10.4313 -10.3336
    -3.2289  -2.9961  -2.9562  -2.7617  -1.9558  -1.8990  -1.8312  -1.8059
    -1.7029  -1.6251  -1.5354  -1.4702  -1.1309  -1.0707  -1.0333  -0.9221
     0.0677   0.1024   0.1151   0.1689   0.7571   0.9013   0.9111   1.0755
     1.1588   1.1765   1.1990   1.2503   3.6609   3.8719   3.8911   4.0919
     4.3707   4.4145   4.4179   4.4806   4.6057   4.6344

          k = 0.1250 0.3608 0.0000 ( 35341 PWs)   bands (ev):

   -58.8674 -58.8386 -58.8191 -58.7692 -33.1139 -33.0867 -33.0656 -33.0171
   -33.0121 -32.9829 -32.9643 -32.9251 -32.9142 -32.8976 -32.8767 -32.8280
   -10.8828 -10.8037 -10.8033 -10.7198 -10.3795 -10.2974 -10.2821 -10.1986
    -3.2763  -3.1279  -3.1087  -2.9922  -2.2820  -2.1910  -2.1474  -2.0899
    -1.8976  -1.8091  -1.8019  -1.6747  -1.3260  -1.2218  -1.1736  -1.0542
     0.0096   0.0549   0.0617   0.1209   0.5360   0.6596   0.6613   0.7983
     1.1140   1.1453   1.1609   1.2135   3.6956   3.9283   3.9382   4.1595
     4.4414   4.4786   4.4945   4.5799   4.8462   4.9339

          k = 0.1250 0.4330 0.0000 ( 35215 PWs)   bands (ev):

   -58.8612 -58.8324 -58.8129 -58.7630 -33.1660 -33.1389 -33.1177 -33.0693
   -33.0000 -32.9708 -32.9522 -32.9452 -32.9178 -32.9020 -32.8968 -32.8482
   -10.5390 -10.4712 -10.4711 -10.3971 -10.2229 -10.1614 -10.1460 -10.0763
    -3.4569  -3.3610  -3.3475  -3.2683  -2.6945  -2.6292  -2.6099  -2.5492
    -1.9688  -1.8546  -1.8362  -1.7203  -1.3560  -1.2486  -1.2163  -1.1106
    -0.0451   0.0250   0.0261   0.1022   0.2606   0.3781   0.3789   0.5058
     1.2529   1.2851   1.3025   1.3554   3.9018   4.1188   4.1227   4.3286
     4.5497   4.5795   4.6070   4.6692   5.1544   5.3176

          k = 0.1250 0.5052 0.0000 ( 35141 PWs)   bands (ev):

   -58.8571 -58.8283 -58.8088 -58.7589 -33.2006 -33.1735 -33.1523 -33.1039
   -32.9919 -32.9627 -32.9587 -32.9441 -32.9313 -32.9103 -32.8939 -32.8617
   -10.2838 -10.2293 -10.2284 -10.1666 -10.1073 -10.0641 -10.0503  -9.9906
    -3.6201  -3.5520  -3.5346  -3.4728  -2.9898  -2.9370  -2.9189  -2.8579
    -2.0875  -1.9629  -1.9558  -1.8393  -1.3081  -1.2218  -1.2089  -1.1287
    -0.0490   0.0371   0.0754   0.0885   0.1335   0.1527   0.1801   0.2944
     1.4398   1.4819   1.4990   1.5586   4.1203   4.2282   4.2377   4.3326
     4.7002   4.7656   4.7757   4.8702   5.4276   5.5421

          k = 0.1250 0.5774 0.0000 ( 35180 PWs)   bands (ev):

   -58.8557 -58.8269 -58.8073 -58.7575 -33.2127 -33.1856 -33.1643 -33.1160
   -32.9890 -32.9635 -32.9599 -32.9413 -32.9361 -32.9151 -32.8911 -32.8665
   -10.1873 -10.1397 -10.1379 -10.0856 -10.0616 -10.0286 -10.0163  -9.9600
    -3.6834  -3.6251  -3.6045  -3.5480  -3.0951  -3.0456  -3.0272  -2.9658
    -2.1476  -2.0218  -2.0185  -1.9004  -1.2614  -1.2020  -1.2018  -1.1343
    -0.1052   0.0275   0.0623   0.0645   0.1042   0.1123   0.1641   0.2388
     1.5321   1.5826   1.5987   1.6639   4.1945   4.2296   4.2376   4.2923
     4.8115   4.8926   4.8976   4.9708   5.5394   5.6563

          k = 0.1875 0.3248 0.0000 ( 35337 PWs)   bands (ev):

   -58.8680 -58.8392 -58.8197 -58.7698 -33.1003 -33.0731 -33.0520 -33.0132
   -33.0035 -32.9841 -32.9655 -32.9318 -32.9153 -32.9044 -32.8834 -32.8348
   -10.9162 -10.8359 -10.8355 -10.7512 -10.3927 -10.3084 -10.2931 -10.2081
    -3.2101  -3.0458  -3.0245  -2.8952  -2.1533  -2.0839  -2.0439  -2.0191
    -1.8520  -1.7705  -1.7674  -1.6796  -1.4674  -1.3517  -1.2721  -1.1239
    -0.1644  -0.1186  -0.1137  -0.0528   0.7005   0.7967   0.8025   0.9082
     1.1198   1.1556   1.1697   1.2256   3.6077   3.8655   3.8721   4.1332
     4.4651   4.5035   4.5053   4.5619   4.7008   4.9229

          k = 0.1875 0.3969 0.0000 ( 35241 PWs)   bands (ev):

   -58.8619 -58.8330 -58.8135 -58.7636 -33.1422 -33.1151 -33.0939 -33.0455
   -33.0012 -32.9720 -32.9626 -32.9534 -32.9353 -32.9142 -32.9032 -32.8657
   -10.5804 -10.5103 -10.5100 -10.4341 -10.2355 -10.1706 -10.1548 -10.0829
    -3.2959  -3.1790  -3.1665  -3.0724  -2.6014  -2.5685  -2.5539  -2.5061
    -1.8331  -1.7550  -1.6806  -1.6352  -1.4652  -1.3651  -1.2837  -1.1496
    -0.4826  -0.4263  -0.4217  -0.3546   0.4718   0.5399   0.5522   0.6288
     1.2228   1.2598   1.2783   1.3363   3.7610   4.0385   4.0485   4.3616
     4.5766   4.6068   4.6174   4.6706   4.8803   5.0610

          k = 0.1875 0.4691 0.0000 ( 35167 PWs)   bands (ev):

   -58.8571 -58.8283 -58.8088 -58.7589 -33.1727 -33.1456 -33.1244 -33.0760
   -32.9919 -32.9876 -32.9627 -32.9602 -32.9441 -32.9392 -32.8940 -32.8906
   -10.2971 -10.2396 -10.2392 -10.1751 -10.1017 -10.0561 -10.0413  -9.9805
    -3.3821  -3.2952  -3.2799  -3.2076  -2.9982  -2.9635  -2.9556  -2.9009
    -1.9178  -1.7936  -1.7721  -1.6958  -1.4071  -1.2731  -1.2423  -1.1170
    -0.6672  -0.5747  -0.5733  -0.4726   0.1713   0.2570   0.2598   0.3424
     1.4238   1.4570   1.4766   1.5303   3.9782   4.1620   4.1641   4.3311
     4.7415   4.8058   4.8060   4.9051   5.0892   5.2067

          k = 0.1875 0.5413 0.0000 ( 35162 PWs)   bands (ev):

   -58.8546 -58.8257 -58.8062 -58.7564 -33.1887 -33.1616 -33.1404 -33.0920
   -33.0015 -32.9869 -32.9742 -32.9577 -32.9531 -32.9391 -32.9046 -32.8889
   -10.1302 -10.0840 -10.0821 -10.0377 -10.0152  -9.9903  -9.9770  -9.9228
    -3.4194  -3.3596  -3.3322  -3.2750  -3.2144  -3.1763  -3.1729  -3.1121
    -2.0608  -1.9289  -1.9234  -1.8179  -1.2794  -1.1752  -1.1724  -1.0816
    -0.7113  -0.5934  -0.5920  -0.4836  -0.0371   0.0489   0.0548   0.1415
     1.6081   1.6487   1.6668   1.7263   4.0470   4.0997   4.1104   4.1749
     4.9288   5.0255   5.0643   5.1479   5.2003   5.3047

          k = 0.2500 0.4330 0.0000 ( 35195 PWs)   bands (ev):

   -58.8571 -58.8283 -58.8088 -58.7589 -33.1582 -33.1311 -33.1099 -33.0615
   -33.0025 -32.9919 -32.9751 -32.9627 -32.9541 -32.9441 -32.9056 -32.8940
   -10.3025 -10.2439 -10.2436 -10.1786 -10.0994 -10.0528 -10.0376  -9.9762
    -3.2735  -3.1723  -3.1589  -3.0835  -2.9990  -2.9700  -2.9686  -2.9185
    -1.7363  -1.6896  -1.6060  -1.6027  -1.3978  -1.2969  -1.2331  -1.1006
    -0.9824  -0.9387  -0.9275  -0.8743   0.2410   0.2930   0.3102   0.3777
     1.4071   1.4392   1.4607   1.5137   3.9181   4.1229   4.1337   4.3223
     4.7522   4.8079   4.8240   4.9120   4.9609   5.1023

          k = 0.2500 0.5052 0.0000 ( 35193 PWs)   bands (ev):

   -58.8540 -58.8251 -58.8056 -58.7558 -33.1630 -33.1358 -33.1146 -33.0663
   -33.0351 -33.0077 -32.9867 -32.9857 -32.9565 -32.9381 -32.9380 -32.8878
   -10.1021 -10.0557 -10.0540 -10.0133  -9.9887  -9.9676  -9.9533  -9.9004
    -3.3065  -3.2751  -3.2623  -3.2183  -3.1544  -3.0768  -3.0719  -2.9968
    -1.8901  -1.7623  -1.7569  -1.7042  -1.3415  -1.2758  -1.2032  -1.1991
    -1.1470  -1.1409  -1.0544  -0.9849  -0.0363   0.0323   0.0380   0.1168
     1.6478   1.6794   1.6995   1.7518   3.9148   3.9861   3.9951   4.0743
     4.8964   4.9674   4.9905   5.0575   5.1806   5.2591

          k = 0.2500 0.5774 0.0000 ( 35190 PWs)   bands (ev):

   -58.8529 -58.8240 -58.8045 -58.7546 -33.1628 -33.1357 -33.1145 -33.0661
   -33.0483 -33.0210 -32.9999 -32.9836 -32.9544 -32.9514 -32.9358 -32.8856
   -10.0272  -9.9875  -9.9854  -9.9690  -9.9390  -9.9364  -9.9176  -9.8727
    -3.4059  -3.3759  -3.3663  -3.3178  -3.0700  -3.0193  -3.0018  -2.9466
    -2.0448  -1.9198  -1.9190  -1.8312  -1.3791  -1.2736  -1.2301  -1.1774
    -1.1013  -1.0470  -1.0076  -0.9513  -0.1564  -0.0977  -0.0959  -0.0198
     1.7745   1.8096   1.8283   1.8838   3.8425   3.8714   3.8876   3.9375
     4.9228   4.9852   5.0271   5.0631   5.3390   5.3799

          k = 0.3125 0.5413 0.0000 ( 35172 PWs)   bands (ev):

   -58.8523 -58.8234 -58.8039 -58.7540 -33.1417 -33.1146 -33.0934 -33.0767
   -33.0494 -33.0450 -33.0284 -32.9824 -32.9798 -32.9532 -32.9346 -32.8844
    -9.9906  -9.9541  -9.9538  -9.9438  -9.9164  -9.9152  -9.8917  -9.8537
    -3.4738  -3.4434  -3.4378  -3.3862  -2.8461  -2.7810  -2.7647  -2.7028
    -2.0366  -2.0250  -1.9804  -1.9584  -1.5565  -1.5279  -1.5142  -1.4981
    -1.0515  -0.9735  -0.9636  -0.8940  -0.2445  -0.1762  -0.1705  -0.0901
     1.8565   1.8880   1.9068   1.9591   3.7264   3.7542   3.7729   3.8218
     4.8597   4.8913   4.9499   4.9732   5.4339   5.5052

     the Fermi energy is     2.9709 ev

!    total energy              =   -1978.35717949 Ry
     total all-electron energy =    -38771.678024 Ry
     estimated scf accuracy    <          7.5E-09 Ry
     smearing contrib. (-TS)   =       0.00003300 Ry
     internal energy E=F+TS    =   -1978.35721249 Ry

     The total energy is F=E-TS. E is the sum of the following terms:
     one-electron contribution =  -10847.42616834 Ry
     hartree contribution      =    5445.32449436 Ry
     xc contribution           =    -119.22528789 Ry
     ewald contribution        =    4812.82265058 Ry
     one-center paw contrib.   =   -1269.85290119 Ry

     convergence has been achieved in  72 iterations

     Writing all to output data dir ./tmp/cleave2/cleave_dz025_dz6p5/mos2_cleave.save/ :
     XML data file, charge density, pseudopotentials, collected wavefunctions

     init_run     :    121.17s CPU    123.37s WALL (       1 calls)
     electrons    :  14215.59s CPU  14458.14s WALL (       1 calls)

     Called by init_run:
     wfcinit      :     74.08s CPU     74.77s WALL (       1 calls)
     potinit      :     43.51s CPU     43.94s WALL (       1 calls)
     hinit0       :      0.36s CPU      0.39s WALL (       1 calls)

     Called by electrons:
     c_bands      :  11771.82s CPU  11843.02s WALL (      73 calls)
     sum_band     :   1856.71s CPU   1935.99s WALL (      73 calls)
     v_of_rho     :    279.78s CPU    303.62s WALL (      73 calls)
     newd         :    222.74s CPU    290.87s WALL (      73 calls)
     PAW_pot      :     29.36s CPU     29.37s WALL (      73 calls)
     mix_rho      :     98.82s CPU    100.33s WALL (      73 calls)
     vdW_kernel   :     39.86s CPU     39.87s WALL (       1 calls)

     Called by c_bands:
     init_us_2    :     54.85s CPU     54.90s WALL (    4410 calls)
     init_us_2:cp :     54.84s CPU     54.90s WALL (    4410 calls)
     cegterg      :  11238.84s CPU  11309.47s WALL (    2190 calls)

     Called by *egterg:
     cdiaghg      :     16.53s CPU     16.54s WALL (    6758 calls)
     h_psi        :   6012.68s CPU   6039.77s WALL (    6818 calls)
     s_psi        :   1765.89s CPU   1766.43s WALL (    6818 calls)
     g_psi        :     25.40s CPU     25.41s WALL (    4598 calls)

     Called by h_psi:
     h_psi:calbec :   2294.17s CPU   2294.70s WALL (    6818 calls)
     vloc_psi     :   1939.77s CPU   1941.16s WALL (    6818 calls)
     add_vuspsi   :   1766.40s CPU   1766.90s WALL (    6818 calls)

     General routines
     calbec       :   3364.23s CPU   3365.09s WALL (    9008 calls)
     fft          :     90.24s CPU     90.27s WALL (    4598 calls)
     ffts         :     48.49s CPU     48.51s WALL (    8879 calls)
     fftw         :   1768.74s CPU   1769.75s WALL (  717302 calls)
     interpolate  :      2.15s CPU      2.15s WALL (      73 calls)

     Parallel routines

     PWSCF        :      3h58m CPU      4h 3m WALL


   This run was terminated on:  20:33:40  13Jun2026            

=------------------------------------------------------------------------------=
   JOB DONE.
=------------------------------------------------------------------------------=
Note: The following floating-point exceptions are signalling: IEEE_UNDERFLOW_FLAG IEEE_DENORMAL
