Authorization required, but no authorization protocol specified

Authorization required, but no authorization protocol specified

Authorization required, but no authorization protocol specified

Authorization required, but no authorization protocol specified


     Program PWSCF v.7.3 starts on  9Jun2026 at  6: 0:37 

     This program is part of the open-source Quantum ESPRESSO suite
     for quantum simulation of materials; please cite
         "P. Giannozzi et al., J. Phys.:Condens. Matter 21 395502 (2009);
         "P. Giannozzi et al., J. Phys.:Condens. Matter 29 465901 (2017);
         "P. Giannozzi et al., J. Chem. Phys. 152 154105 (2020);
          URL http://www.quantum-espresso.org", 
     in publications or presentations arising from this work. More details at
     http://www.quantum-espresso.org/quote

     Parallel version (MPI), running on     1 processors

     MPI processes distributed on     1 nodes
     85201 MiB available memory on the printing compute node when the environment starts

     Waiting for input...
     Reading input from standard input

     Current dimensions of program PWSCF are:
     Max number of different atomic species (ntypx) = 10
     Max number of k-points (npk) =  40000
     Max angular momentum in pseudopotentials (lmaxx) =  4
     file Mo.pbe-spn-kjpaw_psl.1.0.0.UPF: wavefunction(s)  4S 4D renormalized
     file S.pbe-n-kjpaw_psl.1.0.0.UPF: wavefunction(s)  3S 3P renormalized

     IMPORTANT: XC functional enforced from input :
     Exchange-correlation= VDW-DF2-B86R
                           (   1   4  26   0   2   0   0)
     Any further DFT definition will be discarded
     Please, verify this is what you really want


     Subspace diagonalization in iterative solution of the eigenvalue problem:
     a serial algorithm will be used


     G-vector sticks info
     --------------------
     sticks:   dense  smooth     PW     G-vecs:    dense   smooth      PW
     Sum        1573     769    223               478405   168563   26075

     Using Slab Decomposition



     bravais-lattice index     =            4
     lattice parameter (alat)  =       5.9715  a.u.
     unit-cell volume          =    1750.7440 (a.u.)^3
     number of atoms/cell      =           12
     number of atomic types    =            2
     number of electrons       =       104.00
     number of Kohn-Sham states=           62
     kinetic-energy cutoff     =      80.0000  Ry
     charge density cutoff     =     640.0000  Ry
     scf convergence threshold =      1.0E-08
     mixing beta               =       0.2000
     number of iterations used =            8  local-TF  mixing
     Exchange-correlation= VDW-DF2-B86R
                           (   1   4  26   0   2   0   0)

     celldm(1)=   5.971535  celldm(2)=   0.000000  celldm(3)=   9.493671
     celldm(4)=   0.000000  celldm(5)=   0.000000  celldm(6)=   0.000000

     crystal axes: (cart. coord. in units of alat)
               a(1) = (   1.000000   0.000000   0.000000 )  
               a(2) = (  -0.500000   0.866025   0.000000 )  
               a(3) = (   0.000000   0.000000   9.493671 )  

     reciprocal axes: (cart. coord. in units 2 pi/alat)
               b(1) = (  1.000000  0.577350 -0.000000 )  
               b(2) = (  0.000000  1.154701  0.000000 )  
               b(3) = (  0.000000 -0.000000  0.105333 )  


     PseudoPot. # 1 for Mo read from file:
     ./pseudo/Mo.pbe-spn-kjpaw_psl.1.0.0.UPF
     MD5 check sum: 4396e0c640fcce5c25f020efccf1ab12
     Pseudo is Projector augmented-wave + core cor, Zval = 14.0
     Generated using &quot;atomic&quot; code by A. Dal Corso  v.6.3
     Shape of augmentation charge: PSQ
     Using radial grid of 1229 points,  6 beta functions with: 
                l(1) =   0
                l(2) =   0
                l(3) =   1
                l(4) =   1
                l(5) =   2
                l(6) =   2
     Q(r) pseudized with 0 coefficients 


     PseudoPot. # 2 for S  read from file:
     ./pseudo/S.pbe-n-kjpaw_psl.1.0.0.UPF
     MD5 check sum: fb45dfebcf3e72a4e1bd4a866ec2e262
     Pseudo is Projector augmented-wave + core cor, Zval =  6.0
     Generated using &quot;atomic&quot; code by A. Dal Corso  v.6.3
     Shape of augmentation charge: PSQ
     Using radial grid of 1151 points,  6 beta functions with: 
                l(1) =   0
                l(2) =   0
                l(3) =   1
                l(4) =   1
                l(5) =   2
                l(6) =   2
     Q(r) pseudized with 0 coefficients 


     atomic species   valence    mass     pseudopotential
     Mo               14.00    95.96000     Mo( 1.00)
     S                 6.00    32.06000     S ( 1.00)

      6 Sym. Ops. (no inversion) found



   Cartesian axes

     site n.     atom                  positions (alat units)
         1        S      tau(   1) = (  -0.0000005   0.5773503  -0.9967195  )
         2        Mo     tau(   2) = (   0.0000000   0.0000000  -0.4993332  )
         3        S      tau(   3) = (  -0.0000005   0.5773503  -0.0017175  )
         4        S      tau(   4) = (   0.5000003   0.2886747   0.9835827  )
         5        Mo     tau(   5) = (  -0.0000005   0.5773503   1.4818950  )
         6        S      tau(   6) = (   0.5000003   0.2886747   1.9798512  )
         7        S      tau(   7) = (   0.0000000   0.0000000   2.9586848  )
         8        Mo     tau(   8) = (   0.5000003   0.2886747   3.4569999  )
         9        S      tau(   9) = (   0.0000000   0.0000000   3.9548385  )
        10        S      tau(  10) = (  -0.0000005   0.5773503   6.1865844  )
        11        Mo     tau(  11) = (   0.0000000   0.0000000   6.6842210  )
        12        S      tau(  12) = (  -0.0000005   0.5773503   7.1813551  )

     number of k points=    30  Methfessel-Paxton smearing, width (Ry)=  0.0200
                       cart. coord. in units 2pi/alat
        k(    1) = (   0.0000000   0.0000000   0.0000000), wk =   0.0078125
        k(    2) = (   0.0000000   0.0721688   0.0000000), wk =   0.0468750
        k(    3) = (   0.0000000   0.1443376   0.0000000), wk =   0.0468750
        k(    4) = (   0.0000000   0.2165064   0.0000000), wk =   0.0468750
        k(    5) = (   0.0000000   0.2886751   0.0000000), wk =   0.0468750
        k(    6) = (   0.0000000   0.3608439   0.0000000), wk =   0.0468750
        k(    7) = (   0.0000000   0.4330127   0.0000000), wk =   0.0468750
        k(    8) = (   0.0000000   0.5051815   0.0000000), wk =   0.0468750
        k(    9) = (   0.0000000  -0.5773503   0.0000000), wk =   0.0234375
        k(   10) = (   0.0625000   0.1082532   0.0000000), wk =   0.0468750
        k(   11) = (   0.0625000   0.1804220   0.0000000), wk =   0.0937500
        k(   12) = (   0.0625000   0.2525907   0.0000000), wk =   0.0937500
        k(   13) = (   0.0625000   0.3247595   0.0000000), wk =   0.0937500
        k(   14) = (   0.0625000   0.3969283   0.0000000), wk =   0.0937500
        k(   15) = (   0.0625000   0.4690971   0.0000000), wk =   0.0937500
        k(   16) = (   0.0625000   0.5412659   0.0000000), wk =   0.0937500
        k(   17) = (   0.1250000   0.2165064   0.0000000), wk =   0.0468750
        k(   18) = (   0.1250000   0.2886751   0.0000000), wk =   0.0937500
        k(   19) = (   0.1250000   0.3608439   0.0000000), wk =   0.0937500
        k(   20) = (   0.1250000   0.4330127   0.0000000), wk =   0.0937500
        k(   21) = (   0.1250000   0.5051815   0.0000000), wk =   0.0937500
        k(   22) = (   0.1250000   0.5773503   0.0000000), wk =   0.0468750
        k(   23) = (   0.1875000   0.3247595   0.0000000), wk =   0.0468750
        k(   24) = (   0.1875000   0.3969283   0.0000000), wk =   0.0937500
        k(   25) = (   0.1875000   0.4690971   0.0000000), wk =   0.0937500
        k(   26) = (   0.1875000   0.5412659   0.0000000), wk =   0.0937500
        k(   27) = (   0.2500000   0.4330127   0.0000000), wk =   0.0468750
        k(   28) = (   0.2500000   0.5051815   0.0000000), wk =   0.0937500
        k(   29) = (   0.2500000   0.5773503   0.0000000), wk =   0.0468750
        k(   30) = (   0.3125000   0.5412659   0.0000000), wk =   0.0468750

     Dense  grid:   478405 G-vectors     FFT dimensions: (  50,  50, 480)

     Smooth grid:   168563 G-vectors     FFT dimensions: (  36,  36, 324)

     Estimated max dynamical RAM per process >       2.35 GB

     Initial potential from superposition of free atoms

     starting charge     103.9962, renormalised to     104.0000


     %%%%%%%%%%%%%%%%%%%%%%%%%%%%%%%%%%%%%%%%%%%%%%%%%%%%%%%%%%%%%%%%%%%%%%%%
     %                                                                      %
     % You are using vdW-DF, which was implemented by the Thonhauser group. %
     % Please cite the following two papers that made this development      %
     % possible and the two reviews that describe the various versions:     %
     %                                                                      %
     %   T. Thonhauser et al., PRL 115, 136402 (2015).                      %
     %   T. Thonhauser et al., PRB 76, 125112 (2007).                       %
     %   K. Berland et al., Rep. Prog. Phys. 78, 066501 (2015).             %
     %   D.C. Langreth et al., J. Phys.: Condens. Matter 21, 084203 (2009). %
     %                                                                      %
     % If you are calculating stress with vdW-DF, please also cite:         %
     %                                                                      %
     %   R. Sabatini et al., J. Phys.: Condens. Matter 24, 424209 (2012).   %
     %                                                                      %
     %%%%%%%%%%%%%%%%%%%%%%%%%%%%%%%%%%%%%%%%%%%%%%%%%%%%%%%%%%%%%%%%%%%%%%%%

     %%%%%%%%%%%%%%%%%%%%%%%%%%%%%%%%%%%%%%%%%%%%%%%%%%%%%%%%%%%%%%%%%%%%%%%%
     %                                                                      %
     %  vdW-DF NEWS:                                                        %
     %                                                                      %
     %  * vdW-DF3 is now available. DOI: 10.1021/acs.jctc.0c00471           %
     %    use with input_dft = 'vdW-DF3-opt1' or 'vdW-DF3-opt2'             %
     %                                                                      %
     %  * Unscreened and range-separated hybrid vdW-DF-cx functionals       %
     %    DOI: 10.1063/1.4986522 and 10.1088/1361-648X/ac2ad2               %
     %    use with input_dft = 'vdW-DF-cx0'    and 'vdW-DF-ahcx'            %
     %  * Unscreened and range-separated hybrid vdW-DF2-b86r functionals    %
     %    DOI: 10.1063/1.4986522 and DOI: 10.1103/PhysRevX.12.041003        %
     %    use with input_dft = 'vdW-DF2-br0' and 'vdW-DF2-ahbr'             %
     %                                                                      %
     %%%%%%%%%%%%%%%%%%%%%%%%%%%%%%%%%%%%%%%%%%%%%%%%%%%%%%%%%%%%%%%%%%%%%%%%


     Starting wfcs are   72 randomized atomic wfcs
     Checking if some PAW data can be deallocated... 

     total cpu time spent up to now is       85.7 secs

     Self-consistent Calculation

     iteration #  1     ecut=    80.00 Ry     beta= 0.20
     Davidson diagonalization with overlap
     ethr =  1.00E-02,  avg # of iterations =  2.2

     Threshold (ethr) on eigenvalues was too large:
     Diagonalizing with lowered threshold

     Davidson diagonalization with overlap
     ethr =  3.06E-04,  avg # of iterations =  3.0

     total cpu time spent up to now is      338.2 secs

     total energy              =   -1978.46140736 Ry
     estimated scf accuracy    <       0.43557336 Ry

     iteration #  2     ecut=    80.00 Ry     beta= 0.20
     Davidson diagonalization with overlap
     ethr =  4.19E-04,  avg # of iterations =  1.0

     total cpu time spent up to now is      436.2 secs

     total energy              =   -1978.28226240 Ry
     estimated scf accuracy    <       0.36380217 Ry

     iteration #  3     ecut=    80.00 Ry     beta= 0.20
     Davidson diagonalization with overlap
     ethr =  3.50E-04,  avg # of iterations =  2.0

     total cpu time spent up to now is      566.5 secs

     total energy              =   -1978.36272563 Ry
     estimated scf accuracy    <       0.04895415 Ry

     iteration #  4     ecut=    80.00 Ry     beta= 0.20
     Davidson diagonalization with overlap
     ethr =  4.71E-05,  avg # of iterations =  2.2

     total cpu time spent up to now is      692.5 secs

     total energy              =   -1978.36640726 Ry
     estimated scf accuracy    <       0.01533415 Ry

     iteration #  5     ecut=    80.00 Ry     beta= 0.20
     Davidson diagonalization with overlap
     ethr =  1.47E-05,  avg # of iterations =  5.4

     total cpu time spent up to now is      815.2 secs

     total energy              =   -1978.36739523 Ry
     estimated scf accuracy    <       0.00407186 Ry

     iteration #  6     ecut=    80.00 Ry     beta= 0.20
     Davidson diagonalization with overlap
     ethr =  3.92E-06,  avg # of iterations =  4.5

     total cpu time spent up to now is      927.8 secs

     total energy              =   -1978.36638499 Ry
     estimated scf accuracy    <       0.00287255 Ry

     iteration #  7     ecut=    80.00 Ry     beta= 0.20
     Davidson diagonalization with overlap
     c_bands:  1 eigenvalues not converged
     ethr =  2.76E-06,  avg # of iterations =  6.8

     total cpu time spent up to now is     1080.0 secs

     total energy              =   -1978.36614101 Ry
     estimated scf accuracy    <       0.00672034 Ry

     iteration #  8     ecut=    80.00 Ry     beta= 0.20
     Davidson diagonalization with overlap
     c_bands:  1 eigenvalues not converged
     ethr =  2.76E-06,  avg # of iterations =  3.2

     total cpu time spent up to now is     1197.5 secs

     total energy              =   -1978.36633383 Ry
     estimated scf accuracy    <       0.00098082 Ry

     iteration #  9     ecut=    80.00 Ry     beta= 0.20
     Davidson diagonalization with overlap
     ethr =  9.43E-07,  avg # of iterations =  6.2

     total cpu time spent up to now is     1341.9 secs

     total energy              =   -1978.36658570 Ry
     estimated scf accuracy    <       0.00231963 Ry

     iteration # 10     ecut=    80.00 Ry     beta= 0.20
     Davidson diagonalization with overlap
     ethr =  9.43E-07,  avg # of iterations =  2.0

     negative rho (up, down):  3.751E-08 0.000E+00

     total cpu time spent up to now is     1452.9 secs

     total energy              =   -1978.36643557 Ry
     estimated scf accuracy    <       0.00142928 Ry

     iteration # 11     ecut=    80.00 Ry     beta= 0.20
     Davidson diagonalization with overlap
     ethr =  9.43E-07,  avg # of iterations =  1.9

     total cpu time spent up to now is     1562.0 secs

     total energy              =   -1978.36640882 Ry
     estimated scf accuracy    <       0.00049265 Ry

     iteration # 12     ecut=    80.00 Ry     beta= 0.20
     Davidson diagonalization with overlap
     ethr =  4.74E-07,  avg # of iterations =  3.9

     total cpu time spent up to now is     1681.4 secs

     total energy              =   -1978.36647708 Ry
     estimated scf accuracy    <       0.00008946 Ry

     iteration # 13     ecut=    80.00 Ry     beta= 0.20
     Davidson diagonalization with overlap
     ethr =  8.60E-08,  avg # of iterations =  2.9

     total cpu time spent up to now is     1806.2 secs

     total energy              =   -1978.36647419 Ry
     estimated scf accuracy    <       0.00008917 Ry

     iteration # 14     ecut=    80.00 Ry     beta= 0.20
     Davidson diagonalization with overlap
     ethr =  8.57E-08,  avg # of iterations =  2.1

     negative rho (up, down):  2.620E-05 0.000E+00

     total cpu time spent up to now is     1918.0 secs

     total energy              =   -1978.36643004 Ry
     estimated scf accuracy    <       0.00007002 Ry

     iteration # 15     ecut=    80.00 Ry     beta= 0.20
     Davidson diagonalization with overlap
     ethr =  6.73E-08,  avg # of iterations =  3.3

     total cpu time spent up to now is     2046.7 secs

     total energy              =   -1978.36645872 Ry
     estimated scf accuracy    <       0.00012745 Ry

     iteration # 16     ecut=    80.00 Ry     beta= 0.20
     Davidson diagonalization with overlap
     ethr =  6.73E-08,  avg # of iterations =  2.5

     total cpu time spent up to now is     2165.8 secs

     total energy              =   -1978.36647445 Ry
     estimated scf accuracy    <       0.00005031 Ry

     iteration # 17     ecut=    80.00 Ry     beta= 0.20
     Davidson diagonalization with overlap
     ethr =  4.84E-08,  avg # of iterations =  2.0

     total cpu time spent up to now is     2274.3 secs

     total energy              =   -1978.36646930 Ry
     estimated scf accuracy    <       0.00003411 Ry

     iteration # 18     ecut=    80.00 Ry     beta= 0.20
     Davidson diagonalization with overlap
     ethr =  3.28E-08,  avg # of iterations =  2.4

     total cpu time spent up to now is     2390.6 secs

     total energy              =   -1978.36646800 Ry
     estimated scf accuracy    <       0.00002300 Ry

     iteration # 19     ecut=    80.00 Ry     beta= 0.20
     Davidson diagonalization with overlap
     ethr =  2.21E-08,  avg # of iterations =  4.3

     total cpu time spent up to now is     2511.8 secs

     total energy              =   -1978.36647042 Ry
     estimated scf accuracy    <       0.00001219 Ry

     iteration # 20     ecut=    80.00 Ry     beta= 0.20
     Davidson diagonalization with overlap
     ethr =  1.17E-08,  avg # of iterations =  1.4

     total cpu time spent up to now is     2614.4 secs

     total energy              =   -1978.36646882 Ry
     estimated scf accuracy    <       0.00000732 Ry

     iteration # 21     ecut=    80.00 Ry     beta= 0.20
     Davidson diagonalization with overlap
     ethr =  7.03E-09,  avg # of iterations =  2.7

     total cpu time spent up to now is     2730.3 secs

     total energy              =   -1978.36646948 Ry
     estimated scf accuracy    <       0.00000644 Ry

     iteration # 22     ecut=    80.00 Ry     beta= 0.20
     Davidson diagonalization with overlap
     ethr =  6.19E-09,  avg # of iterations =  1.2

     total cpu time spent up to now is     2830.6 secs

     total energy              =   -1978.36646900 Ry
     estimated scf accuracy    <       0.00000485 Ry

     iteration # 23     ecut=    80.00 Ry     beta= 0.20
     Davidson diagonalization with overlap
     ethr =  4.66E-09,  avg # of iterations =  2.0

     total cpu time spent up to now is     2939.5 secs

     total energy              =   -1978.36646922 Ry
     estimated scf accuracy    <       0.00000345 Ry

     iteration # 24     ecut=    80.00 Ry     beta= 0.20
     Davidson diagonalization with overlap
     ethr =  3.32E-09,  avg # of iterations =  1.2

     total cpu time spent up to now is     3040.0 secs

     total energy              =   -1978.36646903 Ry
     estimated scf accuracy    <       0.00000250 Ry

     iteration # 25     ecut=    80.00 Ry     beta= 0.20
     Davidson diagonalization with overlap
     ethr =  2.40E-09,  avg # of iterations =  1.9

     total cpu time spent up to now is     3147.8 secs

     total energy              =   -1978.36646896 Ry
     estimated scf accuracy    <       0.00000198 Ry

     iteration # 26     ecut=    80.00 Ry     beta= 0.20
     Davidson diagonalization with overlap
     ethr =  1.90E-09,  avg # of iterations =  1.3

     total cpu time spent up to now is     3248.4 secs

     total energy              =   -1978.36646818 Ry
     estimated scf accuracy    <       0.00000179 Ry

     iteration # 27     ecut=    80.00 Ry     beta= 0.20
     Davidson diagonalization with overlap
     ethr =  1.72E-09,  avg # of iterations =  2.5

     total cpu time spent up to now is     3366.7 secs

     total energy              =   -1978.36646792 Ry
     estimated scf accuracy    <       0.00000133 Ry

     iteration # 28     ecut=    80.00 Ry     beta= 0.20
     Davidson diagonalization with overlap
     ethr =  1.28E-09,  avg # of iterations =  3.9

     total cpu time spent up to now is     3490.5 secs

     total energy              =   -1978.36646787 Ry
     estimated scf accuracy    <       0.00000086 Ry

     iteration # 29     ecut=    80.00 Ry     beta= 0.20
     Davidson diagonalization with overlap
     ethr =  8.25E-10,  avg # of iterations =  2.8

     total cpu time spent up to now is     3608.4 secs

     total energy              =   -1978.36646806 Ry
     estimated scf accuracy    <       0.00000027 Ry

     iteration # 30     ecut=    80.00 Ry     beta= 0.20
     Davidson diagonalization with overlap
     ethr =  2.62E-10,  avg # of iterations =  1.5

     total cpu time spent up to now is     3713.0 secs

     total energy              =   -1978.36646832 Ry
     estimated scf accuracy    <       0.00000021 Ry

     iteration # 31     ecut=    80.00 Ry     beta= 0.20
     Davidson diagonalization with overlap
     ethr =  2.05E-10,  avg # of iterations =  2.6

     total cpu time spent up to now is     3831.6 secs

     total energy              =   -1978.36646835 Ry
     estimated scf accuracy    <       0.00000018 Ry

     iteration # 32     ecut=    80.00 Ry     beta= 0.20
     Davidson diagonalization with overlap
     ethr =  1.68E-10,  avg # of iterations =  1.6

     total cpu time spent up to now is     3936.5 secs

     total energy              =   -1978.36646836 Ry
     estimated scf accuracy    <       0.00000010 Ry

     iteration # 33     ecut=    80.00 Ry     beta= 0.20
     Davidson diagonalization with overlap
     ethr =  9.66E-11,  avg # of iterations =  1.1

     total cpu time spent up to now is     4035.7 secs

     total energy              =   -1978.36646836 Ry
     estimated scf accuracy    <       0.00000009 Ry

     iteration # 34     ecut=    80.00 Ry     beta= 0.20
     Davidson diagonalization with overlap
     ethr =  9.03E-11,  avg # of iterations =  1.5

     total cpu time spent up to now is     4139.2 secs

     total energy              =   -1978.36646836 Ry
     estimated scf accuracy    <       0.00000009 Ry

     iteration # 35     ecut=    80.00 Ry     beta= 0.20
     Davidson diagonalization with overlap
     ethr =  8.58E-11,  avg # of iterations =  1.0

     total cpu time spent up to now is     4237.4 secs

     total energy              =   -1978.36646837 Ry
     estimated scf accuracy    <       0.00000009 Ry

     iteration # 36     ecut=    80.00 Ry     beta= 0.20
     Davidson diagonalization with overlap
     ethr =  8.33E-11,  avg # of iterations =  1.1

     total cpu time spent up to now is     4336.7 secs

     total energy              =   -1978.36646836 Ry
     estimated scf accuracy    <       0.00000009 Ry

     iteration # 37     ecut=    80.00 Ry     beta= 0.20
     Davidson diagonalization with overlap
     ethr =  8.33E-11,  avg # of iterations =  1.0

     total cpu time spent up to now is     4434.9 secs

     total energy              =   -1978.36646836 Ry
     estimated scf accuracy    <       0.00000008 Ry

     iteration # 38     ecut=    80.00 Ry     beta= 0.20
     Davidson diagonalization with overlap
     ethr =  7.88E-11,  avg # of iterations =  1.0

     total cpu time spent up to now is     4533.2 secs

     total energy              =   -1978.36646836 Ry
     estimated scf accuracy    <       0.00000008 Ry

     iteration # 39     ecut=    80.00 Ry     beta= 0.20
     Davidson diagonalization with overlap
     ethr =  7.67E-11,  avg # of iterations =  1.0

     total cpu time spent up to now is     4631.5 secs

     total energy              =   -1978.36646836 Ry
     estimated scf accuracy    <       0.00000008 Ry

     iteration # 40     ecut=    80.00 Ry     beta= 0.20
     Davidson diagonalization with overlap
     ethr =  7.67E-11,  avg # of iterations =  1.0

     total cpu time spent up to now is     4730.1 secs

     total energy              =   -1978.36646834 Ry
     estimated scf accuracy    <       0.00000009 Ry

     iteration # 41     ecut=    80.00 Ry     beta= 0.20
     Davidson diagonalization with overlap
     ethr =  7.67E-11,  avg # of iterations =  1.4

     total cpu time spent up to now is     4832.6 secs

     total energy              =   -1978.36646835 Ry
     estimated scf accuracy    <       0.00000007 Ry

     iteration # 42     ecut=    80.00 Ry     beta= 0.20
     Davidson diagonalization with overlap
     ethr =  6.80E-11,  avg # of iterations =  1.0

     total cpu time spent up to now is     4931.0 secs

     total energy              =   -1978.36646834 Ry
     estimated scf accuracy    <       0.00000007 Ry

     iteration # 43     ecut=    80.00 Ry     beta= 0.20
     Davidson diagonalization with overlap
     ethr =  6.35E-11,  avg # of iterations =  1.0

     total cpu time spent up to now is     5029.6 secs

     total energy              =   -1978.36646834 Ry
     estimated scf accuracy    <       0.00000006 Ry

     iteration # 44     ecut=    80.00 Ry     beta= 0.20
     Davidson diagonalization with overlap
     ethr =  5.69E-11,  avg # of iterations =  2.0

     total cpu time spent up to now is     5139.5 secs

     total energy              =   -1978.36646832 Ry
     estimated scf accuracy    <       0.00000004 Ry

     iteration # 45     ecut=    80.00 Ry     beta= 0.20
     Davidson diagonalization with overlap
     ethr =  3.54E-11,  avg # of iterations =  2.3

     total cpu time spent up to now is     5258.8 secs

     total energy              =   -1978.36646833 Ry
     estimated scf accuracy    <       0.00000002 Ry

     iteration # 46     ecut=    80.00 Ry     beta= 0.20
     Davidson diagonalization with overlap
     ethr =  1.63E-11,  avg # of iterations =  1.7

     total cpu time spent up to now is     5363.8 secs

     total energy              =   -1978.36646834 Ry
     estimated scf accuracy    <       0.00000001 Ry

     iteration # 47     ecut=    80.00 Ry     beta= 0.20
     Davidson diagonalization with overlap
     ethr =  1.04E-11,  avg # of iterations =  2.0

     total cpu time spent up to now is     5473.0 secs

     End of self-consistent calculation

          k = 0.0000 0.0000 0.0000 ( 21311 PWs)   bands (ev):

   -53.4978 -53.4580 -53.4367 -53.4158 -27.6718 -27.6325 -27.6106 -27.5904
   -27.4344 -27.4344 -27.3945 -27.3945 -27.3744 -27.3744 -27.3533 -27.3533
    -6.8463  -6.7515  -6.7120  -6.6570  -5.6127  -5.4588  -5.4233  -5.3247
     1.3517   1.6669   1.7705   2.0403   4.7797   4.7797   4.7804   4.8172
     4.8172   4.8315   4.8315   4.8513   4.8513   5.3433   5.5901   5.8939
     5.8939   5.9315   5.9316   5.9508   5.9508   5.9701   5.9702   6.2319
     6.9730   7.3044   7.5515   7.8572  10.1235  10.1235  10.1704  10.1705
    10.2096  10.2096  10.2230  10.2231  10.3377  10.3500

          k = 0.0000 0.0722 0.0000 ( 21283 PWs)   bands (ev):

   -53.4963 -53.4564 -53.4351 -53.4143 -27.6687 -27.6295 -27.6076 -27.5873
   -27.4499 -27.4379 -27.4100 -27.3980 -27.3900 -27.3779 -27.3689 -27.3569
    -6.7866  -6.6922  -6.6526  -6.5979  -5.5850  -5.4334  -5.3984  -5.3016
     1.4206   1.7347   1.8393   2.1082   4.6385   4.6504   4.6816   4.6972
     4.7171   4.8419   4.8795   4.8941   4.9138   5.1197   5.2842   5.5745
     5.7966   5.8348   5.8542   5.8739   5.9940   6.0779   6.1563   6.4702
     6.9759   7.2872   7.5135   7.7767  10.0499  10.0896  10.1154  10.1400
    10.1838  10.2082  10.2250  10.2473  10.2535  10.2945

          k = 0.0000 0.1443 0.0000 ( 21263 PWs)   bands (ev):

   -53.4918 -53.4520 -53.4307 -53.4098 -27.6601 -27.6208 -27.5989 -27.5787
   -27.4940 -27.4541 -27.4480 -27.4341 -27.4130 -27.4080 -27.3880 -27.3669
    -6.6126  -6.5193  -6.4795  -6.4257  -5.5044  -5.3596  -5.3259  -5.2344
     1.6124   1.9216   2.0286   2.2935   4.2896   4.3258   4.3368   4.3510
     4.3762   4.7076   4.8178   5.0209   5.0576   5.0586   5.0742   5.0940
     5.5451   5.5844   5.6041   5.6246   6.0516   6.2005   6.3187   6.6210
     6.9482   7.1945   7.3535   7.5182   9.7600   9.8167   9.8707   9.9259
     9.9620  10.0492  10.0618  10.0642  10.1101  10.1387

          k = 0.0000 0.2165 0.0000 ( 21233 PWs)   bands (ev):

   -53.4852 -53.4453 -53.4241 -53.4032 -27.6471 -27.6078 -27.5859 -27.5657
   -27.5594 -27.5195 -27.4995 -27.4785 -27.4630 -27.4230 -27.4030 -27.3819
    -6.3391  -6.2483  -6.2081  -6.1563  -5.3778  -5.2443  -5.2127  -5.1296
     1.8725   2.1652   2.2731   2.5198   3.8520   3.8937   3.9209   3.9265
     3.9925   4.2534   4.3287   4.5111   5.2182   5.2571   5.2806   5.2922
     5.3032   5.3359   5.3492   5.3708   5.9629   6.1458   6.2717   6.5384
     6.8072   6.9564   7.0295   7.1087   9.3748   9.5044   9.6171   9.8255
     9.8435   9.9235   9.9550   9.9624  10.0038  10.0749

          k = 0.0000 0.2887 0.0000 ( 21197 PWs)   bands (ev):

   -53.4773 -53.4375 -53.4162 -53.3953 -27.6356 -27.6318 -27.5958 -27.5925
   -27.5759 -27.5705 -27.5548 -27.5503 -27.4806 -27.4406 -27.4206 -27.3995
    -5.9915  -5.9053  -5.8650  -5.8168  -5.2180  -5.0998  -5.0706  -4.9990
     2.0729   2.3134   2.4070   2.5839   3.4498   3.5194   3.5838   3.6043
     3.6756   3.7980   3.8631   3.9702   4.8901   4.9316   4.9527   4.9744
     5.6181   5.6598   5.6787   5.7014   5.7471   5.9456   6.0665   6.2945
     6.5368   6.6173   6.6480   6.7003   9.2389   9.4204   9.5524   9.6554
     9.7332   9.7694   9.8110   9.8229  10.1724  10.3187

          k = 0.0000 0.3608 0.0000 ( 21187 PWs)   bands (ev):

   -53.4695 -53.4296 -53.4083 -53.3875 -27.7110 -27.6712 -27.6514 -27.6303
   -27.6164 -27.5771 -27.5551 -27.5349 -27.4981 -27.4582 -27.4382 -27.4171
    -5.6080  -5.5298  -5.4896  -5.4477  -5.0439  -4.9446  -4.9177  -4.8600
     2.0371   2.1867   2.2498   2.3312   3.0848   3.2044   3.3122   3.3766
     3.4410   3.5294   3.5770   3.6677   4.6016   4.6439   4.6652   4.6876
     5.5124   5.7116   5.8239   5.9363   5.9850   6.0068   6.0207   6.0337
     6.3188   6.3926   6.4178   6.4697   9.3565   9.5422   9.5526   9.6201
     9.6530   9.6597   9.6893   9.9115  10.5012  10.6534

          k = 0.0000 0.4330 0.0000 ( 21140 PWs)   bands (ev):

   -53.4628 -53.4229 -53.4016 -53.3808 -27.7743 -27.7344 -27.7147 -27.6936
   -27.6033 -27.5640 -27.5420 -27.5218 -27.5129 -27.4730 -27.4530 -27.4320
    -5.2436  -5.1771  -5.1374  -5.1047  -4.8816  -4.8037  -4.7780  -4.7351
     1.8055   1.8944   1.9448   1.9811   2.7476   2.8556   2.9251   2.9805
     3.3332   3.4407   3.4865   3.5888   4.3807   4.4236   4.4451   4.4678
     5.3377   5.5280   5.6342   5.8060   6.1892   6.2492   6.2739   6.3075
     6.3366   6.4235   6.4618   6.5238   9.5481   9.6012   9.6196   9.6301
     9.6583   9.7750   9.8599  10.0466  10.8090  10.9498

          k = 0.0000 0.5052 0.0000 ( 21078 PWs)   bands (ev):

   -53.4583 -53.4185 -53.3972 -53.3763 -27.8162 -27.7763 -27.7566 -27.7356
   -27.5945 -27.5553 -27.5332 -27.5228 -27.5130 -27.4829 -27.4629 -27.4418
    -4.9704  -4.9174  -4.8789  -4.8566  -4.7625  -4.7053  -4.6788  -4.6483
     1.5781   1.6419   1.6914   1.7142   2.5111   2.5933   2.6573   2.6999
     3.2299   3.3384   3.3833   3.4759   4.2429   4.2862   4.3077   4.3307
     5.2425   5.4223   5.5247   5.6753   6.3422   6.4128   6.4399   6.4801
     6.5240   6.6079   6.6545   6.7172   9.5980   9.6409   9.6661   9.6884
     9.9130  10.0204  10.0704  10.1771  11.0002  11.1212

          k = 0.0000-0.5774 0.0000 ( 21006 PWs)   bands (ev):

   -53.4568 -53.4169 -53.3956 -53.3747 -27.8308 -27.7910 -27.7713 -27.7503
   -27.5915 -27.5522 -27.5302 -27.5263 -27.5099 -27.4864 -27.4664 -27.4453
    -4.8662  -4.8201  -4.7828  -4.7657  -4.7179  -4.6708  -4.6428  -4.6173
     1.4865   1.5446   1.5946   1.6152   2.4265   2.4974   2.5621   2.6010
     3.1818   3.2902   3.3338   3.4233   4.1962   4.2396   4.2611   4.2842
     5.2139   5.3887   5.4894   5.6314   6.3918   6.4668   6.4948   6.5376
     6.6408   6.7071   6.7506   6.8120   9.6270   9.6673   9.6907   9.7115
    10.0695  10.1418  10.1668  10.2227  11.0607  11.1683

          k = 0.0625 0.1083 0.0000 ( 21269 PWs)   bands (ev):

   -53.4933 -53.4534 -53.4321 -53.4113 -27.6629 -27.6236 -27.6017 -27.5815
   -27.4793 -27.4452 -27.4394 -27.4193 -27.4052 -27.3983 -27.3852 -27.3641
    -6.6698  -6.5761  -6.5363  -6.4822  -5.5309  -5.3838  -5.3497  -5.2564
     1.5514   1.8627   1.9689   2.2357   4.4004   4.4321   4.4421   4.4591
     4.4805   4.8353   4.9595   4.9612   4.9984   5.0134   5.0329   5.2229
     5.5818   5.6195   5.6395   5.6589   6.0891   6.2174   6.3258   6.6247
     6.9647   7.2335   7.4157   7.6069   9.8867   9.9192   9.9222   9.9650
     9.9832  10.0324  10.0581  10.1131  10.1370  10.2000

          k = 0.0625 0.1804 0.0000 ( 21194 PWs)   bands (ev):

   -53.4877 -53.4479 -53.4266 -53.4057 -27.6521 -27.6128 -27.5909 -27.5706
   -27.5328 -27.4929 -27.4729 -27.4589 -27.4518 -27.4190 -27.3989 -27.3778
    -6.4459  -6.3539  -6.3139  -6.2612  -5.4271  -5.2891  -5.2566  -5.1702
     1.7815   2.0832   2.1917   2.4491   4.0168   4.0529   4.0796   4.0841
     4.1417   4.4562   4.5470   4.7630   5.1762   5.2051   5.2253   5.2310
     5.2424   5.2629   5.2731   5.2943   6.1390   6.2910   6.4076   6.6647
     6.8830   7.0695   7.1719   7.2690   9.4862   9.5873   9.6749   9.8111
     9.8493   9.9126   9.9507   9.9868  10.0139  10.0358

          k = 0.0625 0.2526 0.0000 ( 21202 PWs)   bands (ev):

   -53.4805 -53.4406 -53.4193 -53.3985 -27.6379 -27.6020 -27.5986 -27.5767
   -27.5621 -27.5564 -27.5422 -27.5211 -27.4768 -27.4369 -27.4169 -27.3958
    -6.1347  -6.0463  -6.0061  -5.9561  -5.2833  -5.1585  -5.1283  -5.0519
     2.0254   2.2962   2.3998   2.6175   3.6218   3.6700   3.7037   3.7189
     3.8129   4.0310   4.0942   4.2381   4.8376   4.8808   4.8976   4.9288
     5.4441   5.4833   5.5030   5.5235   6.0362   6.1926   6.3031   6.5114
     6.6751   6.7736   6.8077   6.8591   9.2189   9.3798   9.4930   9.6586
     9.7771   9.8287   9.8498   9.8866   9.9666  10.1031

          k = 0.0625 0.3248 0.0000 ( 21194 PWs)   bands (ev):

   -53.4726 -53.4328 -53.4115 -53.3906 -27.6760 -27.6361 -27.6226 -27.6163
   -27.5952 -27.5833 -27.5613 -27.5410 -27.4962 -27.4563 -27.4363 -27.4152
    -5.7676  -5.6856  -5.6452  -5.6003  -5.1149  -5.0072  -4.9795  -4.9157
     2.1155   2.3083   2.3847   2.5060   3.2811   3.3710   3.4998   3.5110
     3.5619   3.6159   3.7021   3.7370   4.5307   4.5870   4.6076   4.6481
     5.6768   5.7171   5.7453   5.7631   5.8244   5.9695   6.0732   6.2452
     6.4497   6.5061   6.5279   6.5717   9.1820   9.3585   9.4541   9.5715
     9.7079   9.7647   9.7861   9.9100  10.2313  10.3791

          k = 0.0625 0.3969 0.0000 ( 21151 PWs)   bands (ev):

   -53.4654 -53.4255 -53.4042 -53.3833 -27.7436 -27.7038 -27.6840 -27.6630
   -27.6083 -27.5690 -27.5470 -27.5268 -27.5140 -27.4741 -27.4541 -27.4330
    -5.3904  -5.3184  -5.2783  -5.2412  -4.9444  -4.8569  -4.8309  -4.7815
     1.9622   2.0761   2.1302   2.1837   2.9126   3.0224   3.0960   3.1499
     3.4049   3.5053   3.5515   3.6574   4.3312   4.3912   4.4134   4.4517
     5.5617   5.7137   5.7916   5.8232   5.8779   5.8857   5.9264   5.9929
     6.4605   6.5078   6.5263   6.5672   9.3166   9.4619   9.5234   9.5995
     9.7517   9.8067   9.8464   9.9934  10.5722  10.7127

          k = 0.0625 0.4691 0.0000 ( 21105 PWs)   bands (ev):

   -53.4598 -53.4199 -53.3986 -53.3778 -27.7950 -27.7551 -27.7354 -27.7144
   -27.5974 -27.5581 -27.5361 -27.5276 -27.5158 -27.4877 -27.4677 -27.4466
    -5.0664  -5.0075  -4.9683  -4.9415  -4.8005  -4.7346  -4.7088  -4.6734
     1.7258   1.7997   1.8493   1.8768   2.5973   2.6808   2.7406   2.7808
     3.3020   3.4104   3.4595   3.5545   4.2247   4.2737   4.2991   4.3275
     5.3697   5.5238   5.6149   5.7510   5.9442   6.0008   6.0339   6.0765
     6.6333   6.6830   6.7064   6.7513   9.5108   9.5960   9.6304   9.6732
     9.8874   9.9605  10.0031  10.1195  10.8860  11.0095

          k = 0.0625 0.5413 0.0000 ( 21084 PWs)   bands (ev):

   -53.4568 -53.4169 -53.3956 -53.3747 -27.8226 -27.7827 -27.7630 -27.7420
   -27.5915 -27.5522 -27.5350 -27.5302 -27.5099 -27.4950 -27.4751 -27.4540
    -4.8721  -4.8248  -4.7872  -4.7693  -4.7156  -4.6669  -4.6394  -4.6132
     1.5664   1.6255   1.6759   1.6969   2.4195   2.4855   2.5453   2.5801
     3.2126   3.3226   3.3689   3.4577   4.1829   4.2191   4.2478   4.2681
     5.2644   5.4209   5.5143   5.6437   6.0334   6.1000   6.1332   6.1760
     6.7864   6.8415   6.8705   6.9203   9.6263   9.6636   9.6899   9.7114
    10.0637  10.1385  10.1697  10.2338  11.1075  11.2016

          k = 0.1250 0.2165 0.0000 ( 21179 PWs)   bands (ev):

   -53.4816 -53.4417 -53.4205 -53.3996 -27.6401 -27.6008 -27.5880 -27.5789
   -27.5586 -27.5481 -27.5281 -27.5071 -27.4777 -27.4378 -27.4177 -27.3967
    -6.1839  -6.0948  -6.0546  -6.0041  -5.3056  -5.1786  -5.1481  -5.0699
     2.0061   2.2870   2.3937   2.6255   3.6958   3.7292   3.7638   3.7765
     3.9095   4.1837   4.2559   4.4255   4.6995   4.7432   4.7542   4.7885
     5.3648   5.4025   5.4231   5.4424   6.2220   6.3560   6.4595   6.6420
     6.7370   6.8495   6.8790   6.9264   9.2073   9.3577   9.4600   9.6195
     9.7717   9.8026   9.8409   9.8536   9.8873   9.9930

          k = 0.1250 0.2887 0.0000 ( 21199 PWs)   bands (ev):

   -53.4743 -53.4345 -53.4132 -53.3923 -27.6513 -27.6259 -27.6114 -27.5915
   -27.5866 -27.5705 -27.5646 -27.5444 -27.5010 -27.4611 -27.4411 -27.4200
    -5.8516  -5.7677  -5.7273  -5.6810  -5.1517  -5.0397  -5.0114  -4.9444
     2.1636   2.3879   2.4750   2.6303   3.4400   3.4908   3.5767   3.6018
     3.6849   3.8089   3.8623   3.9189   4.2644   4.3425   4.3768   4.4692
     5.4670   5.5075   5.5349   5.5543   6.1492   6.2603   6.3515   6.4811
     6.5554   6.5877   6.6150   6.6498   9.0475   9.2301   9.3332   9.4924
     9.7673   9.8040   9.8268   9.8908   9.9701  10.1195

          k = 0.1250 0.3608 0.0000 ( 21195 PWs)   bands (ev):

   -53.4671 -53.4272 -53.4059 -53.3850 -27.7135 -27.6736 -27.6538 -27.6328
   -27.6117 -27.5724 -27.5504 -27.5301 -27.5247 -27.4847 -27.4648 -27.4437
    -5.4867  -5.4112  -5.3709  -5.3312  -4.9837  -4.8899  -4.8637  -4.8098
     2.1174   2.2615   2.3213   2.3982   3.1127   3.2017   3.2742   3.3047
     3.4965   3.5767   3.6262   3.7227   4.0666   4.1956   4.2346   4.3368
     5.4080   5.4547   5.4854   5.5077   5.9296   6.0220   6.1019   6.2095
     6.5141   6.5526   6.5736   6.6062   9.0840   9.2840   9.3854   9.5580
     9.8392   9.8814   9.9009   9.9812  10.2261  10.3705

          k = 0.1250 0.4330 0.0000 ( 21113 PWs)   bands (ev):

   -53.4609 -53.4210 -53.3997 -53.3789 -27.7656 -27.7258 -27.7060 -27.6850
   -27.5996 -27.5603 -27.5448 -27.5383 -27.5180 -27.5049 -27.4850 -27.4639
    -5.1422  -5.0786  -5.0390  -5.0087  -4.8263  -4.7534  -4.7280  -4.6881
     1.9380   2.0312   2.0818   2.1207   2.7018   2.7647   2.8151   2.8414
     3.4259   3.5291   3.5905   3.6786   4.0375   4.1630   4.1964   4.2798
     5.3514   5.4184   5.4535   5.4914   5.6551   5.7432   5.8173   5.9193
     6.6529   6.6941   6.7129   6.7462   9.2921   9.4809   9.5685   9.7256
     9.9486   9.9967  10.0052  10.0624  10.5434  10.6664

          k = 0.1250 0.5052 0.0000 ( 21081 PWs)   bands (ev):

   -53.4568 -53.4169 -53.3956 -53.3747 -27.8002 -27.7603 -27.7406 -27.7196
   -27.5915 -27.5583 -27.5522 -27.5302 -27.5184 -27.5099 -27.4985 -27.4774
    -4.8861  -4.8358  -4.7975  -4.7779  -4.7101  -4.6577  -4.6312  -4.6030
     1.7759   1.8415   1.8930   1.9162   2.4076   2.4567   2.5069   2.5318
     3.3071   3.4210   3.4738   3.5572   4.0872   4.1797   4.2125   4.2611
     5.3447   5.4308   5.4773   5.4947   5.5230   5.5477   5.6034   5.7086
     6.8386   6.8889   6.9105   6.9508   9.5141   9.6204   9.6620   9.7257
    10.0974  10.1617  10.1923  10.2647  10.8225  10.9192

          k = 0.1250 0.5774 0.0000 ( 21108 PWs)   bands (ev):

   -53.4553 -53.4154 -53.3941 -53.3733 -27.8123 -27.7724 -27.7527 -27.7317
   -27.5887 -27.5631 -27.5494 -27.5273 -27.5232 -27.5071 -27.5032 -27.4821
    -4.7889  -4.7452  -4.7084  -4.6950  -4.6656  -4.6240  -4.5960  -4.5724
     1.7131   1.7687   1.8218   1.8417   2.3027   2.3478   2.3988   2.4236
     3.2471   3.3621   3.4123   3.4951   4.1364   4.1892   4.2267   4.2564
     5.2875   5.4118   5.4344   5.4986   5.5054   5.5341   5.5642   5.6497
     6.9301   6.9872   7.0123   7.0569   9.5937   9.6292   9.6556   9.6824
    10.2077  10.2848  10.3148  10.3692  10.9340  11.0409

          k = 0.1875 0.3248 0.0000 ( 21195 PWs)   bands (ev):

   -53.4677 -53.4278 -53.4065 -53.3856 -27.6999 -27.6601 -27.6403 -27.6192
   -27.6128 -27.5736 -27.5516 -27.5314 -27.5313 -27.4915 -27.4715 -27.4505
    -5.5201  -5.4435  -5.4031  -5.3625  -4.9970  -4.9011  -4.8747  -4.8193
     2.1833   2.3428   2.4057   2.4953   3.2412   3.3099   3.3657   3.3902
     3.5389   3.6085   3.6631   3.7212   3.9200   4.0751   4.1326   4.2674
     5.2342   5.2791   5.3130   5.3331   6.0956   6.1638   6.2302   6.3258
     6.5193   6.5618   6.5855   6.6172   8.9954   9.2128   9.3253   9.5331
     9.8626   9.8946   9.9197   9.9668  10.0729  10.2205

          k = 0.1875 0.3969 0.0000 ( 21153 PWs)   bands (ev):

   -53.4615 -53.4216 -53.4003 -53.3795 -27.7419 -27.7020 -27.6822 -27.6612
   -27.6008 -27.5623 -27.5615 -27.5395 -27.5223 -27.5192 -27.5024 -27.4813
    -5.1837  -5.1177  -5.0778  -5.0456  -4.8392  -4.7623  -4.7371  -4.6946
     2.0985   2.2121   2.2635   2.3170   2.7968   2.8252   2.8705   2.8849
     3.5613   3.6308   3.7296   3.7736   3.9226   4.0654   4.1189   4.2413
     4.9149   4.9712   5.0045   5.0327   5.8697   5.9208   5.9549   6.0580
     6.6222   6.6702   6.6913   6.7232   9.1499   9.3859   9.5031   9.7620
     9.9763  10.0094  10.0376  10.0567  10.2678  10.3978

          k = 0.1875 0.4691 0.0000 ( 21101 PWs)   bands (ev):

   -53.4568 -53.4169 -53.3956 -53.3747 -27.7723 -27.7325 -27.7127 -27.6917
   -27.5915 -27.5872 -27.5522 -27.5473 -27.5302 -27.5273 -27.5099 -27.5063
    -4.8996  -4.8466  -4.8077  -4.7864  -4.7046  -4.6487  -4.6230  -4.5928
     2.0132   2.0974   2.1492   2.1811   2.4013   2.4291   2.4717   2.4873
     3.4759   3.5911   3.6512   3.7066   3.9844   4.1342   4.1749   4.2738
     4.7285   4.8176   4.8569   4.9175   5.5677   5.6367   5.6678   5.7694
     6.8238   6.8683   6.8867   6.9174   9.3700   9.5343   9.6036   9.7257
    10.1394  10.1953  10.2239  10.3016  10.4829  10.5734

          k = 0.1875 0.5413 0.0000 ( 21112 PWs)   bands (ev):

   -53.4542 -53.4143 -53.3930 -53.3722 -27.7883 -27.7485 -27.7288 -27.7077
   -27.6011 -27.5865 -27.5612 -27.5472 -27.5413 -27.5252 -27.5202 -27.5049
    -4.7318  -4.6893  -4.6529  -4.6439  -4.6216  -4.5853  -4.5577  -4.5352
     1.9770   2.0334   2.0944   2.1144   2.1857   2.2160   2.2558   2.2749
     3.3331   3.4551   3.5074   3.5782   4.1151   4.2129   4.2601   4.3097
     4.6834   4.7973   4.8392   4.9075   5.3591   5.4267   5.4660   5.5677
     7.0072   7.0577   7.0781   7.1150   9.4442   9.5014   9.5290   9.5640
    10.3244  10.4138  10.4678  10.5557  10.6000  10.6813

          k = 0.2500 0.4330 0.0000 ( 21125 PWs)   bands (ev):

   -53.4568 -53.4169 -53.3956 -53.3747 -27.7578 -27.7180 -27.6982 -27.6772
   -27.6021 -27.5915 -27.5622 -27.5522 -27.5423 -27.5302 -27.5212 -27.5100
    -4.9051  -4.8510  -4.8120  -4.7899  -4.7024  -4.6450  -4.6196  -4.5885
     2.1214   2.2195   2.2708   2.3067   2.4009   2.4227   2.4575   2.4695
     3.6588   3.6955   3.7816   3.8306   3.9913   4.1271   4.1723   4.2903
     4.4153   4.4655   4.4905   4.5141   5.6409   5.6808   5.7025   5.8093
     6.8072   6.8525   6.8703   6.8991   9.3095   9.4928   9.5731   9.7176
    10.1505  10.1977  10.2329  10.3083  10.3523  10.4621

          k = 0.2500 0.5052 0.0000 ( 21117 PWs)   bands (ev):

   -53.4536 -53.4137 -53.3924 -53.3716 -27.7626 -27.7227 -27.7030 -27.6819
   -27.6347 -27.5948 -27.5853 -27.5749 -27.5538 -27.5461 -27.5240 -27.5038
    -4.7037  -4.6612  -4.6250  -4.6183  -4.5959  -4.5618  -4.5350  -4.5127
     2.0932   2.1171   2.1629   2.1724   2.2410   2.3162   2.3581   2.3911
     3.5032   3.6238   3.6653   3.6998   4.0522   4.1170   4.1829   4.2222
     4.2509   4.2903   4.3455   4.4051   5.3626   5.4104   5.4451   5.5447
     7.0481   7.0913   7.1093   7.1375   9.3109   9.3848   9.4167   9.4638
    10.2904  10.3480  10.3857  10.4596  10.5518  10.6266

          k = 0.2500 0.5774 0.0000 ( 21116 PWs)   bands (ev):

   -53.4525 -53.4126 -53.3913 -53.3705 -27.7624 -27.7226 -27.7028 -27.6818
   -27.6479 -27.6080 -27.5881 -27.5832 -27.5671 -27.5439 -27.5218 -27.5016
    -4.6279  -4.5915  -4.5711  -4.5563  -4.5479  -4.5293  -4.5044  -4.4845
     1.9940   2.0164   2.0606   2.0705   2.3270   2.3744   2.4248   2.4429
     3.3490   3.4679   3.5109   3.5624   4.0142   4.1179   4.1933   4.2213
     4.2928   4.3652   4.4026   4.4384   5.2438   5.2886   5.2966   5.4136
     7.1742   7.2199   7.2393   7.2703   9.2425   9.2796   9.3026   9.3226
    10.3145  10.3775  10.3953  10.5042  10.7038  10.7549

          k = 0.3125 0.5413 0.0000 ( 21100 PWs)   bands (ev):

   -53.4519 -53.4120 -53.3907 -53.3699 -27.7413 -27.7015 -27.6818 -27.6764
   -27.6607 -27.6365 -27.6166 -27.5955 -27.5820 -27.5427 -27.5207 -27.5004
    -4.5910  -4.5578  -4.5472  -4.5248  -4.5216  -4.5053  -4.4849  -4.4650
     1.9266   1.9485   1.9907   2.0004   2.5505   2.6129   2.6639   2.6854
     3.3579   3.3715   3.4234   3.4539   3.8328   3.8652   3.8712   3.9393
     4.3426   4.4230   4.4604   4.4959   5.1556   5.2035   5.2329   5.3401
     7.2568   7.2987   7.3178   7.3447   9.1264   9.1648   9.1862   9.2064
    10.2524  10.2913  10.2970  10.4271  10.8037  10.8560

     the Fermi energy is     8.3629 ev

!    total energy              =   -1978.36646832 Ry
     total all-electron energy =    -38771.687313 Ry
     estimated scf accuracy    <          7.1E-09 Ry
     smearing contrib. (-TS)   =       0.00003459 Ry
     internal energy E=F+TS    =   -1978.36650291 Ry

     The total energy is F=E-TS. E is the sum of the following terms:
     one-electron contribution =   -1276.47691628 Ry
     hartree contribution      =     680.50342490 Ry
     xc contribution           =    -119.23240148 Ry
     ewald contribution        =       6.69149514 Ry
     one-center paw contrib.   =   -1269.85210518 Ry

     convergence has been achieved in  47 iterations

     Writing all to output data dir ./tmp/cleave/cleave_dz020_dz4p0/mos2_cleave.save/ :
     XML data file, charge density, pseudopotentials, collected wavefunctions

     init_run     :     84.73s CPU     85.60s WALL (       1 calls)
     electrons    :   5300.29s CPU   5387.34s WALL (       1 calls)

     Called by init_run:
     wfcinit      :     41.02s CPU     41.13s WALL (       1 calls)
     potinit      :     41.56s CPU     41.79s WALL (       1 calls)
     hinit0       :      0.31s CPU      0.33s WALL (       1 calls)

     Called by electrons:
     c_bands      :   4423.40s CPU   4450.83s WALL (      48 calls)
     sum_band     :    671.62s CPU    699.26s WALL (      48 calls)
     v_of_rho     :    122.35s CPU    131.03s WALL (      48 calls)
     newd         :     83.87s CPU    107.50s WALL (      48 calls)
     PAW_pot      :     19.01s CPU     19.02s WALL (      48 calls)
     mix_rho      :     22.25s CPU     22.63s WALL (      48 calls)
     vdW_kernel   :     39.41s CPU     39.43s WALL (       1 calls)

     Called by c_bands:
     init_us_2    :     20.78s CPU     20.80s WALL (    2910 calls)
     init_us_2:cp :     20.77s CPU     20.80s WALL (    2910 calls)
     cegterg      :   4216.02s CPU   4243.12s WALL (    1440 calls)

     Called by *egterg:
     cdiaghg      :     11.54s CPU     11.54s WALL (    4730 calls)
     h_psi        :   2295.38s CPU   2306.02s WALL (    4790 calls)
     s_psi        :    693.79s CPU    694.10s WALL (    4790 calls)
     g_psi        :     10.46s CPU     10.47s WALL (    3320 calls)

     Called by h_psi:
     h_psi:calbec :    898.50s CPU    898.78s WALL (    4790 calls)
     vloc_psi     :    698.41s CPU    699.22s WALL (    4790 calls)
     add_vuspsi   :    693.88s CPU    694.05s WALL (    4790 calls)

     General routines
     calbec       :   1301.65s CPU   1302.05s WALL (    6230 calls)
     fft          :     35.29s CPU     35.31s WALL (    3023 calls)
     ffts         :     10.75s CPU     10.75s WALL (    3696 calls)
     fftw         :    647.82s CPU    648.47s WALL (  486232 calls)
     interpolate  :      0.77s CPU      0.78s WALL (      48 calls)

     Parallel routines

     PWSCF        :      1h29m CPU      1h31m WALL


   This run was terminated on:   7:31:51   9Jun2026            

=------------------------------------------------------------------------------=
   JOB DONE.
=------------------------------------------------------------------------------=
Note: The following floating-point exceptions are signalling: IEEE_UNDERFLOW_FLAG IEEE_DENORMAL
