Authorization required, but no authorization protocol specified

Authorization required, but no authorization protocol specified

Authorization required, but no authorization protocol specified

Authorization required, but no authorization protocol specified

Authorization required, but no authorization protocol specified

Authorization required, but no authorization protocol specified

Authorization required, but no authorization protocol specified

Authorization required, but no authorization protocol specified


     Program PWSCF v.7.3 starts on  8Jun2026 at  9:46:51 

     This program is part of the open-source Quantum ESPRESSO suite
     for quantum simulation of materials; please cite
         "P. Giannozzi et al., J. Phys.:Condens. Matter 21 395502 (2009);
         "P. Giannozzi et al., J. Phys.:Condens. Matter 29 465901 (2017);
         "P. Giannozzi et al., J. Chem. Phys. 152 154105 (2020);
          URL http://www.quantum-espresso.org", 
     in publications or presentations arising from this work. More details at
     http://www.quantum-espresso.org/quote

     Parallel version (MPI), running on     1 processors

     MPI processes distributed on     1 nodes
     13295 MiB available memory on the printing compute node when the environment starts

     Waiting for input...
     Reading input from standard input

     Current dimensions of program PWSCF are:
     Max number of different atomic species (ntypx) = 10
     Max number of k-points (npk) =  40000
     Max angular momentum in pseudopotentials (lmaxx) =  4
     file Mo.pbe-spn-kjpaw_psl.1.0.0.UPF: wavefunction(s)  4S 4D renormalized
     file S.pbe-n-kjpaw_psl.1.0.0.UPF: wavefunction(s)  3S 3P renormalized

     IMPORTANT: XC functional enforced from input :
     Exchange-correlation= VDW-DF2-B86R
                           (   1   4  26   0   2   0   0)
     Any further DFT definition will be discarded
     Please, verify this is what you really want


     Subspace diagonalization in iterative solution of the eigenvalue problem:
     a serial algorithm will be used


     G-vector sticks info
     --------------------
     sticks:   dense  smooth     PW     G-vecs:    dense   smooth      PW
     Sum        1573     769    223               478405   168563   26075

     Using Slab Decomposition



     bravais-lattice index     =            4
     lattice parameter (alat)  =       5.9715  a.u.
     unit-cell volume          =    1750.7440 (a.u.)^3
     number of atoms/cell      =           12
     number of atomic types    =            2
     number of electrons       =       104.00
     number of Kohn-Sham states=           62
     kinetic-energy cutoff     =      80.0000  Ry
     charge density cutoff     =     640.0000  Ry
     scf convergence threshold =      1.0E-08
     mixing beta               =       0.2000
     number of iterations used =            8  local-TF  mixing
     Exchange-correlation= VDW-DF2-B86R
                           (   1   4  26   0   2   0   0)

     celldm(1)=   5.971535  celldm(2)=   0.000000  celldm(3)=   9.493671
     celldm(4)=   0.000000  celldm(5)=   0.000000  celldm(6)=   0.000000

     crystal axes: (cart. coord. in units of alat)
               a(1) = (   1.000000   0.000000   0.000000 )  
               a(2) = (  -0.500000   0.866025   0.000000 )  
               a(3) = (   0.000000   0.000000   9.493671 )  

     reciprocal axes: (cart. coord. in units 2 pi/alat)
               b(1) = (  1.000000  0.577350 -0.000000 )  
               b(2) = (  0.000000  1.154701  0.000000 )  
               b(3) = (  0.000000 -0.000000  0.105333 )  


     PseudoPot. # 1 for Mo read from file:
     ./pseudo/Mo.pbe-spn-kjpaw_psl.1.0.0.UPF
     MD5 check sum: 4396e0c640fcce5c25f020efccf1ab12
     Pseudo is Projector augmented-wave + core cor, Zval = 14.0
     Generated using &quot;atomic&quot; code by A. Dal Corso  v.6.3
     Shape of augmentation charge: PSQ
     Using radial grid of 1229 points,  6 beta functions with: 
                l(1) =   0
                l(2) =   0
                l(3) =   1
                l(4) =   1
                l(5) =   2
                l(6) =   2
     Q(r) pseudized with 0 coefficients 


     PseudoPot. # 2 for S  read from file:
     ./pseudo/S.pbe-n-kjpaw_psl.1.0.0.UPF
     MD5 check sum: fb45dfebcf3e72a4e1bd4a866ec2e262
     Pseudo is Projector augmented-wave + core cor, Zval =  6.0
     Generated using &quot;atomic&quot; code by A. Dal Corso  v.6.3
     Shape of augmentation charge: PSQ
     Using radial grid of 1151 points,  6 beta functions with: 
                l(1) =   0
                l(2) =   0
                l(3) =   1
                l(4) =   1
                l(5) =   2
                l(6) =   2
     Q(r) pseudized with 0 coefficients 


     atomic species   valence    mass     pseudopotential
     Mo               14.00    95.96000     Mo( 1.00)
     S                 6.00    32.06000     S ( 1.00)

      6 Sym. Ops. (no inversion) found



   Cartesian axes

     site n.     atom                  positions (alat units)
         1        S      tau(   1) = (  -0.0000005   0.5773503  -0.9967195  )
         2        Mo     tau(   2) = (   0.0000000   0.0000000  -0.4993332  )
         3        S      tau(   3) = (  -0.0000005   0.5773503  -0.0017175  )
         4        S      tau(   4) = (   0.5000003   0.2886747   0.9835827  )
         5        Mo     tau(   5) = (  -0.0000005   0.5773503   1.4818950  )
         6        S      tau(   6) = (   0.5000003   0.2886747   1.9798512  )
         7        S      tau(   7) = (   0.0000000   0.0000000   2.9586848  )
         8        Mo     tau(   8) = (   0.5000003   0.2886747   3.4569999  )
         9        S      tau(   9) = (   0.0000000   0.0000000   3.9548385  )
        10        S      tau(  10) = (  -0.0000005   0.5773503   5.6802553  )
        11        Mo     tau(  11) = (   0.0000000   0.0000000   6.1778919  )
        12        S      tau(  12) = (  -0.0000005   0.5773503   6.6750260  )

     number of k points=    30  Methfessel-Paxton smearing, width (Ry)=  0.0200
                       cart. coord. in units 2pi/alat
        k(    1) = (   0.0000000   0.0000000   0.0000000), wk =   0.0078125
        k(    2) = (   0.0000000   0.0721688   0.0000000), wk =   0.0468750
        k(    3) = (   0.0000000   0.1443376   0.0000000), wk =   0.0468750
        k(    4) = (   0.0000000   0.2165064   0.0000000), wk =   0.0468750
        k(    5) = (   0.0000000   0.2886751   0.0000000), wk =   0.0468750
        k(    6) = (   0.0000000   0.3608439   0.0000000), wk =   0.0468750
        k(    7) = (   0.0000000   0.4330127   0.0000000), wk =   0.0468750
        k(    8) = (   0.0000000   0.5051815   0.0000000), wk =   0.0468750
        k(    9) = (   0.0000000  -0.5773503   0.0000000), wk =   0.0234375
        k(   10) = (   0.0625000   0.1082532   0.0000000), wk =   0.0468750
        k(   11) = (   0.0625000   0.1804220   0.0000000), wk =   0.0937500
        k(   12) = (   0.0625000   0.2525907   0.0000000), wk =   0.0937500
        k(   13) = (   0.0625000   0.3247595   0.0000000), wk =   0.0937500
        k(   14) = (   0.0625000   0.3969283   0.0000000), wk =   0.0937500
        k(   15) = (   0.0625000   0.4690971   0.0000000), wk =   0.0937500
        k(   16) = (   0.0625000   0.5412659   0.0000000), wk =   0.0937500
        k(   17) = (   0.1250000   0.2165064   0.0000000), wk =   0.0468750
        k(   18) = (   0.1250000   0.2886751   0.0000000), wk =   0.0937500
        k(   19) = (   0.1250000   0.3608439   0.0000000), wk =   0.0937500
        k(   20) = (   0.1250000   0.4330127   0.0000000), wk =   0.0937500
        k(   21) = (   0.1250000   0.5051815   0.0000000), wk =   0.0937500
        k(   22) = (   0.1250000   0.5773503   0.0000000), wk =   0.0468750
        k(   23) = (   0.1875000   0.3247595   0.0000000), wk =   0.0468750
        k(   24) = (   0.1875000   0.3969283   0.0000000), wk =   0.0937500
        k(   25) = (   0.1875000   0.4690971   0.0000000), wk =   0.0937500
        k(   26) = (   0.1875000   0.5412659   0.0000000), wk =   0.0937500
        k(   27) = (   0.2500000   0.4330127   0.0000000), wk =   0.0468750
        k(   28) = (   0.2500000   0.5051815   0.0000000), wk =   0.0937500
        k(   29) = (   0.2500000   0.5773503   0.0000000), wk =   0.0468750
        k(   30) = (   0.3125000   0.5412659   0.0000000), wk =   0.0468750

     Dense  grid:   478405 G-vectors     FFT dimensions: (  50,  50, 480)

     Smooth grid:   168563 G-vectors     FFT dimensions: (  36,  36, 324)

     Estimated max dynamical RAM per process >       2.35 GB

     Initial potential from superposition of free atoms

     starting charge     103.9962, renormalised to     104.0000


     %%%%%%%%%%%%%%%%%%%%%%%%%%%%%%%%%%%%%%%%%%%%%%%%%%%%%%%%%%%%%%%%%%%%%%%%
     %                                                                      %
     % You are using vdW-DF, which was implemented by the Thonhauser group. %
     % Please cite the following two papers that made this development      %
     % possible and the two reviews that describe the various versions:     %
     %                                                                      %
     %   T. Thonhauser et al., PRL 115, 136402 (2015).                      %
     %   T. Thonhauser et al., PRB 76, 125112 (2007).                       %
     %   K. Berland et al., Rep. Prog. Phys. 78, 066501 (2015).             %
     %   D.C. Langreth et al., J. Phys.: Condens. Matter 21, 084203 (2009). %
     %                                                                      %
     % If you are calculating stress with vdW-DF, please also cite:         %
     %                                                                      %
     %   R. Sabatini et al., J. Phys.: Condens. Matter 24, 424209 (2012).   %
     %                                                                      %
     %%%%%%%%%%%%%%%%%%%%%%%%%%%%%%%%%%%%%%%%%%%%%%%%%%%%%%%%%%%%%%%%%%%%%%%%

     %%%%%%%%%%%%%%%%%%%%%%%%%%%%%%%%%%%%%%%%%%%%%%%%%%%%%%%%%%%%%%%%%%%%%%%%
     %                                                                      %
     %  vdW-DF NEWS:                                                        %
     %                                                                      %
     %  * vdW-DF3 is now available. DOI: 10.1021/acs.jctc.0c00471           %
     %    use with input_dft = 'vdW-DF3-opt1' or 'vdW-DF3-opt2'             %
     %                                                                      %
     %  * Unscreened and range-separated hybrid vdW-DF-cx functionals       %
     %    DOI: 10.1063/1.4986522 and 10.1088/1361-648X/ac2ad2               %
     %    use with input_dft = 'vdW-DF-cx0'    and 'vdW-DF-ahcx'            %
     %  * Unscreened and range-separated hybrid vdW-DF2-b86r functionals    %
     %    DOI: 10.1063/1.4986522 and DOI: 10.1103/PhysRevX.12.041003        %
     %    use with input_dft = 'vdW-DF2-br0' and 'vdW-DF2-ahbr'             %
     %                                                                      %
     %%%%%%%%%%%%%%%%%%%%%%%%%%%%%%%%%%%%%%%%%%%%%%%%%%%%%%%%%%%%%%%%%%%%%%%%


     Starting wfcs are   72 randomized atomic wfcs
     Checking if some PAW data can be deallocated... 

     total cpu time spent up to now is       85.9 secs

     Self-consistent Calculation

     iteration #  1     ecut=    80.00 Ry     beta= 0.20
     Davidson diagonalization with overlap
     ethr =  1.00E-02,  avg # of iterations =  2.2

     Threshold (ethr) on eigenvalues was too large:
     Diagonalizing with lowered threshold

     Davidson diagonalization with overlap
     ethr =  3.07E-04,  avg # of iterations =  3.2

     total cpu time spent up to now is      340.0 secs

     total energy              =   -1978.45820894 Ry
     estimated scf accuracy    <       0.43787210 Ry

     iteration #  2     ecut=    80.00 Ry     beta= 0.20
     Davidson diagonalization with overlap
     ethr =  4.21E-04,  avg # of iterations =  1.0

     total cpu time spent up to now is      438.2 secs

     total energy              =   -1978.27976469 Ry
     estimated scf accuracy    <       0.36581833 Ry

     iteration #  3     ecut=    80.00 Ry     beta= 0.20
     Davidson diagonalization with overlap
     ethr =  3.52E-04,  avg # of iterations =  2.0

     total cpu time spent up to now is      568.4 secs

     total energy              =   -1978.35959195 Ry
     estimated scf accuracy    <       0.04920376 Ry

     iteration #  4     ecut=    80.00 Ry     beta= 0.20
     Davidson diagonalization with overlap
     ethr =  4.73E-05,  avg # of iterations =  2.2

     total cpu time spent up to now is      694.9 secs

     total energy              =   -1978.36285023 Ry
     estimated scf accuracy    <       0.01650696 Ry

     iteration #  5     ecut=    80.00 Ry     beta= 0.20
     Davidson diagonalization with overlap
     ethr =  1.59E-05,  avg # of iterations =  4.7

     total cpu time spent up to now is      817.4 secs

     total energy              =   -1978.36385933 Ry
     estimated scf accuracy    <       0.00410897 Ry

     iteration #  6     ecut=    80.00 Ry     beta= 0.20
     Davidson diagonalization with overlap
     c_bands:  1 eigenvalues not converged
     c_bands:  1 eigenvalues not converged
     ethr =  3.95E-06,  avg # of iterations =  5.9

     total cpu time spent up to now is      933.2 secs

     total energy              =   -1978.36263291 Ry
     estimated scf accuracy    <       0.00282488 Ry

     iteration #  7     ecut=    80.00 Ry     beta= 0.20
     Davidson diagonalization with overlap
     c_bands:  1 eigenvalues not converged
     ethr =  2.72E-06,  avg # of iterations =  6.1

     total cpu time spent up to now is     1092.8 secs

     total energy              =   -1978.36206623 Ry
     estimated scf accuracy    <       0.00832618 Ry

     iteration #  8     ecut=    80.00 Ry     beta= 0.20
     Davidson diagonalization with overlap
     c_bands:  1 eigenvalues not converged
     ethr =  2.72E-06,  avg # of iterations =  3.7

     total cpu time spent up to now is     1218.7 secs

     total energy              =   -1978.36279557 Ry
     estimated scf accuracy    <       0.00057243 Ry

     iteration #  9     ecut=    80.00 Ry     beta= 0.20
     Davidson diagonalization with overlap
     c_bands:  1 eigenvalues not converged
     ethr =  5.50E-07,  avg # of iterations =  7.0

     total cpu time spent up to now is     1364.4 secs

     total energy              =   -1978.36295838 Ry
     estimated scf accuracy    <       0.00102846 Ry

     iteration # 10     ecut=    80.00 Ry     beta= 0.20
     Davidson diagonalization with overlap
     ethr =  5.50E-07,  avg # of iterations =  2.4

     total cpu time spent up to now is     1472.4 secs

     total energy              =   -1978.36301871 Ry
     estimated scf accuracy    <       0.00079700 Ry

     iteration # 11     ecut=    80.00 Ry     beta= 0.20
     Davidson diagonalization with overlap
     ethr =  5.50E-07,  avg # of iterations =  1.0

     total cpu time spent up to now is     1571.0 secs

     total energy              =   -1978.36282947 Ry
     estimated scf accuracy    <       0.00100701 Ry

     iteration # 12     ecut=    80.00 Ry     beta= 0.20
     Davidson diagonalization with overlap
     ethr =  5.50E-07,  avg # of iterations =  2.1

     total cpu time spent up to now is     1683.4 secs

     total energy              =   -1978.36286473 Ry
     estimated scf accuracy    <       0.00015584 Ry

     iteration # 13     ecut=    80.00 Ry     beta= 0.20
     Davidson diagonalization with overlap
     ethr =  1.50E-07,  avg # of iterations =  3.5

     total cpu time spent up to now is     1802.5 secs

     total energy              =   -1978.36287743 Ry
     estimated scf accuracy    <       0.00005216 Ry

     iteration # 14     ecut=    80.00 Ry     beta= 0.20
     Davidson diagonalization with overlap
     ethr =  5.02E-08,  avg # of iterations =  2.0

     total cpu time spent up to now is     1917.8 secs

     total energy              =   -1978.36288026 Ry
     estimated scf accuracy    <       0.00003607 Ry

     iteration # 15     ecut=    80.00 Ry     beta= 0.20
     Davidson diagonalization with overlap
     ethr =  3.47E-08,  avg # of iterations =  1.5

     total cpu time spent up to now is     2024.1 secs

     total energy              =   -1978.36287197 Ry
     estimated scf accuracy    <       0.00003298 Ry

     iteration # 16     ecut=    80.00 Ry     beta= 0.20
     Davidson diagonalization with overlap
     ethr =  3.17E-08,  avg # of iterations =  4.1

     total cpu time spent up to now is     2165.6 secs

     total energy              =   -1978.36286977 Ry
     estimated scf accuracy    <       0.00009131 Ry

     iteration # 17     ecut=    80.00 Ry     beta= 0.20
     Davidson diagonalization with overlap
     ethr =  3.17E-08,  avg # of iterations =  2.5

     total cpu time spent up to now is     2283.9 secs

     total energy              =   -1978.36287218 Ry
     estimated scf accuracy    <       0.00001856 Ry

     iteration # 18     ecut=    80.00 Ry     beta= 0.20
     Davidson diagonalization with overlap
     ethr =  1.78E-08,  avg # of iterations =  5.9

     total cpu time spent up to now is     2424.8 secs

     total energy              =   -1978.36287017 Ry
     estimated scf accuracy    <       0.00003038 Ry

     iteration # 19     ecut=    80.00 Ry     beta= 0.20
     Davidson diagonalization with overlap
     ethr =  1.78E-08,  avg # of iterations =  2.9

     total cpu time spent up to now is     2550.5 secs

     total energy              =   -1978.36287439 Ry
     estimated scf accuracy    <       0.00001148 Ry

     iteration # 20     ecut=    80.00 Ry     beta= 0.20
     Davidson diagonalization with overlap
     ethr =  1.10E-08,  avg # of iterations =  1.1

     total cpu time spent up to now is     2650.2 secs

     total energy              =   -1978.36287462 Ry
     estimated scf accuracy    <       0.00000826 Ry

     iteration # 21     ecut=    80.00 Ry     beta= 0.20
     Davidson diagonalization with overlap
     ethr =  7.94E-09,  avg # of iterations =  1.0

     total cpu time spent up to now is     2749.0 secs

     total energy              =   -1978.36287352 Ry
     estimated scf accuracy    <       0.00000883 Ry

     iteration # 22     ecut=    80.00 Ry     beta= 0.20
     Davidson diagonalization with overlap
     ethr =  7.94E-09,  avg # of iterations =  1.1

     total cpu time spent up to now is     2853.1 secs

     total energy              =   -1978.36287374 Ry
     estimated scf accuracy    <       0.00000632 Ry

     iteration # 23     ecut=    80.00 Ry     beta= 0.20
     Davidson diagonalization with overlap
     ethr =  6.08E-09,  avg # of iterations =  3.5

     total cpu time spent up to now is     2987.9 secs

     total energy              =   -1978.36286888 Ry
     estimated scf accuracy    <       0.00001708 Ry

     iteration # 24     ecut=    80.00 Ry     beta= 0.20
     Davidson diagonalization with overlap
     ethr =  6.08E-09,  avg # of iterations =  4.1

     total cpu time spent up to now is     3135.4 secs

     total energy              =   -1978.36287096 Ry
     estimated scf accuracy    <       0.00000720 Ry

     iteration # 25     ecut=    80.00 Ry     beta= 0.20
     Davidson diagonalization with overlap
     ethr =  6.08E-09,  avg # of iterations =  2.7

     total cpu time spent up to now is     3256.9 secs

     total energy              =   -1978.36287277 Ry
     estimated scf accuracy    <       0.00000487 Ry

     iteration # 26     ecut=    80.00 Ry     beta= 0.20
     Davidson diagonalization with overlap
     ethr =  4.69E-09,  avg # of iterations =  3.3

     total cpu time spent up to now is     3377.3 secs

     total energy              =   -1978.36286994 Ry
     estimated scf accuracy    <       0.00001121 Ry

     iteration # 27     ecut=    80.00 Ry     beta= 0.20
     Davidson diagonalization with overlap
     ethr =  4.69E-09,  avg # of iterations =  3.0

     total cpu time spent up to now is     3504.2 secs

     total energy              =   -1978.36287138 Ry
     estimated scf accuracy    <       0.00000170 Ry

     iteration # 28     ecut=    80.00 Ry     beta= 0.20
     Davidson diagonalization with overlap
     ethr =  1.64E-09,  avg # of iterations =  4.6

     total cpu time spent up to now is     3628.5 secs

     total energy              =   -1978.36287068 Ry
     estimated scf accuracy    <       0.00000290 Ry

     iteration # 29     ecut=    80.00 Ry     beta= 0.20
     Davidson diagonalization with overlap
     ethr =  1.64E-09,  avg # of iterations =  3.2

     total cpu time spent up to now is     3760.2 secs

     total energy              =   -1978.36287094 Ry
     estimated scf accuracy    <       0.00000149 Ry

     iteration # 30     ecut=    80.00 Ry     beta= 0.20
     Davidson diagonalization with overlap
     ethr =  1.43E-09,  avg # of iterations =  1.6

     total cpu time spent up to now is     3868.9 secs

     total energy              =   -1978.36287098 Ry
     estimated scf accuracy    <       0.00000067 Ry

     iteration # 31     ecut=    80.00 Ry     beta= 0.20
     Davidson diagonalization with overlap
     ethr =  6.47E-10,  avg # of iterations =  2.6

     total cpu time spent up to now is     3982.1 secs

     total energy              =   -1978.36287094 Ry
     estimated scf accuracy    <       0.00000067 Ry

     iteration # 32     ecut=    80.00 Ry     beta= 0.20
     Davidson diagonalization with overlap
     ethr =  6.45E-10,  avg # of iterations =  1.5

     total cpu time spent up to now is     4088.9 secs

     total energy              =   -1978.36287095 Ry
     estimated scf accuracy    <       0.00000056 Ry

     iteration # 33     ecut=    80.00 Ry     beta= 0.20
     Davidson diagonalization with overlap
     ethr =  5.42E-10,  avg # of iterations =  1.0

     total cpu time spent up to now is     4189.8 secs

     total energy              =   -1978.36287092 Ry
     estimated scf accuracy    <       0.00000052 Ry

     iteration # 34     ecut=    80.00 Ry     beta= 0.20
     Davidson diagonalization with overlap
     ethr =  4.97E-10,  avg # of iterations =  1.0

     total cpu time spent up to now is     4290.9 secs

     total energy              =   -1978.36287092 Ry
     estimated scf accuracy    <       0.00000048 Ry

     iteration # 35     ecut=    80.00 Ry     beta= 0.20
     Davidson diagonalization with overlap
     ethr =  4.61E-10,  avg # of iterations =  1.6

     total cpu time spent up to now is     4397.2 secs

     total energy              =   -1978.36287090 Ry
     estimated scf accuracy    <       0.00000054 Ry

     iteration # 36     ecut=    80.00 Ry     beta= 0.20
     Davidson diagonalization with overlap
     ethr =  4.61E-10,  avg # of iterations =  1.0

     total cpu time spent up to now is     4497.0 secs

     total energy              =   -1978.36287087 Ry
     estimated scf accuracy    <       0.00000045 Ry

     iteration # 37     ecut=    80.00 Ry     beta= 0.20
     Davidson diagonalization with overlap
     ethr =  4.29E-10,  avg # of iterations =  1.8

     total cpu time spent up to now is     4604.0 secs

     total energy              =   -1978.36287084 Ry
     estimated scf accuracy    <       0.00000046 Ry

     iteration # 38     ecut=    80.00 Ry     beta= 0.20
     Davidson diagonalization with overlap
     ethr =  4.29E-10,  avg # of iterations =  1.1

     total cpu time spent up to now is     4704.7 secs

     total energy              =   -1978.36287082 Ry
     estimated scf accuracy    <       0.00000038 Ry

     iteration # 39     ecut=    80.00 Ry     beta= 0.20
     Davidson diagonalization with overlap
     ethr =  3.65E-10,  avg # of iterations =  1.6

     total cpu time spent up to now is     4810.2 secs

     total energy              =   -1978.36287080 Ry
     estimated scf accuracy    <       0.00000035 Ry

     iteration # 40     ecut=    80.00 Ry     beta= 0.20
     Davidson diagonalization with overlap
     ethr =  3.35E-10,  avg # of iterations =  1.2

     total cpu time spent up to now is     4911.2 secs

     total energy              =   -1978.36287078 Ry
     estimated scf accuracy    <       0.00000030 Ry

     iteration # 41     ecut=    80.00 Ry     beta= 0.20
     Davidson diagonalization with overlap
     ethr =  2.89E-10,  avg # of iterations =  1.5

     total cpu time spent up to now is     5015.3 secs

     total energy              =   -1978.36287075 Ry
     estimated scf accuracy    <       0.00000026 Ry

     iteration # 42     ecut=    80.00 Ry     beta= 0.20
     Davidson diagonalization with overlap
     ethr =  2.48E-10,  avg # of iterations =  1.6

     total cpu time spent up to now is     5120.6 secs

     total energy              =   -1978.36287073 Ry
     estimated scf accuracy    <       0.00000014 Ry

     iteration # 43     ecut=    80.00 Ry     beta= 0.20
     Davidson diagonalization with overlap
     ethr =  1.37E-10,  avg # of iterations =  2.3

     total cpu time spent up to now is     5238.1 secs

     total energy              =   -1978.36287073 Ry
     estimated scf accuracy    <       0.00000011 Ry

     iteration # 44     ecut=    80.00 Ry     beta= 0.20
     Davidson diagonalization with overlap
     ethr =  1.08E-10,  avg # of iterations =  1.6

     total cpu time spent up to now is     5343.8 secs

     total energy              =   -1978.36287071 Ry
     estimated scf accuracy    <       0.00000007 Ry

     iteration # 45     ecut=    80.00 Ry     beta= 0.20
     Davidson diagonalization with overlap
     ethr =  6.69E-11,  avg # of iterations =  2.3

     total cpu time spent up to now is     5462.3 secs

     total energy              =   -1978.36287071 Ry
     estimated scf accuracy    <       0.00000002 Ry

     iteration # 46     ecut=    80.00 Ry     beta= 0.20
     Davidson diagonalization with overlap
     ethr =  2.24E-11,  avg # of iterations =  2.5

     total cpu time spent up to now is     5587.0 secs

     total energy              =   -1978.36287071 Ry
     estimated scf accuracy    <       0.00000002 Ry

     iteration # 47     ecut=    80.00 Ry     beta= 0.20
     Davidson diagonalization with overlap
     ethr =  1.66E-11,  avg # of iterations =  2.0

     total cpu time spent up to now is     5701.8 secs

     End of self-consistent calculation

          k = 0.0000 0.0000 0.0000 ( 21311 PWs)   bands (ev):

   -53.4984 -53.4587 -53.4566 -53.4167 -27.6723 -27.6333 -27.6303 -27.5911
   -27.4350 -27.4350 -27.3952 -27.3952 -27.3944 -27.3944 -27.3543 -27.3543
    -6.8468  -6.7514  -6.7309  -6.6580  -5.6129  -5.4566  -5.4436  -5.3259
     1.3527   1.6860   1.7426   2.0372   4.7792   4.7792   4.7884   4.8115
     4.8115   4.8164   4.8164   4.8502   4.8502   5.4401   5.4939   5.8935
     5.8935   5.9307   5.9308   5.9309   5.9309   5.9689   5.9689   6.2150
     6.9819   7.2595   7.5240   7.8516  10.1231  10.1231  10.1699  10.1699
    10.1909  10.1909  10.2211  10.2211  10.3433  10.3434

          k = 0.0000 0.0722 0.0000 ( 21283 PWs)   bands (ev):

   -53.4968 -53.4572 -53.4550 -53.4152 -27.6693 -27.6303 -27.6273 -27.5880
   -27.4505 -27.4385 -27.4108 -27.4100 -27.3988 -27.3980 -27.3699 -27.3579
    -6.7872  -6.6921  -6.6715  -6.5989  -5.5853  -5.4313  -5.4187  -5.3028
     1.4216   1.7534   1.8117   2.1052   4.6405   4.6544   4.6772   4.6809
     4.7162   4.8414   4.8740   4.8787   4.9127   5.1903   5.2114   5.5695
     5.7962   5.8340   5.8343   5.8727   5.9932   6.0953   6.1268   6.4558
     6.9843   7.2402   7.4898   7.7716  10.0492  10.0886  10.0989  10.1359
    10.1808  10.2069  10.2154  10.2388  10.2525  10.2781

          k = 0.0000 0.1443 0.0000 ( 21263 PWs)   bands (ev):

   -53.4924 -53.4527 -53.4506 -53.4107 -27.6606 -27.6216 -27.6186 -27.5794
   -27.4946 -27.4549 -27.4541 -27.4485 -27.4140 -27.4088 -27.4080 -27.3679
    -6.6132  -6.5193  -6.4984  -6.4267  -5.5047  -5.3577  -5.3462  -5.2356
     1.6133   1.9392   2.0026   2.2904   4.2897   4.3258   4.3311   4.3393
     4.3770   4.7520   4.7626   5.0204   5.0537   5.0542   5.0578   5.0929
     5.5447   5.5836   5.5842   5.6234   6.0520   6.2314   6.2875   6.6066
     6.9550   7.1505   7.3366   7.5138   9.7533   9.8276   9.8480   9.9221
     9.9613   9.9905  10.0611  10.0637  10.1090  10.1376

          k = 0.0000 0.2165 0.0000 ( 21233 PWs)   bands (ev):

   -53.4857 -53.4461 -53.4440 -53.4041 -27.6477 -27.6086 -27.6056 -27.5664
   -27.5599 -27.5202 -27.5195 -27.4795 -27.4635 -27.4238 -27.4230 -27.3829
    -6.3396  -6.2483  -6.2270  -6.1573  -5.3781  -5.2427  -5.2329  -5.1309
     1.8732   2.1801   2.2500   2.5168   3.8518   3.8932   3.9088   3.9203
     3.9954   4.2673   4.2980   4.5085   5.2178   5.2564   5.2607   5.2914
     5.3023   5.3293   5.3351   5.3697   5.9648   6.1856   6.2336   6.5242
     6.8110   6.9285   7.0158   7.1033   9.3742   9.5333   9.5656   9.8121
     9.8430   9.9232   9.9432   9.9502  10.0023  10.0297

          k = 0.0000 0.2887 0.0000 ( 21197 PWs)   bands (ev):

   -53.4779 -53.4382 -53.4361 -53.3962 -27.6362 -27.6323 -27.5965 -27.5959
   -27.5933 -27.5902 -27.5558 -27.5510 -27.4811 -27.4414 -27.4406 -27.4005
    -5.9920  -5.9054  -5.8839  -5.8180  -5.2183  -5.0986  -5.0907  -5.0004
     2.0732   2.3225   2.3878   2.5818   3.4493   3.5193   3.5844   3.5973
     3.6764   3.7771   3.8555   3.9689   4.8897   4.9308   4.9329   4.9733
     5.6177   5.6588   5.6591   5.7002   5.7499   5.9899   6.0223   6.2803
     6.5374   6.6083   6.6326   6.6915   9.2409   9.4648   9.4895   9.6550
     9.7329   9.7502   9.8077   9.8096  10.1687  10.2913

          k = 0.0000 0.3608 0.0000 ( 21187 PWs)   bands (ev):

   -53.4700 -53.4304 -53.4282 -53.3883 -27.7116 -27.6719 -27.6714 -27.6313
   -27.6169 -27.5779 -27.5748 -27.5356 -27.4987 -27.4590 -27.4582 -27.4181
    -5.6086  -5.5301  -5.5084  -5.4490  -5.0443  -4.9439  -4.9376  -4.8614
     2.0368   2.1898   2.2326   2.3294   3.0844   3.2055   3.3094   3.3704
     3.4434   3.5141   3.5702   3.6626   4.6012   4.6432   4.6454   4.6864
     5.5151   5.7529   5.7840   5.9359   5.9843   5.9871   6.0051   6.0325
     6.3186   6.3876   6.4034   6.4606   9.3582   9.5521   9.5892   9.6007
     9.6197   9.6337   9.6880   9.8990  10.5013  10.6491

          k = 0.0000 0.4330 0.0000 ( 21140 PWs)   bands (ev):

   -53.4633 -53.4237 -53.4215 -53.3816 -27.7748 -27.7352 -27.7347 -27.6946
   -27.6038 -27.5648 -27.5617 -27.5225 -27.5135 -27.4738 -27.4730 -27.4329
    -5.2441  -5.1775  -5.1561  -5.1062  -4.8820  -4.8035  -4.7977  -4.7368
     1.8050   1.8951   1.9290   1.9787   2.7472   2.8567   2.9144   2.9753
     3.3334   3.4543   3.4635   3.5810   4.3803   4.4229   4.4253   4.4667
     5.3403   5.5651   5.5998   5.7899   6.1888   6.2486   6.2543   6.3063
     6.3370   6.4285   6.4389   6.5150   9.5476   9.6005   9.6107   9.6200
     9.6572   9.8082   9.8180  10.0378  10.8132  10.9704

          k = 0.0000 0.5052 0.0000 ( 21078 PWs)   bands (ev):

   -53.4589 -53.4192 -53.4171 -53.3772 -27.8167 -27.7771 -27.7766 -27.7366
   -27.5951 -27.5560 -27.5529 -27.5234 -27.5137 -27.4837 -27.4829 -27.4428
    -4.9709  -4.9179  -4.8973  -4.8585  -4.7629  -4.7055  -4.6980  -4.6506
     1.5776   1.6419   1.6775   1.7103   2.5107   2.5937   2.6471   2.6939
     3.2300   3.3481   3.3652   3.4680   4.2425   4.2855   4.2880   4.3296
     5.2451   5.4578   5.4917   5.6590   6.3417   6.4124   6.4203   6.4788
     6.5250   6.6226   6.6283   6.7032   9.5975   9.6402   9.6464   9.6874
     9.9124  10.0339  10.0478  10.1711  11.0068  11.1677

          k = 0.0000-0.5774 0.0000 ( 21006 PWs)   bands (ev):

   -53.4573 -53.4177 -53.4155 -53.3756 -27.8314 -27.7918 -27.7913 -27.7512
   -27.5920 -27.5530 -27.5498 -27.5268 -27.5106 -27.4871 -27.4864 -27.4463
    -4.8667  -4.8207  -4.8009  -4.7677  -4.7183  -4.6712  -4.6617  -4.6200
     1.4860   1.5445   1.5814   1.6107   2.4261   2.4976   2.5523   2.5946
     3.1819   3.2990   3.3163   3.4156   4.1958   4.2389   4.2414   4.2831
     5.2166   5.4238   5.4568   5.6149   6.3914   6.4664   6.4752   6.5364
     6.6419   6.7199   6.7351   6.7897   9.6265   9.6666   9.6708   9.7105
    10.0687  10.1440  10.1567  10.2145  11.0669  11.2129

          k = 0.0625 0.1083 0.0000 ( 21269 PWs)   bands (ev):

   -53.4938 -53.4542 -53.4520 -53.4122 -27.6634 -27.6244 -27.6214 -27.5822
   -27.4798 -27.4457 -27.4401 -27.4394 -27.4060 -27.4052 -27.3993 -27.3651
    -6.6703  -6.5760  -6.5552  -6.4832  -5.5311  -5.3818  -5.3700  -5.2576
     1.5524   1.8807   1.9424   2.2325   4.4006   4.4343   4.4391   4.4433
     4.4805   4.8893   4.8974   4.9602   4.9933   4.9975   5.0317   5.2186
     5.5814   5.6187   5.6198   5.6576   6.0890   6.2436   6.2975   6.6104
     6.9721   7.1860   7.3977   7.6025   9.8792   9.9090   9.9346   9.9588
     9.9738  10.0141  10.0331  10.1020  10.1368  10.1989

          k = 0.0625 0.1804 0.0000 ( 21194 PWs)   bands (ev):

   -53.4883 -53.4486 -53.4465 -53.4066 -27.6526 -27.6136 -27.6106 -27.5713
   -27.5333 -27.4937 -27.4929 -27.4594 -27.4528 -27.4197 -27.4189 -27.3788
    -6.4464  -6.3539  -6.3328  -6.2623  -5.4274  -5.2873  -5.2769  -5.1714
     1.7823   2.0993   2.1673   2.4461   4.0165   4.0521   4.0610   4.0834
     4.1453   4.4835   4.5055   4.7599   5.1757   5.2045   5.2110   5.2247
     5.2415   5.2543   5.2621   5.2922   6.1399   6.3223   6.3804   6.6509
     6.8882   7.0288   7.1598   7.2647   9.4840   9.6107   9.6329   9.8036
     9.8455   9.9054   9.9214   9.9752  10.0067  10.0156

          k = 0.0625 0.2526 0.0000 ( 21202 PWs)   bands (ev):

   -53.4810 -53.4414 -53.4392 -53.3994 -27.6385 -27.6025 -27.5994 -27.5964
   -27.5628 -27.5622 -27.5571 -27.5221 -27.4774 -27.4377 -27.4369 -27.3968
    -6.1352  -6.0464  -6.0249  -5.9573  -5.2836  -5.1571  -5.1485  -5.0532
     2.0259   2.3081   2.3790   2.6150   3.6213   3.6698   3.6996   3.7068
     3.8156   4.0292   4.0761   4.2361   4.8371   4.8799   4.8810   4.9254
     5.4436   5.4826   5.4831   5.5224   6.0379   6.2284   6.2700   6.4980
     6.6773   6.7514   6.7960   6.8515   9.2201   9.4185   9.4391   9.6467
     9.7755   9.8215   9.8437   9.8769   9.9666  10.0492

          k = 0.0625 0.3248 0.0000 ( 21194 PWs)   bands (ev):

   -53.4732 -53.4335 -53.4314 -53.3915 -27.6766 -27.6369 -27.6363 -27.6231
   -27.5962 -27.5841 -27.5810 -27.5417 -27.4968 -27.4570 -27.4563 -27.4162
    -5.7682  -5.6857  -5.6641  -5.6015  -5.1153  -5.0063  -4.9995  -4.9170
     2.1154   2.3138   2.3669   2.5043   3.2806   3.3712   3.5001   3.5434
     3.5450   3.5690   3.7008   3.7354   4.5303   4.5876   4.5895   4.6451
     5.6764   5.7164   5.7264   5.7619   5.8267   6.0071   6.0345   6.2304
     6.4495   6.5035   6.5113   6.5611   9.1836   9.3984   9.4076   9.5609
     9.7069   9.7579   9.7764   9.8968  10.2302  10.3543

          k = 0.0625 0.3969 0.0000 ( 21151 PWs)   bands (ev):

   -53.4659 -53.4263 -53.4241 -53.3842 -27.7442 -27.7046 -27.7040 -27.6640
   -27.6089 -27.5698 -27.5667 -27.5275 -27.5146 -27.4749 -27.4741 -27.4340
    -5.3910  -5.3187  -5.2971  -5.2426  -4.9448  -4.8565  -4.8507  -4.7831
     1.9618   2.0777   2.1136   2.1819   2.9123   3.0236   3.0858   3.1445
     3.4053   3.5206   3.5259   3.6499   4.3309   4.3928   4.3941   4.4491
     5.5633   5.7403   5.7823   5.8228   5.8725   5.8752   5.8935   5.9866
     6.4600   6.5086   6.5108   6.5571   9.3173   9.4824   9.4974   9.5910
     9.7505   9.8162   9.8213   9.9833  10.5735  10.7310

          k = 0.0625 0.4691 0.0000 ( 21105 PWs)   bands (ev):

   -53.4603 -53.4207 -53.4185 -53.3786 -27.7955 -27.7559 -27.7554 -27.7153
   -27.5979 -27.5589 -27.5558 -27.5282 -27.5165 -27.4885 -27.4877 -27.4476
    -5.0670  -5.0080  -4.9869  -4.9433  -4.8008  -4.7346  -4.7283  -4.6754
     1.7253   1.7999   1.8343   1.8738   2.5970   2.6812   2.7295   2.7752
     3.3021   3.4206   3.4418   3.5462   4.2243   4.2738   4.2811   4.3249
     5.3718   5.5559   5.5883   5.7329   5.9438   6.0016   6.0144   6.0708
     6.6330   6.6869   6.6900   6.7405   9.5104   9.6006   9.6146   9.6668
     9.8862   9.9723   9.9795  10.1126  10.8894  11.0524

          k = 0.0625 0.5413 0.0000 ( 21084 PWs)   bands (ev):

   -53.4573 -53.4177 -53.4155 -53.3756 -27.8231 -27.7835 -27.7830 -27.7430
   -27.5920 -27.5530 -27.5498 -27.5355 -27.5106 -27.4958 -27.4951 -27.4550
    -4.8726  -4.8253  -4.8052  -4.7713  -4.7159  -4.6673  -4.6584  -4.6157
     1.5659   1.6253   1.6626   1.6925   2.4191   2.4855   2.5346   2.5742
     3.2127   3.3314   3.3518   3.4500   4.1826   4.2185   4.2303   4.2654
     5.2669   5.4546   5.4843   5.6262   6.0330   6.1006   6.1171   6.1690
     6.7862   6.8471   6.8554   6.9068   9.6257   9.6630   9.6739   9.7075
    10.0628  10.1432  10.1547  10.2270  11.1133  11.2320

          k = 0.1250 0.2165 0.0000 ( 21179 PWs)   bands (ev):

   -53.4821 -53.4425 -53.4403 -53.4005 -27.6406 -27.6016 -27.5985 -27.5885
   -27.5593 -27.5488 -27.5482 -27.5081 -27.4783 -27.4385 -27.4378 -27.3977
    -6.1844  -6.0949  -6.0734  -6.0052  -5.3059  -5.1771  -5.1682  -5.0712
     2.0067   2.3000   2.3722   2.6228   3.6955   3.7287   3.7520   3.7699
     3.9130   4.1909   4.2312   4.4234   4.6992   4.7367   4.7430   4.7845
     5.3644   5.4017   5.4033   5.4412   6.2233   6.3858   6.4377   6.6311
     6.7407   6.8097   6.8730   6.9203   9.2081   9.3946   9.4101   9.6063
     9.7665   9.7990   9.8442   9.8558   9.8823   9.9184

          k = 0.1250 0.2887 0.0000 ( 21199 PWs)   bands (ev):

   -53.4749 -53.4352 -53.4331 -53.3932 -27.6518 -27.6264 -27.6122 -27.6115
   -27.5874 -27.5843 -27.5715 -27.5451 -27.5015 -27.4618 -27.4611 -27.4210
    -5.8521  -5.7679  -5.7462  -5.6822  -5.1521  -5.0386  -5.0314  -4.9457
     2.1637   2.3953   2.4565   2.6285   3.4395   3.4903   3.5802   3.5915
     3.6845   3.7880   3.8585   3.9178   4.2642   4.3426   4.3574   4.4666
     5.4666   5.5068   5.5157   5.5530   6.1509   6.2922   6.3237   6.4685
     6.5553   6.5885   6.5918   6.6348   9.0492   9.2726   9.2821   9.4810
     9.7668   9.8008   9.8211   9.8810   9.9759  10.0573

          k = 0.1250 0.3608 0.0000 ( 21195 PWs)   bands (ev):

   -53.4676 -53.4280 -53.4258 -53.3859 -27.7141 -27.6744 -27.6739 -27.6338
   -27.6122 -27.5732 -27.5701 -27.5308 -27.5252 -27.4855 -27.4848 -27.4447
    -5.4872  -5.4115  -5.3898  -5.3325  -4.9840  -4.8894  -4.8835  -4.8113
     2.1171   2.2642   2.3041   2.3967   3.1123   3.2023   3.2656   3.2973
     3.4972   3.5896   3.6051   3.7148   4.0676   4.1916   4.2181   4.3348
     5.4076   5.4541   5.4683   5.5055   5.9310   6.0509   6.0760   6.1872
     6.5137   6.5520   6.5586   6.5974   9.0857   9.3247   9.3364   9.5491
     9.8382   9.8814   9.8893   9.9700  10.2279  10.3491

          k = 0.1250 0.4330 0.0000 ( 21113 PWs)   bands (ev):

   -53.4614 -53.4218 -53.4196 -53.3797 -27.7662 -27.7266 -27.7260 -27.6860
   -27.6001 -27.5611 -27.5580 -27.5454 -27.5187 -27.5057 -27.5050 -27.4649
    -5.1427  -5.0790  -5.0576  -5.0103  -4.8266  -4.7533  -4.7476  -4.6900
     1.9375   2.0319   2.0656   2.1188   2.7014   2.7646   2.8033   2.8357
     3.4259   3.5377   3.5782   3.6688   4.0381   4.1648   4.1758   4.2778
     5.3509   5.4188   5.4387   5.4888   5.6561   5.7702   5.7938   5.8941
     6.6525   6.6937   6.6982   6.7392   9.2932   9.5114   9.5281   9.7189
     9.9477   9.9906   9.9971  10.0551  10.5437  10.7010

          k = 0.1250 0.5052 0.0000 ( 21081 PWs)   bands (ev):

   -53.4573 -53.4177 -53.4155 -53.3756 -27.8007 -27.7611 -27.7606 -27.7206
   -27.5920 -27.5589 -27.5530 -27.5499 -27.5192 -27.5185 -27.5106 -27.4784
    -4.8866  -4.8363  -4.8157  -4.7799  -4.7104  -4.6580  -4.6504  -4.6054
     1.7753   1.8414   1.8787   1.9128   2.4072   2.4563   2.4945   2.5266
     3.3072   3.4296   3.4585   3.5492   4.0873   4.1838   4.1918   4.2580
     5.3453   5.4345   5.4801   5.4893   5.5258   5.5641   5.5717   5.6828
     6.8381   6.8904   6.8951   6.9431   9.5139   9.6294   9.6400   9.7206
    10.0964  10.1657  10.1770  10.2569  10.8212  10.9316

          k = 0.1250 0.5774 0.0000 ( 21108 PWs)   bands (ev):

   -53.4559 -53.4162 -53.4140 -53.3742 -27.8128 -27.7732 -27.7727 -27.7327
   -27.5892 -27.5636 -27.5501 -27.5470 -27.5239 -27.5232 -27.5078 -27.4831
    -4.7894  -4.7458  -4.7262  -4.6970  -4.6661  -4.6245  -4.6148  -4.5753
     1.7126   1.7684   1.8088   1.8370   2.3023   2.3474   2.3862   2.4187
     3.2471   3.3707   3.3958   3.4879   4.1363   4.1903   4.2119   4.2505
     5.2896   5.4228   5.4564   5.4803   5.5045   5.5182   5.5516   5.6267
     6.9297   6.9902   6.9960   7.0490   9.5930   9.6290   9.6423   9.6764
    10.2072  10.2894  10.3048  10.3558  10.9336  11.0480

          k = 0.1875 0.3248 0.0000 ( 21195 PWs)   bands (ev):

   -53.4682 -53.4286 -53.4264 -53.3865 -27.7005 -27.6609 -27.6603 -27.6202
   -27.6134 -27.5743 -27.5713 -27.5320 -27.5320 -27.4923 -27.4916 -27.4515
    -5.5206  -5.4437  -5.4220  -5.3639  -4.9973  -4.9005  -4.8946  -4.8208
     2.1831   2.3461   2.3883   2.4940   3.2408   3.3100   3.3680   3.3703
     3.5401   3.6202   3.6464   3.7141   3.9231   4.0619   4.1199   4.2659
     5.2338   5.2785   5.2948   5.3316   6.0964   6.1889   6.2164   6.2963
     6.5189   6.5611   6.5690   6.6099   8.9975   9.2583   9.2722   9.5230
     9.8620   9.8917   9.9137   9.9556  10.0786  10.1787

          k = 0.1875 0.3969 0.0000 ( 21153 PWs)   bands (ev):

   -53.4620 -53.4224 -53.4202 -53.3803 -27.7424 -27.7028 -27.7022 -27.6622
   -27.6013 -27.5628 -27.5623 -27.5592 -27.5231 -27.5224 -27.5199 -27.4823
    -5.1843  -5.1181  -5.0965  -5.0471  -4.8395  -4.7621  -4.7568  -4.6964
     2.0980   2.2134   2.2465   2.3157   2.7963   2.8246   2.8593   2.8778
     3.5610   3.6351   3.7332   3.7610   3.9239   4.0487   4.1084   4.2401
     4.9145   4.9708   4.9871   5.0307   5.8700   5.9325   5.9668   6.0147
     6.6217   6.6697   6.6730   6.7208   9.1518   9.4263   9.4553   9.7521
     9.9756  10.0087  10.0198  10.0545  10.2689  10.3899

          k = 0.1875 0.4691 0.0000 ( 21101 PWs)   bands (ev):

   -53.4573 -53.4177 -53.4155 -53.3756 -27.7729 -27.7333 -27.7328 -27.6927
   -27.5921 -27.5878 -27.5530 -27.5499 -27.5481 -27.5474 -27.5107 -27.5073
    -4.9002  -4.8471  -4.8261  -4.7882  -4.7050  -4.6489  -4.6423  -4.5950
     2.0127   2.0977   2.1333   2.1792   2.4009   2.4284   2.4576   2.4829
     3.4760   3.5989   3.6424   3.6949   3.9857   4.1407   4.1498   4.2720
     4.7281   4.8190   4.8391   4.9151   5.5688   5.6503   5.6749   5.7283
     6.8233   6.8678   6.8699   6.9141   9.3706   9.5524   9.5748   9.7205
    10.1384  10.1956  10.2168  10.2915  10.4832  10.5959

          k = 0.1875 0.5413 0.0000 ( 21112 PWs)   bands (ev):

   -53.4548 -53.4151 -53.4129 -53.3730 -27.7889 -27.7493 -27.7488 -27.7087
   -27.6017 -27.5870 -27.5620 -27.5613 -27.5480 -27.5449 -27.5212 -27.5056
    -4.7323  -4.6899  -4.6704  -4.6459  -4.6224  -4.5858  -4.5765  -4.5383
     1.9764   2.0330   2.0811   2.1105   2.1854   2.2154   2.2403   2.2718
     3.3332   3.4637   3.4909   3.5714   4.1155   4.2175   4.2414   4.3053
     4.6832   4.8009   4.8207   4.9051   5.3604   5.4476   5.4643   5.5278
     7.0066   7.0581   7.0617   7.1107   9.4435   9.5025   9.5123   9.5603
    10.3236  10.4166  10.4747  10.5339  10.5978  10.6948

          k = 0.2500 0.4330 0.0000 ( 21125 PWs)   bands (ev):

   -53.4573 -53.4177 -53.4155 -53.3756 -27.7584 -27.7188 -27.7182 -27.6782
   -27.6027 -27.5921 -27.5630 -27.5623 -27.5530 -27.5499 -27.5222 -27.5107
    -4.9056  -4.8515  -4.8304  -4.7917  -4.7027  -4.6452  -4.6390  -4.5907
     2.1209   2.2201   2.2542   2.3053   2.4005   2.4221   2.4432   2.4650
     3.6584   3.6995   3.7897   3.8126   3.9918   4.1170   4.1590   4.2894
     4.4149   4.4652   4.4747   4.5101   5.6413   5.6848   5.7251   5.7630
     6.8066   6.8518   6.8521   6.8975   9.3102   9.5130   9.5438   9.7120
    10.1496  10.1971  10.2339  10.2992  10.3531  10.4440

          k = 0.2500 0.5052 0.0000 ( 21117 PWs)   bands (ev):

   -53.4542 -53.4145 -53.4123 -53.3724 -27.7631 -27.7235 -27.7230 -27.6829
   -27.6352 -27.5956 -27.5949 -27.5859 -27.5548 -27.5468 -27.5437 -27.5045
    -4.7042  -4.6618  -4.6422  -4.6204  -4.5967  -4.5624  -4.5539  -4.5159
     2.0927   2.1164   2.1508   2.1659   2.2407   2.3165   2.3414   2.3892
     3.5034   3.6313   3.6575   3.6855   4.0517   4.1181   4.1893   4.2149
     4.2444   4.2731   4.3347   4.4047   5.3629   5.4246   5.4532   5.5026
     7.0475   7.0906   7.0922   7.1353   9.3103   9.3870   9.3986   9.4608
    10.2905  10.3563  10.3860  10.4681  10.5591  10.5907

          k = 0.2500 0.5774 0.0000 ( 21116 PWs)   bands (ev):

   -53.4530 -53.4134 -53.4112 -53.3713 -27.7630 -27.7233 -27.7228 -27.6828
   -27.6485 -27.6088 -27.6081 -27.5837 -27.5681 -27.5447 -27.5415 -27.5023
    -4.6285  -4.5921  -4.5739  -4.5712  -4.5496  -4.5303  -4.5226  -4.4887
     1.9935   2.0156   2.0468   2.0658   2.3266   2.3742   2.4116   2.4381
     3.3490   3.4739   3.4942   3.5577   4.0144   4.1196   4.1843   4.2156
     4.2920   4.3667   4.3815   4.4375   5.2447   5.2956   5.3175   5.3654
     7.1736   7.2195   7.2224   7.2676   9.2419   9.2789   9.2842   9.3210
    10.3153  10.3826  10.4130  10.4744  10.7275  10.7649

          k = 0.3125 0.5413 0.0000 ( 21100 PWs)   bands (ev):

   -53.4524 -53.4128 -53.4106 -53.3707 -27.7419 -27.7023 -27.7018 -27.6769
   -27.6617 -27.6372 -27.6366 -27.5965 -27.5825 -27.5435 -27.5404 -27.5011
    -4.5915  -4.5583  -4.5474  -4.5403  -4.5248  -4.5066  -4.5027  -4.4699
     1.9262   1.9477   1.9753   1.9972   2.5501   2.6127   2.6489   2.6822
     3.3572   3.3714   3.4269   3.4329   3.8368   3.8698   3.8879   3.9010
     4.3430   4.4288   4.4404   4.4925   5.1559   5.2215   5.2392   5.2955
     7.2562   7.2979   7.3008   7.3425   9.1258   9.1641   9.1669   9.2054
    10.2518  10.2898  10.3329  10.3848  10.8228  10.8910

     the Fermi energy is     8.3615 ev

!    total energy              =   -1978.36287071 Ry
     total all-electron energy =    -38771.683715 Ry
     estimated scf accuracy    <          5.9E-09 Ry
     smearing contrib. (-TS)   =       0.00003295 Ry
     internal energy E=F+TS    =   -1978.36290366 Ry

     The total energy is F=E-TS. E is the sum of the following terms:
     one-electron contribution =   -1061.65413546 Ry
     hartree contribution      =     573.06999019 Ry
     xc contribution           =    -119.22582873 Ry
     ewald contribution        =    -100.70072306 Ry
     one-center paw contrib.   =   -1269.85220660 Ry

     convergence has been achieved in  47 iterations

     Writing all to output data dir ./tmp/cleave/cleave_dz012_dz2p4/mos2_cleave.save/ :
     XML data file, charge density, pseudopotentials, collected wavefunctions

     init_run     :     84.85s CPU     85.85s WALL (       1 calls)
     electrons    :   5522.00s CPU   5615.92s WALL (       1 calls)

     Called by init_run:
     wfcinit      :     41.01s CPU     41.14s WALL (       1 calls)
     potinit      :     41.66s CPU     41.92s WALL (       1 calls)
     hinit0       :      0.31s CPU      0.33s WALL (       1 calls)

     Called by electrons:
     c_bands      :   4638.54s CPU   4667.24s WALL (      48 calls)
     sum_band     :    683.88s CPU    714.18s WALL (      48 calls)
     v_of_rho     :    123.87s CPU    133.26s WALL (      48 calls)
     newd         :     86.04s CPU    112.00s WALL (      48 calls)
     PAW_pot      :     19.12s CPU     19.13s WALL (      48 calls)
     mix_rho      :     12.89s CPU     13.27s WALL (      48 calls)
     vdW_kernel   :     39.52s CPU     39.53s WALL (       1 calls)

     Called by c_bands:
     init_us_2    :     21.16s CPU     21.18s WALL (    2910 calls)
     init_us_2:cp :     21.15s CPU     21.17s WALL (    2910 calls)
     cegterg      :   4428.79s CPU   4457.21s WALL (    1440 calls)

     Called by *egterg:
     cdiaghg      :     12.87s CPU     12.87s WALL (    5129 calls)
     h_psi        :   2404.09s CPU   2414.81s WALL (    5189 calls)
     s_psi        :    729.07s CPU    729.39s WALL (    5189 calls)
     g_psi        :     11.20s CPU     11.21s WALL (    3719 calls)

     Called by h_psi:
     h_psi:calbec :    944.52s CPU    944.73s WALL (    5189 calls)
     vloc_psi     :    724.89s CPU    725.59s WALL (    5189 calls)
     add_vuspsi   :    729.74s CPU    729.94s WALL (    5189 calls)

     General routines
     calbec       :   1357.01s CPU   1357.35s WALL (    6629 calls)
     fft          :     35.23s CPU     35.25s WALL (    3023 calls)
     ffts         :      6.01s CPU      6.02s WALL (    2044 calls)
     fftw         :    669.91s CPU    670.47s WALL (  497368 calls)
     interpolate  :      0.77s CPU      0.77s WALL (      48 calls)

     Parallel routines

     PWSCF        :      1h33m CPU      1h35m WALL


   This run was terminated on:  11:21:53   8Jun2026            

=------------------------------------------------------------------------------=
   JOB DONE.
=------------------------------------------------------------------------------=
Note: The following floating-point exceptions are signalling: IEEE_UNDERFLOW_FLAG IEEE_DENORMAL
