Authorization required, but no authorization protocol specified

Authorization required, but no authorization protocol specified

Authorization required, but no authorization protocol specified

Authorization required, but no authorization protocol specified


     Program PWSCF v.7.3 starts on  9Jun2026 at  9: 2:14 

     This program is part of the open-source Quantum ESPRESSO suite
     for quantum simulation of materials; please cite
         "P. Giannozzi et al., J. Phys.:Condens. Matter 21 395502 (2009);
         "P. Giannozzi et al., J. Phys.:Condens. Matter 29 465901 (2017);
         "P. Giannozzi et al., J. Chem. Phys. 152 154105 (2020);
          URL http://www.quantum-espresso.org", 
     in publications or presentations arising from this work. More details at
     http://www.quantum-espresso.org/quote

     Parallel version (MPI), running on     1 processors

     MPI processes distributed on     1 nodes
     82980 MiB available memory on the printing compute node when the environment starts

     Waiting for input...
     Reading input from standard input

     Current dimensions of program PWSCF are:
     Max number of different atomic species (ntypx) = 10
     Max number of k-points (npk) =  40000
     Max angular momentum in pseudopotentials (lmaxx) =  4
     file Mo.pbe-spn-kjpaw_psl.1.0.0.UPF: wavefunction(s)  4S 4D renormalized
     file S.pbe-n-kjpaw_psl.1.0.0.UPF: wavefunction(s)  3S 3P renormalized

     IMPORTANT: XC functional enforced from input :
     Exchange-correlation= VDW-DF2-B86R
                           (   1   4  26   0   2   0   0)
     Any further DFT definition will be discarded
     Please, verify this is what you really want


     Subspace diagonalization in iterative solution of the eigenvalue problem:
     a serial algorithm will be used


     G-vector sticks info
     --------------------
     sticks:   dense  smooth     PW     G-vecs:    dense   smooth      PW
     Sum        1573     769    223               478405   168563   26075

     Using Slab Decomposition



     bravais-lattice index     =            4
     lattice parameter (alat)  =       5.9715  a.u.
     unit-cell volume          =    1750.7440 (a.u.)^3
     number of atoms/cell      =           12
     number of atomic types    =            2
     number of electrons       =       104.00
     number of Kohn-Sham states=           62
     kinetic-energy cutoff     =      80.0000  Ry
     charge density cutoff     =     640.0000  Ry
     scf convergence threshold =      1.0E-08
     mixing beta               =       0.2000
     number of iterations used =            8  local-TF  mixing
     Exchange-correlation= VDW-DF2-B86R
                           (   1   4  26   0   2   0   0)

     celldm(1)=   5.971535  celldm(2)=   0.000000  celldm(3)=   9.493671
     celldm(4)=   0.000000  celldm(5)=   0.000000  celldm(6)=   0.000000

     crystal axes: (cart. coord. in units of alat)
               a(1) = (   1.000000   0.000000   0.000000 )  
               a(2) = (  -0.500000   0.866025   0.000000 )  
               a(3) = (   0.000000   0.000000   9.493671 )  

     reciprocal axes: (cart. coord. in units 2 pi/alat)
               b(1) = (  1.000000  0.577350 -0.000000 )  
               b(2) = (  0.000000  1.154701  0.000000 )  
               b(3) = (  0.000000 -0.000000  0.105333 )  


     PseudoPot. # 1 for Mo read from file:
     ./pseudo/Mo.pbe-spn-kjpaw_psl.1.0.0.UPF
     MD5 check sum: 4396e0c640fcce5c25f020efccf1ab12
     Pseudo is Projector augmented-wave + core cor, Zval = 14.0
     Generated using &quot;atomic&quot; code by A. Dal Corso  v.6.3
     Shape of augmentation charge: PSQ
     Using radial grid of 1229 points,  6 beta functions with: 
                l(1) =   0
                l(2) =   0
                l(3) =   1
                l(4) =   1
                l(5) =   2
                l(6) =   2
     Q(r) pseudized with 0 coefficients 


     PseudoPot. # 2 for S  read from file:
     ./pseudo/S.pbe-n-kjpaw_psl.1.0.0.UPF
     MD5 check sum: fb45dfebcf3e72a4e1bd4a866ec2e262
     Pseudo is Projector augmented-wave + core cor, Zval =  6.0
     Generated using &quot;atomic&quot; code by A. Dal Corso  v.6.3
     Shape of augmentation charge: PSQ
     Using radial grid of 1151 points,  6 beta functions with: 
                l(1) =   0
                l(2) =   0
                l(3) =   1
                l(4) =   1
                l(5) =   2
                l(6) =   2
     Q(r) pseudized with 0 coefficients 


     atomic species   valence    mass     pseudopotential
     Mo               14.00    95.96000     Mo( 1.00)
     S                 6.00    32.06000     S ( 1.00)

      6 Sym. Ops. (no inversion) found



   Cartesian axes

     site n.     atom                  positions (alat units)
         1        S      tau(   1) = (  -0.0000005   0.5773503  -0.9967195  )
         2        Mo     tau(   2) = (   0.0000000   0.0000000  -0.4993332  )
         3        S      tau(   3) = (  -0.0000005   0.5773503  -0.0017175  )
         4        S      tau(   4) = (   0.5000003   0.2886747   0.9835827  )
         5        Mo     tau(   5) = (  -0.0000005   0.5773503   1.4818950  )
         6        S      tau(   6) = (   0.5000003   0.2886747   1.9798512  )
         7        S      tau(   7) = (   0.0000000   0.0000000   2.9586848  )
         8        Mo     tau(   8) = (   0.5000003   0.2886747   3.4569999  )
         9        S      tau(   9) = (   0.0000000   0.0000000   3.9548385  )
        10        S      tau(  10) = (  -0.0000005   0.5773503   6.5030401  )
        11        Mo     tau(  11) = (   0.0000000   0.0000000   7.0006767  )
        12        S      tau(  12) = (  -0.0000005   0.5773503   7.4978108  )

     number of k points=    30  Methfessel-Paxton smearing, width (Ry)=  0.0200
                       cart. coord. in units 2pi/alat
        k(    1) = (   0.0000000   0.0000000   0.0000000), wk =   0.0078125
        k(    2) = (   0.0000000   0.0721688   0.0000000), wk =   0.0468750
        k(    3) = (   0.0000000   0.1443376   0.0000000), wk =   0.0468750
        k(    4) = (   0.0000000   0.2165064   0.0000000), wk =   0.0468750
        k(    5) = (   0.0000000   0.2886751   0.0000000), wk =   0.0468750
        k(    6) = (   0.0000000   0.3608439   0.0000000), wk =   0.0468750
        k(    7) = (   0.0000000   0.4330127   0.0000000), wk =   0.0468750
        k(    8) = (   0.0000000   0.5051815   0.0000000), wk =   0.0468750
        k(    9) = (   0.0000000  -0.5773503   0.0000000), wk =   0.0234375
        k(   10) = (   0.0625000   0.1082532   0.0000000), wk =   0.0468750
        k(   11) = (   0.0625000   0.1804220   0.0000000), wk =   0.0937500
        k(   12) = (   0.0625000   0.2525907   0.0000000), wk =   0.0937500
        k(   13) = (   0.0625000   0.3247595   0.0000000), wk =   0.0937500
        k(   14) = (   0.0625000   0.3969283   0.0000000), wk =   0.0937500
        k(   15) = (   0.0625000   0.4690971   0.0000000), wk =   0.0937500
        k(   16) = (   0.0625000   0.5412659   0.0000000), wk =   0.0937500
        k(   17) = (   0.1250000   0.2165064   0.0000000), wk =   0.0468750
        k(   18) = (   0.1250000   0.2886751   0.0000000), wk =   0.0937500
        k(   19) = (   0.1250000   0.3608439   0.0000000), wk =   0.0937500
        k(   20) = (   0.1250000   0.4330127   0.0000000), wk =   0.0937500
        k(   21) = (   0.1250000   0.5051815   0.0000000), wk =   0.0937500
        k(   22) = (   0.1250000   0.5773503   0.0000000), wk =   0.0468750
        k(   23) = (   0.1875000   0.3247595   0.0000000), wk =   0.0468750
        k(   24) = (   0.1875000   0.3969283   0.0000000), wk =   0.0937500
        k(   25) = (   0.1875000   0.4690971   0.0000000), wk =   0.0937500
        k(   26) = (   0.1875000   0.5412659   0.0000000), wk =   0.0937500
        k(   27) = (   0.2500000   0.4330127   0.0000000), wk =   0.0468750
        k(   28) = (   0.2500000   0.5051815   0.0000000), wk =   0.0937500
        k(   29) = (   0.2500000   0.5773503   0.0000000), wk =   0.0468750
        k(   30) = (   0.3125000   0.5412659   0.0000000), wk =   0.0468750

     Dense  grid:   478405 G-vectors     FFT dimensions: (  50,  50, 480)

     Smooth grid:   168563 G-vectors     FFT dimensions: (  36,  36, 324)

     Estimated max dynamical RAM per process >       2.35 GB

     Initial potential from superposition of free atoms

     starting charge     103.9962, renormalised to     104.0000


     %%%%%%%%%%%%%%%%%%%%%%%%%%%%%%%%%%%%%%%%%%%%%%%%%%%%%%%%%%%%%%%%%%%%%%%%
     %                                                                      %
     % You are using vdW-DF, which was implemented by the Thonhauser group. %
     % Please cite the following two papers that made this development      %
     % possible and the two reviews that describe the various versions:     %
     %                                                                      %
     %   T. Thonhauser et al., PRL 115, 136402 (2015).                      %
     %   T. Thonhauser et al., PRB 76, 125112 (2007).                       %
     %   K. Berland et al., Rep. Prog. Phys. 78, 066501 (2015).             %
     %   D.C. Langreth et al., J. Phys.: Condens. Matter 21, 084203 (2009). %
     %                                                                      %
     % If you are calculating stress with vdW-DF, please also cite:         %
     %                                                                      %
     %   R. Sabatini et al., J. Phys.: Condens. Matter 24, 424209 (2012).   %
     %                                                                      %
     %%%%%%%%%%%%%%%%%%%%%%%%%%%%%%%%%%%%%%%%%%%%%%%%%%%%%%%%%%%%%%%%%%%%%%%%

     %%%%%%%%%%%%%%%%%%%%%%%%%%%%%%%%%%%%%%%%%%%%%%%%%%%%%%%%%%%%%%%%%%%%%%%%
     %                                                                      %
     %  vdW-DF NEWS:                                                        %
     %                                                                      %
     %  * vdW-DF3 is now available. DOI: 10.1021/acs.jctc.0c00471           %
     %    use with input_dft = 'vdW-DF3-opt1' or 'vdW-DF3-opt2'             %
     %                                                                      %
     %  * Unscreened and range-separated hybrid vdW-DF-cx functionals       %
     %    DOI: 10.1063/1.4986522 and 10.1088/1361-648X/ac2ad2               %
     %    use with input_dft = 'vdW-DF-cx0'    and 'vdW-DF-ahcx'            %
     %  * Unscreened and range-separated hybrid vdW-DF2-b86r functionals    %
     %    DOI: 10.1063/1.4986522 and DOI: 10.1103/PhysRevX.12.041003        %
     %    use with input_dft = 'vdW-DF2-br0' and 'vdW-DF2-ahbr'             %
     %                                                                      %
     %%%%%%%%%%%%%%%%%%%%%%%%%%%%%%%%%%%%%%%%%%%%%%%%%%%%%%%%%%%%%%%%%%%%%%%%


     Starting wfcs are   72 randomized atomic wfcs
     Checking if some PAW data can be deallocated... 

     total cpu time spent up to now is       85.6 secs

     Self-consistent Calculation

     iteration #  1     ecut=    80.00 Ry     beta= 0.20
     Davidson diagonalization with overlap
     ethr =  1.00E-02,  avg # of iterations =  2.2

     Threshold (ethr) on eigenvalues was too large:
     Diagonalizing with lowered threshold

     Davidson diagonalization with overlap
     ethr =  3.06E-04,  avg # of iterations =  2.9

     total cpu time spent up to now is      338.8 secs

     total energy              =   -1978.45815355 Ry
     estimated scf accuracy    <       0.43554950 Ry

     iteration #  2     ecut=    80.00 Ry     beta= 0.20
     Davidson diagonalization with overlap
     ethr =  4.19E-04,  avg # of iterations =  1.0

     total cpu time spent up to now is      436.2 secs

     total energy              =   -1978.27689446 Ry
     estimated scf accuracy    <       0.36276924 Ry

     iteration #  3     ecut=    80.00 Ry     beta= 0.20
     Davidson diagonalization with overlap
     ethr =  3.49E-04,  avg # of iterations =  2.0

     total cpu time spent up to now is      566.2 secs

     total energy              =   -1978.35881496 Ry
     estimated scf accuracy    <       0.04883082 Ry

     iteration #  4     ecut=    80.00 Ry     beta= 0.20
     Davidson diagonalization with overlap
     ethr =  4.70E-05,  avg # of iterations =  2.5

     total cpu time spent up to now is      691.9 secs

     total energy              =   -1978.36300960 Ry
     estimated scf accuracy    <       0.01377188 Ry

     iteration #  5     ecut=    80.00 Ry     beta= 0.20
     Davidson diagonalization with overlap
     ethr =  1.32E-05,  avg # of iterations =  5.4

     total cpu time spent up to now is      814.7 secs

     total energy              =   -1978.36382319 Ry
     estimated scf accuracy    <       0.00421338 Ry

     iteration #  6     ecut=    80.00 Ry     beta= 0.20
     Davidson diagonalization with overlap
     c_bands:  1 eigenvalues not converged
     ethr =  4.05E-06,  avg # of iterations =  3.4

     total cpu time spent up to now is      923.3 secs

     total energy              =   -1978.36304855 Ry
     estimated scf accuracy    <       0.00305849 Ry

     iteration #  7     ecut=    80.00 Ry     beta= 0.20
     Davidson diagonalization with overlap
     c_bands:  1 eigenvalues not converged
     c_bands:  1 eigenvalues not converged
     ethr =  2.94E-06,  avg # of iterations =  6.7

     total cpu time spent up to now is     1065.0 secs

     total energy              =   -1978.36283928 Ry
     estimated scf accuracy    <       0.00500987 Ry

     iteration #  8     ecut=    80.00 Ry     beta= 0.20
     Davidson diagonalization with overlap
     ethr =  2.94E-06,  avg # of iterations =  2.7

     total cpu time spent up to now is     1179.2 secs

     total energy              =   -1978.36302208 Ry
     estimated scf accuracy    <       0.00109615 Ry

     iteration #  9     ecut=    80.00 Ry     beta= 0.20
     Davidson diagonalization with overlap
     ethr =  1.05E-06,  avg # of iterations =  6.2

     total cpu time spent up to now is     1319.8 secs

     total energy              =   -1978.36325223 Ry
     estimated scf accuracy    <       0.00294620 Ry

     iteration # 10     ecut=    80.00 Ry     beta= 0.20
     Davidson diagonalization with overlap
     ethr =  1.05E-06,  avg # of iterations =  1.6

     total cpu time spent up to now is     1423.8 secs

     total energy              =   -1978.36315827 Ry
     estimated scf accuracy    <       0.00200138 Ry

     iteration # 11     ecut=    80.00 Ry     beta= 0.20
     Davidson diagonalization with overlap
     ethr =  1.05E-06,  avg # of iterations =  1.1

     negative rho (up, down):  3.584E-05 0.000E+00

     total cpu time spent up to now is     1523.0 secs

     total energy              =   -1978.36294667 Ry
     estimated scf accuracy    <       0.00116598 Ry

     iteration # 12     ecut=    80.00 Ry     beta= 0.20
     Davidson diagonalization with overlap
     ethr =  1.05E-06,  avg # of iterations =  3.0

     negative rho (up, down):  7.277E-06 0.000E+00

     total cpu time spent up to now is     1636.4 secs

     total energy              =   -1978.36305505 Ry
     estimated scf accuracy    <       0.00015888 Ry

     iteration # 13     ecut=    80.00 Ry     beta= 0.20
     Davidson diagonalization with overlap
     ethr =  1.53E-07,  avg # of iterations =  4.4

     negative rho (up, down):  1.588E-04 0.000E+00

     total cpu time spent up to now is     1755.7 secs

     total energy              =   -1978.36305968 Ry
     estimated scf accuracy    <       0.00013101 Ry

     iteration # 14     ecut=    80.00 Ry     beta= 0.20
     Davidson diagonalization with overlap
     ethr =  1.26E-07,  avg # of iterations =  1.3

     negative rho (up, down):  5.338E-04 0.000E+00

     total cpu time spent up to now is     1856.9 secs

     total energy              =   -1978.36304639 Ry
     estimated scf accuracy    <       0.00011632 Ry

     iteration # 15     ecut=    80.00 Ry     beta= 0.20
     Davidson diagonalization with overlap
     ethr =  1.12E-07,  avg # of iterations =  1.9

     total cpu time spent up to now is     1964.9 secs

     total energy              =   -1978.36303798 Ry
     estimated scf accuracy    <       0.00007766 Ry

     iteration # 16     ecut=    80.00 Ry     beta= 0.20
     Davidson diagonalization with overlap
     ethr =  7.47E-08,  avg # of iterations =  3.6

     total cpu time spent up to now is     2089.4 secs

     total energy              =   -1978.36302439 Ry
     estimated scf accuracy    <       0.00007903 Ry

     iteration # 17     ecut=    80.00 Ry     beta= 0.20
     Davidson diagonalization with overlap
     ethr =  7.47E-08,  avg # of iterations =  4.3

     total cpu time spent up to now is     2215.8 secs

     total energy              =   -1978.36304635 Ry
     estimated scf accuracy    <       0.00003350 Ry

     iteration # 18     ecut=    80.00 Ry     beta= 0.20
     Davidson diagonalization with overlap
     ethr =  3.22E-08,  avg # of iterations =  1.9

     total cpu time spent up to now is     2322.9 secs

     total energy              =   -1978.36304211 Ry
     estimated scf accuracy    <       0.00003050 Ry

     iteration # 19     ecut=    80.00 Ry     beta= 0.20
     Davidson diagonalization with overlap
     ethr =  2.93E-08,  avg # of iterations =  2.0

     total cpu time spent up to now is     2430.8 secs

     total energy              =   -1978.36304498 Ry
     estimated scf accuracy    <       0.00000466 Ry

     iteration # 20     ecut=    80.00 Ry     beta= 0.20
     Davidson diagonalization with overlap
     ethr =  4.48E-09,  avg # of iterations =  5.2

     total cpu time spent up to now is     2564.3 secs

     total energy              =   -1978.36304534 Ry
     estimated scf accuracy    <       0.00000430 Ry

     iteration # 21     ecut=    80.00 Ry     beta= 0.20
     Davidson diagonalization with overlap
     ethr =  4.14E-09,  avg # of iterations =  2.1

     total cpu time spent up to now is     2689.5 secs

     total energy              =   -1978.36304610 Ry
     estimated scf accuracy    <       0.00000229 Ry

     iteration # 22     ecut=    80.00 Ry     beta= 0.20
     Davidson diagonalization with overlap
     ethr =  2.20E-09,  avg # of iterations =  2.5

     total cpu time spent up to now is     2805.8 secs

     total energy              =   -1978.36304626 Ry
     estimated scf accuracy    <       0.00000167 Ry

     iteration # 23     ecut=    80.00 Ry     beta= 0.20
     Davidson diagonalization with overlap
     ethr =  1.60E-09,  avg # of iterations =  2.5

     total cpu time spent up to now is     2918.2 secs

     total energy              =   -1978.36304624 Ry
     estimated scf accuracy    <       0.00000170 Ry

     iteration # 24     ecut=    80.00 Ry     beta= 0.20
     Davidson diagonalization with overlap
     ethr =  1.60E-09,  avg # of iterations =  2.2

     total cpu time spent up to now is     3029.2 secs

     total energy              =   -1978.36304639 Ry
     estimated scf accuracy    <       0.00000151 Ry

     iteration # 25     ecut=    80.00 Ry     beta= 0.20
     Davidson diagonalization with overlap
     ethr =  1.45E-09,  avg # of iterations =  1.0

     total cpu time spent up to now is     3127.1 secs

     total energy              =   -1978.36304638 Ry
     estimated scf accuracy    <       0.00000128 Ry

     iteration # 26     ecut=    80.00 Ry     beta= 0.20
     Davidson diagonalization with overlap
     ethr =  1.23E-09,  avg # of iterations =  1.3

     total cpu time spent up to now is     3227.1 secs

     total energy              =   -1978.36304637 Ry
     estimated scf accuracy    <       0.00000122 Ry

     iteration # 27     ecut=    80.00 Ry     beta= 0.20
     Davidson diagonalization with overlap
     ethr =  1.17E-09,  avg # of iterations =  1.0

     total cpu time spent up to now is     3325.0 secs

     total energy              =   -1978.36304634 Ry
     estimated scf accuracy    <       0.00000118 Ry

     iteration # 28     ecut=    80.00 Ry     beta= 0.20
     Davidson diagonalization with overlap
     ethr =  1.13E-09,  avg # of iterations =  1.1

     total cpu time spent up to now is     3423.9 secs

     total energy              =   -1978.36304630 Ry
     estimated scf accuracy    <       0.00000113 Ry

     iteration # 29     ecut=    80.00 Ry     beta= 0.20
     Davidson diagonalization with overlap
     ethr =  1.08E-09,  avg # of iterations =  2.1

     total cpu time spent up to now is     3539.7 secs

     total energy              =   -1978.36304604 Ry
     estimated scf accuracy    <       0.00000161 Ry

     iteration # 30     ecut=    80.00 Ry     beta= 0.20
     Davidson diagonalization with overlap
     ethr =  1.08E-09,  avg # of iterations =  2.1

     total cpu time spent up to now is     3650.3 secs

     total energy              =   -1978.36304610 Ry
     estimated scf accuracy    <       0.00000077 Ry

     iteration # 31     ecut=    80.00 Ry     beta= 0.20
     Davidson diagonalization with overlap
     ethr =  7.44E-10,  avg # of iterations =  1.3

     total cpu time spent up to now is     3751.9 secs

     total energy              =   -1978.36304592 Ry
     estimated scf accuracy    <       0.00000057 Ry

     iteration # 32     ecut=    80.00 Ry     beta= 0.20
     Davidson diagonalization with overlap
     ethr =  5.52E-10,  avg # of iterations =  2.0

     total cpu time spent up to now is     3865.0 secs

     total energy              =   -1978.36304597 Ry
     estimated scf accuracy    <       0.00000065 Ry

     iteration # 33     ecut=    80.00 Ry     beta= 0.20
     Davidson diagonalization with overlap
     ethr =  5.52E-10,  avg # of iterations =  2.7

     total cpu time spent up to now is     3986.5 secs

     total energy              =   -1978.36304605 Ry
     estimated scf accuracy    <       0.00000045 Ry

     iteration # 34     ecut=    80.00 Ry     beta= 0.20
     Davidson diagonalization with overlap
     ethr =  4.29E-10,  avg # of iterations =  1.0

     total cpu time spent up to now is     4084.4 secs

     total energy              =   -1978.36304605 Ry
     estimated scf accuracy    <       0.00000020 Ry

     iteration # 35     ecut=    80.00 Ry     beta= 0.20
     Davidson diagonalization with overlap
     ethr =  1.96E-10,  avg # of iterations =  3.8

     total cpu time spent up to now is     4208.8 secs

     total energy              =   -1978.36304604 Ry
     estimated scf accuracy    <       0.00000033 Ry

     iteration # 36     ecut=    80.00 Ry     beta= 0.20
     Davidson diagonalization with overlap
     ethr =  1.96E-10,  avg # of iterations =  2.5

     total cpu time spent up to now is     4322.1 secs

     total energy              =   -1978.36304602 Ry
     estimated scf accuracy    <       0.00000010 Ry

     iteration # 37     ecut=    80.00 Ry     beta= 0.20
     Davidson diagonalization with overlap
     ethr =  9.29E-11,  avg # of iterations =  1.7

     total cpu time spent up to now is     4427.4 secs

     total energy              =   -1978.36304600 Ry
     estimated scf accuracy    <       0.00000008 Ry

     iteration # 38     ecut=    80.00 Ry     beta= 0.20
     Davidson diagonalization with overlap
     ethr =  7.82E-11,  avg # of iterations =  1.8

     total cpu time spent up to now is     4533.9 secs

     total energy              =   -1978.36304600 Ry
     estimated scf accuracy    <       0.00000007 Ry

     iteration # 39     ecut=    80.00 Ry     beta= 0.20
     Davidson diagonalization with overlap
     ethr =  6.53E-11,  avg # of iterations =  4.0

     total cpu time spent up to now is     4666.4 secs

     total energy              =   -1978.36304594 Ry
     estimated scf accuracy    <       0.00000026 Ry

     iteration # 40     ecut=    80.00 Ry     beta= 0.20
     Davidson diagonalization with overlap
     ethr =  6.53E-11,  avg # of iterations =  3.2

     total cpu time spent up to now is     4791.1 secs

     total energy              =   -1978.36304597 Ry
     estimated scf accuracy    <       0.00000004 Ry

     iteration # 41     ecut=    80.00 Ry     beta= 0.20
     Davidson diagonalization with overlap
     ethr =  3.53E-11,  avg # of iterations =  5.8

     total cpu time spent up to now is     4930.8 secs

     total energy              =   -1978.36304596 Ry
     estimated scf accuracy    <       0.00000013 Ry

     iteration # 42     ecut=    80.00 Ry     beta= 0.20
     Davidson diagonalization with overlap
     ethr =  3.53E-11,  avg # of iterations =  4.4

     total cpu time spent up to now is     5071.1 secs

     total energy              =   -1978.36304598 Ry
     estimated scf accuracy    <       0.00000002 Ry

     iteration # 43     ecut=    80.00 Ry     beta= 0.20
     Davidson diagonalization with overlap
     ethr =  2.21E-11,  avg # of iterations =  1.4

     total cpu time spent up to now is     5172.8 secs

     End of self-consistent calculation

          k = 0.0000 0.0000 0.0000 ( 21311 PWs)   bands (ev):

   -53.4867 -53.4457 -53.4145 -53.4064 -27.6607 -27.6203 -27.5920 -27.5844
   -27.4233 -27.4233 -27.3822 -27.3822 -27.3510 -27.3510 -27.3427 -27.3427
    -6.8400  -6.7826  -6.7074  -6.6306  -5.6176  -5.5126  -5.3908  -5.2889
     1.3156   1.5219   1.8374   2.1044   4.6950   4.7908   4.7908   4.8293
     4.8293   4.8469   4.8469   4.8608   4.8609   5.1299   5.7502   5.9050
     5.9050   5.9430   5.9430   5.9575   5.9576   5.9811   5.9811   6.3611
     6.9507   7.3922   7.7523   7.9611  10.1343  10.1343  10.1614  10.1614
    10.1911  10.1912  10.2495  10.2496  10.3439  10.3439

          k = 0.0000 0.0722 0.0000 ( 21283 PWs)   bands (ev):

   -53.4852 -53.4442 -53.4130 -53.4048 -27.6576 -27.6172 -27.5890 -27.5814
   -27.4389 -27.4269 -27.3978 -27.3858 -27.3666 -27.3583 -27.3546 -27.3462
    -6.7804  -6.7234  -6.6482  -6.5713  -5.5897  -5.4864  -5.3663  -5.2658
     1.3845   1.5891   1.9046   2.1726   4.5706   4.6559   4.6934   4.7101
     4.7270   4.8530   4.8915   4.9088   4.9236   4.9570   5.3964   5.6261
     5.8077   5.8458   5.8609   5.8849   5.9969   6.0225   6.1967   6.5677
     6.9563   7.3790   7.6977   7.8872  10.0520  10.0623  10.1051  10.1645
    10.1953  10.2155  10.2189  10.2399  10.2607  10.2673

          k = 0.0000 0.1443 0.0000 ( 21263 PWs)   bands (ev):

   -53.4807 -53.4397 -53.4085 -53.4004 -27.6490 -27.6086 -27.5803 -27.5727
   -27.4829 -27.4419 -27.4369 -27.4107 -27.4024 -27.3958 -27.3646 -27.3563
    -6.6063  -6.5508  -6.4758  -6.3986  -5.5084  -5.4099  -5.2952  -5.1985
     1.5764   1.7750   2.0885   2.3577   4.2692   4.3111   4.3400   4.3558
     4.3860   4.5987   4.9179   5.0320   5.0705   5.0871   5.1045   5.1091
     5.5562   5.5947   5.6110   5.6359   6.0162   6.1034   6.3588   6.7084
     6.9344   7.2713   7.4848   7.6607   9.7268   9.7913   9.8922   9.9422
     9.9638  10.0733  10.0736  10.1178  10.1197  10.1711

          k = 0.0000 0.2165 0.0000 ( 21233 PWs)   bands (ev):

   -53.4741 -53.4331 -53.4019 -53.3937 -27.6360 -27.5956 -27.5673 -27.5597
   -27.5483 -27.5072 -27.4762 -27.4679 -27.4519 -27.4108 -27.3796 -27.3713
    -6.3327  -6.2801  -6.2059  -6.1285  -5.3808  -5.2902  -5.1841  -5.0935
     1.8387   2.0224   2.3208   2.5803   3.8538   3.8773   3.9115   3.9255
     3.9929   4.1913   4.4197   4.5573   5.2294   5.2672   5.2809   5.3047
     5.3141   5.3461   5.3652   5.3827   5.8879   6.0298   6.3210   6.6306
     6.7981   6.9845   7.0927   7.2963   9.3554   9.4641   9.6753   9.8526
     9.8683   9.9071   9.9540   9.9615  10.0335  10.1355

          k = 0.0000 0.2887 0.0000 ( 21197 PWs)   bands (ev):

   -53.4662 -53.4252 -53.3940 -53.3859 -27.6246 -27.6207 -27.5835 -27.5802
   -27.5526 -27.5519 -27.5443 -27.5442 -27.4695 -27.4284 -27.3972 -27.3889
    -5.9848  -5.9375  -5.8653  -5.7880  -5.2195  -5.1397  -5.0454  -4.9619
     2.0495   2.1977   2.4329   2.6291   3.4415   3.4615   3.5309   3.6009
     3.6970   3.8187   3.9465   4.0118   4.9012   4.9403   4.9580   4.9862
     5.6292   5.6448   5.6685   5.6871   5.7153   5.8218   6.1227   6.4035
     6.5376   6.6141   6.6774   6.8907   9.2204   9.3654   9.6258   9.6650
     9.7212   9.7716   9.8381   9.8902  10.1684  10.3454

          k = 0.0000 0.3608 0.0000 ( 21187 PWs)   bands (ev):

   -53.4584 -53.4174 -53.3861 -53.3780 -27.7000 -27.6589 -27.6281 -27.6198
   -27.6053 -27.5649 -27.5365 -27.5289 -27.4870 -27.4460 -27.4148 -27.4065
    -5.6010  -5.5625  -5.4940  -5.4174  -5.0436  -4.9770  -4.8974  -4.8205
     2.0318   2.1236   2.2555   2.3664   3.0768   3.1168   3.2353   3.4130
     3.4237   3.5229   3.6151   3.7779   4.6127   4.6521   4.6706   4.6995
     5.3958   5.5830   5.8723   5.9472   5.9883   6.0132   6.0502   6.1625
     6.3246   6.3815   6.4412   6.6407   9.3405   9.4783   9.5631   9.6160
     9.6559   9.7135   9.7271   9.9809  10.4870  10.6500

          k = 0.0000 0.4330 0.0000 ( 21140 PWs)   bands (ev):

   -53.4517 -53.4107 -53.3795 -53.3713 -27.7632 -27.7222 -27.6914 -27.6831
   -27.5922 -27.5518 -27.5234 -27.5158 -27.5019 -27.4608 -27.4297 -27.4213
    -5.2362  -5.2113  -5.1484  -5.0726  -4.8786  -4.8268  -4.7644  -4.6907
     1.8095   1.8607   1.9349   2.0203   2.7420   2.7869   2.8905   3.0380
     3.2793   3.3591   3.5085   3.7068   4.3918   4.4314   4.4505   4.4798
     5.2050   5.4001   5.6750   5.9800   6.1994   6.2449   6.2805   6.3263
     6.3347   6.3991   6.4920   6.6874   9.5592   9.6066   9.6106   9.6344
     9.6789   9.7132   9.9077  10.1056  10.7754  10.9221

          k = 0.0000 0.5052 0.0000 ( 21078 PWs)   bands (ev):

   -53.4472 -53.4062 -53.3750 -53.3668 -27.8051 -27.7641 -27.7333 -27.7251
   -27.5834 -27.5430 -27.5146 -27.5118 -27.5070 -27.4707 -27.4395 -27.4312
    -4.9651  -4.9545  -4.8975  -4.8246  -4.7551  -4.7169  -4.6731  -4.5957
     1.5845   1.6174   1.6702   1.7582   2.5070   2.5400   2.6204   2.7614
     3.1709   3.2539   3.3958   3.5893   4.2540   4.2937   4.3132   4.3428
     5.0915   5.3003   5.5620   5.8676   6.3514   6.4023   6.4476   6.5005
     6.5057   6.5718   6.6754   6.9030   9.6092   9.6518   9.6760   9.7045
     9.9147   9.9723  10.0929  10.2237  10.9412  11.0804

          k = 0.0000-0.5774 0.0000 ( 21006 PWs)   bands (ev):

   -53.4456 -53.4046 -53.3734 -53.3653 -27.8197 -27.7788 -27.7480 -27.7397
   -27.5804 -27.5399 -27.5152 -27.5116 -27.5039 -27.4741 -27.4430 -27.4347
    -4.8694  -4.8542  -4.8044  -4.7368  -4.7065  -4.6748  -4.6413  -4.5589
     1.4931   1.5219   1.5699   1.6607   2.4229   2.4498   2.5219   2.6637
     3.1249   3.2060   3.3449   3.5337   4.2073   4.2470   4.2666   4.2963
     5.0549   5.2703   5.5253   5.8300   6.4006   6.4538   6.5029   6.5586
     6.6073   6.6728   6.7610   7.0160   9.6381   9.6791   9.7047   9.7254
    10.0767  10.1086  10.1669  10.2701  10.9855  11.1225

          k = 0.0625 0.1083 0.0000 ( 21269 PWs)   bands (ev):

   -53.4822 -53.4412 -53.4100 -53.4018 -27.6518 -27.6114 -27.5831 -27.5755
   -27.4682 -27.4341 -27.4271 -27.3960 -27.3930 -27.3876 -27.3618 -27.3535
    -6.6635  -6.6075  -6.5324  -6.4553  -5.5351  -5.4350  -5.3185  -5.2206
     1.5153   1.7161   2.0308   2.3001   4.3678   4.4182   4.4513   4.4666
     4.4911   4.7107   4.9718   5.0101   5.0265   5.0418   5.0672   5.2758
     5.5929   5.6305   5.6416   5.6732   6.0671   6.1321   6.3611   6.7100
     6.9499   7.3220   7.5640   7.7383   9.8330   9.9078   9.9334   9.9708
    10.0000  10.0435  10.0966  10.1477  10.1719  10.2217

          k = 0.0625 0.1804 0.0000 ( 21194 PWs)   bands (ev):

   -53.4766 -53.4356 -53.4044 -53.3963 -27.6410 -27.6006 -27.5723 -27.5647
   -27.5217 -27.4806 -27.4495 -27.4478 -27.4412 -27.4067 -27.3755 -27.3672
    -6.4395  -6.3857  -6.3111  -6.2337  -5.4305  -5.3367  -5.2272  -5.1342
     1.7463   1.9373   2.2450   2.5121   4.0211   4.0506   4.0686   4.0848
     4.1326   4.3705   4.6444   4.8109   5.1873   5.2166   5.2309   5.2380
     5.2558   5.2684   5.2767   5.3186   6.0819   6.1887   6.4386   6.7402
     6.8746   7.1275   7.2540   7.4517   9.4645   9.5509   9.7134   9.8349
     9.8544   9.9197   9.9577   9.9998  10.0398  10.0909

          k = 0.0625 0.2526 0.0000 ( 21202 PWs)   bands (ev):

   -53.4694 -53.4284 -53.3972 -53.3890 -27.6268 -27.5909 -27.5864 -27.5581
   -27.5505 -27.5498 -27.5188 -27.5105 -27.4658 -27.4247 -27.3935 -27.3852
    -6.1282  -6.0784  -6.0052  -5.9278  -5.2854  -5.2009  -5.1016  -5.0153
     1.9959   2.1635   2.4359   2.6705   3.6232   3.6338   3.6816   3.7290
     3.8169   3.9971   4.1785   4.2794   4.8486   4.8648   4.9017   4.9650
     5.4552   5.4936   5.5088   5.5379   5.9467   6.0882   6.3402   6.5885
     6.6729   6.7869   6.8434   7.0751   9.2009   9.3295   9.5458   9.7096
     9.7805   9.8127   9.8507   9.9264   9.9658  10.1780

          k = 0.0625 0.3248 0.0000 ( 21194 PWs)   bands (ev):

   -53.4615 -53.4205 -53.3893 -53.3811 -27.6649 -27.6239 -27.6114 -27.5930
   -27.5847 -27.5710 -27.5427 -27.5351 -27.4851 -27.4440 -27.4129 -27.4046
    -5.7608  -5.7180  -5.6477  -5.5707  -5.1154  -5.0430  -4.9568  -4.8774
     2.1023   2.2213   2.3988   2.5426   3.2724   3.2950   3.3881   3.5117
     3.5708   3.7014   3.7283   3.8211   4.5366   4.5632   4.6218   4.6879
     5.6736   5.6899   5.7263   5.7699   5.7845   5.8766   6.1174   6.3604
     6.4564   6.5006   6.5440   6.7554   9.1659   9.3005   9.4942   9.6288
     9.7090   9.7409   9.8122   9.9720  10.2224  10.3990

          k = 0.0625 0.3969 0.0000 ( 21151 PWs)   bands (ev):

   -53.4542 -53.4132 -53.3820 -53.3739 -27.7326 -27.6916 -27.6607 -27.6524
   -27.5972 -27.5568 -27.5285 -27.5208 -27.5030 -27.4619 -27.4307 -27.4224
    -5.3832  -5.3517  -5.2861  -5.2099  -4.9427  -4.8843  -4.8141  -4.7397
     1.9632   2.0322   2.1280   2.2190   2.9085   2.9533   3.0576   3.2027
     3.3504   3.4319   3.5777   3.7715   4.3365   4.3703   4.4264   4.4904
     5.4360   5.6025   5.7951   5.8344   5.8814   5.9023   5.9799   6.1795
     6.4680   6.4911   6.5351   6.6956   9.3076   9.4132   9.5459   9.6513
     9.7590   9.7763   9.8778  10.0544  10.5532  10.6975

          k = 0.0625 0.4691 0.0000 ( 21105 PWs)   bands (ev):

   -53.4487 -53.4077 -53.3764 -53.3683 -27.7839 -27.7429 -27.7121 -27.7038
   -27.5863 -27.5459 -27.5175 -27.5166 -27.5099 -27.4755 -27.4444 -27.4360
    -5.0593  -5.0436  -4.9838  -4.9091  -4.7953  -4.7514  -4.6995  -4.6247
     1.7315   1.7721   1.8329   1.9181   2.5956   2.6309   2.7085   2.8379
     3.2309   3.3255   3.4711   3.6670   4.2334   4.2608   4.3009   4.3636
     5.2230   5.4148   5.6401   5.9027   5.9549   5.9834   6.0440   6.1914
     6.6364   6.6567   6.7156   6.8722   9.5144   9.5736   9.6387   9.7159
     9.8967   9.9234  10.0277  10.1698  10.8496  10.9723

          k = 0.0625 0.5413 0.0000 ( 21084 PWs)   bands (ev):

   -53.4456 -53.4046 -53.3734 -53.3653 -27.8115 -27.7705 -27.7397 -27.7315
   -27.5804 -27.5399 -27.5239 -27.5116 -27.5039 -27.4828 -27.4517 -27.4434
    -4.8734  -4.8599  -4.8084  -4.7399  -4.7050  -4.6722  -4.6369  -4.5558
     1.5733   1.6028   1.6513   1.7416   2.4194   2.4443   2.5088   2.6386
     3.1462   3.2372   3.3788   3.5648   4.1939   4.2198   4.2360   4.3023
     5.1023   5.3127   5.5437   5.8264   6.0410   6.0734   6.1314   6.2773
     6.7812   6.8101   6.8786   7.0563   9.6373   9.6704   9.6864   9.7434
    10.0718  10.1084  10.1777  10.2817  11.0460  11.1649

          k = 0.1250 0.2165 0.0000 ( 21179 PWs)   bands (ev):

   -53.4705 -53.4295 -53.3983 -53.3901 -27.6290 -27.5886 -27.5769 -27.5603
   -27.5526 -27.5358 -27.5048 -27.4965 -27.4666 -27.4255 -27.3944 -27.3860
    -6.1774  -6.1269  -6.0533  -5.9759  -5.3079  -5.2219  -5.1209  -5.0335
     1.9747   2.1489   2.4336   2.6814   3.7040   3.7077   3.7421   3.8018
     3.8910   4.1276   4.3448   4.4633   4.7104   4.7255   4.7604   4.8351
     5.3759   5.4135   5.4271   5.4578   6.1293   6.2619   6.4785   6.6884
     6.7386   6.8771   6.9173   7.1705   9.1895   9.3080   9.5040   9.6733
     9.7793   9.8064   9.8168   9.8464   9.9154  10.1159

          k = 0.1250 0.2887 0.0000 ( 21199 PWs)   bands (ev):

   -53.4632 -53.4222 -53.3910 -53.3829 -27.6402 -27.6148 -27.5992 -27.5744
   -27.5682 -27.5599 -27.5461 -27.5384 -27.4899 -27.4488 -27.4177 -27.4094
    -5.8449  -5.8001  -5.7288  -5.6517  -5.1527  -5.0771  -4.9876  -4.9067
     2.1447   2.2831   2.4954   2.6692   3.4183   3.4546   3.4970   3.6132
     3.7090   3.8311   3.9094   3.9530   4.2594   4.3087   4.4290   4.5237
     5.4781   5.5132   5.5271   5.5755   6.0307   6.1842   6.3765   6.5334
     6.5660   6.5932   6.6264   6.8897   9.0304   9.1691   9.3812   9.5539
     9.7655   9.7905   9.8287   9.9194   9.9711  10.2173

          k = 0.1250 0.3608 0.0000 ( 21195 PWs)   bands (ev):

   -53.4560 -53.4149 -53.3837 -53.3756 -27.7024 -27.6614 -27.6305 -27.6222
   -27.6006 -27.5601 -27.5318 -27.5242 -27.5136 -27.4725 -27.4414 -27.4331
    -5.4796  -5.4442  -5.3770  -5.3004  -4.9827  -4.9199  -4.8448  -4.7694
     2.1147   2.2046   2.3264   2.4297   3.1142   3.1511   3.2318   3.3511
     3.4111   3.5216   3.6429   3.8190   4.0547   4.1672   4.3034   4.3888
     5.4186   5.4399   5.4698   5.5384   5.8176   5.9584   6.1233   6.3866
     6.5251   6.5499   6.5689   6.7266   9.0692   9.2166   9.4394   9.6177
     9.8461   9.8630   9.9115  10.0340  10.2124  10.3843

          k = 0.1250 0.4330 0.0000 ( 21113 PWs)   bands (ev):

   -53.4498 -53.4088 -53.3775 -53.3694 -27.7546 -27.7136 -27.6827 -27.6744
   -27.5885 -27.5481 -27.5338 -27.5197 -27.5121 -27.4927 -27.4616 -27.4533
    -5.1348  -5.1137  -5.0519  -4.9765  -4.8225  -4.7738  -4.7158  -4.6421
     1.9426   1.9982   2.0732   2.1562   2.7055   2.7369   2.7877   2.8901
     3.3181   3.4470   3.5891   3.7811   4.0282   4.1289   4.2490   4.3321
     5.3273   5.3650   5.4396   5.5263   5.5867   5.6805   5.8353   6.1607
     6.6638   6.6823   6.7106   6.8251   9.2828   9.4181   9.6205   9.7801
     9.9594   9.9845  10.0138  10.1084  10.5233  10.6355

          k = 0.1250 0.5052 0.0000 ( 21081 PWs)   bands (ev):

   -53.4456 -53.4046 -53.3734 -53.3653 -27.7891 -27.7481 -27.7173 -27.7090
   -27.5804 -27.5473 -27.5400 -27.5116 -27.5062 -27.5039 -27.4751 -27.4668
    -4.8837  -4.8727  -4.8177  -4.7475  -4.7011  -4.6658  -4.6264  -4.5478
     1.7830   1.8176   1.8705   1.9579   2.4138   2.4348   2.4764   2.5808
     3.2155   3.3327   3.4792   3.6570   4.0813   4.1466   4.2318   4.3185
     5.1774   5.3696   5.4570   5.4847   5.5262   5.5605   5.6267   5.9884
     6.8467   6.8658   6.9155   7.0331   9.5164   9.5894   9.6828   9.7694
    10.1074  10.1395  10.2015  10.3189  10.8014  10.8630

          k = 0.1250 0.5774 0.0000 ( 21108 PWs)   bands (ev):

   -53.4442 -53.4032 -53.3720 -53.3638 -27.8012 -27.7602 -27.7294 -27.7212
   -27.5775 -27.5520 -27.5371 -27.5109 -27.5087 -27.5011 -27.4799 -27.4715
    -4.7984  -4.7774  -4.7308  -4.6720  -4.6499  -4.6236  -4.5949  -4.5107
     1.7209   1.7478   1.7930   1.8857   2.3101   2.3270   2.3671   2.4727
     3.1637   3.2739   3.4204   3.5916   4.1360   4.1646   4.2224   4.3199
     5.0904   5.3240   5.4373   5.4971   5.5122   5.5492   5.5890   5.9354
     6.9355   6.9599   7.0202   7.1450   9.6049   9.6274   9.6507   9.7202
    10.2130  10.2562  10.3184  10.4379  10.9233  10.9744

          k = 0.1875 0.3248 0.0000 ( 21195 PWs)   bands (ev):

   -53.4566 -53.4155 -53.3843 -53.3762 -27.6889 -27.6478 -27.6169 -27.6086
   -27.6017 -27.5613 -27.5330 -27.5253 -27.5204 -27.4793 -27.4482 -27.4399
    -5.5130  -5.4765  -5.4086  -5.3319  -4.9963  -4.9319  -4.8551  -4.7793
     2.1786   2.2790   2.4142   2.5253   3.2475   3.2902   3.3376   3.3978
     3.4286   3.5626   3.6705   3.7783   3.9101   4.0728   4.2375   4.3217
     5.2452   5.2784   5.2981   5.3603   5.9614   6.1158   6.2413   6.4867
     6.5304   6.5639   6.5796   6.7470   8.9787   9.1394   9.3847   9.5967
     9.8687   9.8904   9.9134  10.0033  10.0628  10.2736

          k = 0.1875 0.3969 0.0000 ( 21153 PWs)   bands (ev):

   -53.4504 -53.4094 -53.3782 -53.3700 -27.7308 -27.6898 -27.6589 -27.6506
   -27.5897 -27.5512 -27.5492 -27.5209 -27.5132 -27.5101 -27.4790 -27.4707
    -5.1764  -5.1523  -5.0894  -5.0136  -4.8360  -4.7845  -4.7232  -4.6499
     2.1016   2.1730   2.2628   2.3466   2.8053   2.8254   2.8450   2.9241
     3.3986   3.5765   3.6835   3.8038   3.9374   4.0734   4.2271   4.2953
     4.9251   4.9587   4.9937   5.0674   5.7296   5.8834   5.9561   6.2971
     6.6333   6.6677   6.6922   6.7713   9.1356   9.3048   9.5687   9.8330
     9.9876  10.0169  10.0337  10.0835  10.2469  10.3789

          k = 0.1875 0.4691 0.0000 ( 21101 PWs)   bands (ev):

   -53.4457 -53.4046 -53.3734 -53.3653 -27.7613 -27.7203 -27.6894 -27.6812
   -27.5804 -27.5761 -27.5400 -27.5351 -27.5116 -27.5040 -27.5040 -27.4957
    -4.8949  -4.8843  -4.8268  -4.7555  -4.6969  -4.6591  -4.6161  -4.5396
     2.0196   2.0686   2.1342   2.2154   2.4110   2.4300   2.4465   2.5274
     3.3457   3.5024   3.6452   3.7916   3.9689   4.0931   4.2398   4.3304
     4.7306   4.7698   4.8605   4.9647   5.4388   5.5870   5.6720   6.0333
     6.8348   6.8630   6.8846   6.9627   9.3656   9.4811   9.6413   9.7726
    10.1502  10.1715  10.2145  10.3549  10.4642  10.5329

          k = 0.1875 0.5413 0.0000 ( 21112 PWs)   bands (ev):

   -53.4431 -53.4021 -53.3709 -53.3627 -27.7773 -27.7363 -27.7055 -27.6972
   -27.5901 -27.5754 -27.5490 -27.5350 -27.5179 -27.5096 -27.5066 -27.4989
    -4.7457  -4.7204  -4.6755  -4.6266  -4.6026  -4.5816  -4.5561  -4.4710
     1.9865   2.0125   2.0562   2.1527   2.1966   2.2206   2.2336   2.3162
     3.2356   3.3634   3.5152   3.6641   4.0981   4.1718   4.2731   4.3822
     4.6553   4.7233   4.8504   4.9569   5.2325   5.3785   5.4730   5.8532
     7.0176   7.0428   7.0817   7.1679   9.4538   9.4927   9.5347   9.5967
    10.3328  10.3550  10.4339  10.5867  10.6126  10.6482

          k = 0.2500 0.4330 0.0000 ( 21125 PWs)   bands (ev):

   -53.4457 -53.4046 -53.3734 -53.3653 -27.7468 -27.7058 -27.6749 -27.6666
   -27.5910 -27.5804 -27.5500 -27.5400 -27.5189 -27.5116 -27.5106 -27.5040
    -4.8998  -4.8888  -4.8306  -4.7588  -4.6952  -4.6563  -4.6119  -4.5361
     2.1269   2.1858   2.2622   2.3346   2.4117   2.4290   2.4384   2.5073
     3.4601   3.6710   3.7468   3.8418   4.0013   4.1178   4.2693   4.3262
     4.4244   4.4546   4.4841   4.5766   5.4916   5.6526   5.7006   6.0693
     6.8182   6.8537   6.8688   6.9276   9.3032   9.4315   9.6132   9.7668
    10.1525  10.1623  10.2091  10.3388  10.3529  10.4642

          k = 0.2500 0.5052 0.0000 ( 21117 PWs)   bands (ev):

   -53.4425 -53.4015 -53.3703 -53.3621 -27.7515 -27.7105 -27.6797 -27.6714
   -27.6236 -27.5826 -27.5742 -27.5515 -27.5432 -27.5338 -27.5054 -27.4978
    -4.7187  -4.6923  -4.6474  -4.6026  -4.5765  -4.5574  -4.5325  -4.4477
     2.1041   2.1204   2.1295   2.1983   2.2485   2.2993   2.3525   2.4283
     3.3914   3.5354   3.6658   3.7813   4.0120   4.0652   4.1351   4.2102
     4.2615   4.3078   4.4156   4.4854   5.2151   5.3746   5.4480   5.8244
     7.0591   7.0913   7.1058   7.1693   9.3196   9.3715   9.4282   9.4942
    10.2117  10.3096  10.3898  10.4244  10.5495  10.6600

          k = 0.2500 0.5774 0.0000 ( 21116 PWs)   bands (ev):

   -53.4414 -53.4004 -53.3691 -53.3610 -27.7513 -27.7103 -27.6795 -27.6712
   -27.6369 -27.5958 -27.5721 -27.5648 -27.5565 -27.5316 -27.5033 -27.4956
    -4.6592  -4.6168  -4.5794  -4.5595  -4.5336  -4.5115  -4.5024  -4.4111
     2.0051   2.0215   2.0289   2.1012   2.3350   2.3620   2.4005   2.4871
     3.2754   3.3836   3.5182   3.6258   3.9622   4.0641   4.1607   4.2275
     4.3026   4.3369   4.4510   4.5151   5.0796   5.2564   5.3083   5.7123
     7.1853   7.2149   7.2383   7.3062   9.2536   9.2901   9.3060   9.3419
    10.2167  10.3372  10.3990  10.5600  10.6386  10.7735

          k = 0.3125 0.5413 0.0000 ( 21100 PWs)   bands (ev):

   -53.4408 -53.3998 -53.3685 -53.3604 -27.7303 -27.6893 -27.6653 -27.6585
   -27.6502 -27.6242 -27.5932 -27.5849 -27.5709 -27.5305 -27.5021 -27.4944
    -4.6298  -4.5799  -4.5460  -4.5358  -4.5113  -4.4872  -4.4795  -4.3880
     1.9376   1.9590   1.9606   2.0301   2.5581   2.5981   2.6402   2.7251
     3.3354   3.3699   3.3934   3.4942   3.5875   3.8563   3.8812   4.0569
     4.3206   4.3829   4.4720   4.5658   5.0032   5.1665   5.2407   5.6456
     7.2678   7.3003   7.3118   7.3752   9.1375   9.1762   9.1963   9.2197
    10.1247  10.2647  10.3027  10.5406  10.7060  10.8713

     the Fermi energy is     8.4025 ev

!    total energy              =   -1978.36304601 Ry
     total all-electron energy =    -38771.683891 Ry
     estimated scf accuracy    <          6.2E-09 Ry
     smearing contrib. (-TS)   =       0.00008103 Ry
     internal energy E=F+TS    =   -1978.36312704 Ry

     The total energy is F=E-TS. E is the sum of the following terms:
     one-electron contribution =   -1681.12492951 Ry
     hartree contribution      =     882.88151294 Ry
     xc contribution           =    -119.27034495 Ry
     ewald contribution        =     209.00549940 Ry
     one-center paw contrib.   =   -1269.85486492 Ry

     convergence has been achieved in  43 iterations

     Writing all to output data dir ./tmp/cleave/cleave_dz022_dz5p0/mos2_cleave.save/ :
     XML data file, charge density, pseudopotentials, collected wavefunctions

     init_run     :     84.68s CPU     85.54s WALL (       1 calls)
     electrons    :   5006.85s CPU   5087.14s WALL (       1 calls)

     Called by init_run:
     wfcinit      :     40.94s CPU     41.06s WALL (       1 calls)
     potinit      :     41.59s CPU     41.80s WALL (       1 calls)
     hinit0       :      0.31s CPU      0.33s WALL (       1 calls)

     Called by electrons:
     c_bands      :   4197.12s CPU   4222.61s WALL (      44 calls)
     sum_band     :    614.47s CPU    639.94s WALL (      44 calls)
     v_of_rho     :    115.33s CPU    123.25s WALL (      44 calls)
     newd         :     76.90s CPU     98.66s WALL (      44 calls)
     PAW_pot      :     17.24s CPU     17.25s WALL (      44 calls)
     mix_rho      :     28.13s CPU     28.47s WALL (      44 calls)
     vdW_kernel   :     39.39s CPU     39.40s WALL (       1 calls)

     Called by c_bands:
     init_us_2    :     19.07s CPU     19.09s WALL (    2670 calls)
     init_us_2:cp :     19.07s CPU     19.09s WALL (    2670 calls)
     cegterg      :   4006.94s CPU   4032.23s WALL (    1320 calls)

     Called by *egterg:
     cdiaghg      :     12.14s CPU     12.15s WALL (    4865 calls)
     h_psi        :   2171.31s CPU   2180.89s WALL (    4925 calls)
     s_psi        :    657.36s CPU    657.64s WALL (    4925 calls)
     g_psi        :     10.18s CPU     10.19s WALL (    3575 calls)

     Called by h_psi:
     h_psi:calbec :    851.39s CPU    851.64s WALL (    4925 calls)
     vloc_psi     :    657.98s CPU    658.70s WALL (    4925 calls)
     add_vuspsi   :    657.40s CPU    657.58s WALL (    4925 calls)

     General routines
     calbec       :   1220.66s CPU   1221.06s WALL (    6245 calls)
     fft          :     32.13s CPU     32.14s WALL (    2771 calls)
     ffts         :     13.65s CPU     13.66s WALL (    4708 calls)
     fftw         :    608.66s CPU    609.22s WALL (  458354 calls)
     interpolate  :      0.68s CPU      0.68s WALL (      44 calls)

     Parallel routines

     PWSCF        :      1h24m CPU      1h26m WALL


   This run was terminated on:  10:28:27   9Jun2026            

=------------------------------------------------------------------------------=
   JOB DONE.
=------------------------------------------------------------------------------=
Note: The following floating-point exceptions are signalling: IEEE_UNDERFLOW_FLAG IEEE_DENORMAL
