Authorization required, but no authorization protocol specified

Authorization required, but no authorization protocol specified

Authorization required, but no authorization protocol specified

Authorization required, but no authorization protocol specified

Authorization required, but no authorization protocol specified

Authorization required, but no authorization protocol specified

Authorization required, but no authorization protocol specified

Authorization required, but no authorization protocol specified


     Program PWSCF v.7.3 starts on  9Jun2026 at 13:35:44 

     This program is part of the open-source Quantum ESPRESSO suite
     for quantum simulation of materials; please cite
         "P. Giannozzi et al., J. Phys.:Condens. Matter 21 395502 (2009);
         "P. Giannozzi et al., J. Phys.:Condens. Matter 29 465901 (2017);
         "P. Giannozzi et al., J. Chem. Phys. 152 154105 (2020);
          URL http://www.quantum-espresso.org", 
     in publications or presentations arising from this work. More details at
     http://www.quantum-espresso.org/quote

     Parallel version (MPI), running on     1 processors

     MPI processes distributed on     1 nodes
     76362 MiB available memory on the printing compute node when the environment starts

     Waiting for input...
     Reading input from standard input

     Current dimensions of program PWSCF are:
     Max number of different atomic species (ntypx) = 10
     Max number of k-points (npk) =  40000
     Max angular momentum in pseudopotentials (lmaxx) =  4
     file Mo.pbe-spn-kjpaw_psl.1.0.0.UPF: wavefunction(s)  4S 4D renormalized
     file S.pbe-n-kjpaw_psl.1.0.0.UPF: wavefunction(s)  3S 3P renormalized

     IMPORTANT: XC functional enforced from input :
     Exchange-correlation= VDW-DF2-B86R
                           (   1   4  26   0   2   0   0)
     Any further DFT definition will be discarded
     Please, verify this is what you really want


     Subspace diagonalization in iterative solution of the eigenvalue problem:
     a serial algorithm will be used


     G-vector sticks info
     --------------------
     sticks:   dense  smooth     PW     G-vecs:    dense   smooth      PW
     Sum        1573     769    223               478405   168563   26075

     Using Slab Decomposition



     bravais-lattice index     =            4
     lattice parameter (alat)  =       5.9715  a.u.
     unit-cell volume          =    1750.7440 (a.u.)^3
     number of atoms/cell      =           12
     number of atomic types    =            2
     number of electrons       =       104.00
     number of Kohn-Sham states=           62
     kinetic-energy cutoff     =      80.0000  Ry
     charge density cutoff     =     640.0000  Ry
     scf convergence threshold =      1.0E-08
     mixing beta               =       0.2000
     number of iterations used =            8  local-TF  mixing
     Exchange-correlation= VDW-DF2-B86R
                           (   1   4  26   0   2   0   0)

     celldm(1)=   5.971535  celldm(2)=   0.000000  celldm(3)=   9.493671
     celldm(4)=   0.000000  celldm(5)=   0.000000  celldm(6)=   0.000000

     crystal axes: (cart. coord. in units of alat)
               a(1) = (   1.000000   0.000000   0.000000 )  
               a(2) = (  -0.500000   0.866025   0.000000 )  
               a(3) = (   0.000000   0.000000   9.493671 )  

     reciprocal axes: (cart. coord. in units 2 pi/alat)
               b(1) = (  1.000000  0.577350 -0.000000 )  
               b(2) = (  0.000000  1.154701  0.000000 )  
               b(3) = (  0.000000 -0.000000  0.105333 )  


     PseudoPot. # 1 for Mo read from file:
     ./pseudo/Mo.pbe-spn-kjpaw_psl.1.0.0.UPF
     MD5 check sum: 4396e0c640fcce5c25f020efccf1ab12
     Pseudo is Projector augmented-wave + core cor, Zval = 14.0
     Generated using &quot;atomic&quot; code by A. Dal Corso  v.6.3
     Shape of augmentation charge: PSQ
     Using radial grid of 1229 points,  6 beta functions with: 
                l(1) =   0
                l(2) =   0
                l(3) =   1
                l(4) =   1
                l(5) =   2
                l(6) =   2
     Q(r) pseudized with 0 coefficients 


     PseudoPot. # 2 for S  read from file:
     ./pseudo/S.pbe-n-kjpaw_psl.1.0.0.UPF
     MD5 check sum: fb45dfebcf3e72a4e1bd4a866ec2e262
     Pseudo is Projector augmented-wave + core cor, Zval =  6.0
     Generated using &quot;atomic&quot; code by A. Dal Corso  v.6.3
     Shape of augmentation charge: PSQ
     Using radial grid of 1151 points,  6 beta functions with: 
                l(1) =   0
                l(2) =   0
                l(3) =   1
                l(4) =   1
                l(5) =   2
                l(6) =   2
     Q(r) pseudized with 0 coefficients 


     atomic species   valence    mass     pseudopotential
     Mo               14.00    95.96000     Mo( 1.00)
     S                 6.00    32.06000     S ( 1.00)

      6 Sym. Ops. (no inversion) found



   Cartesian axes

     site n.     atom                  positions (alat units)
         1        S      tau(   1) = (  -0.0000005   0.5773503  -0.9967195  )
         2        Mo     tau(   2) = (   0.0000000   0.0000000  -0.4993332  )
         3        S      tau(   3) = (  -0.0000005   0.5773503  -0.0017175  )
         4        S      tau(   4) = (   0.5000003   0.2886747   0.9835827  )
         5        Mo     tau(   5) = (  -0.0000005   0.5773503   1.4818950  )
         6        S      tau(   6) = (   0.5000003   0.2886747   1.9798512  )
         7        S      tau(   7) = (   0.0000000   0.0000000   2.9586848  )
         8        Mo     tau(   8) = (   0.5000003   0.2886747   3.4569999  )
         9        S      tau(   9) = (   0.0000000   0.0000000   3.9548385  )
        10        S      tau(  10) = (  -0.0000005   0.5773503   6.9777236  )
        11        Mo     tau(  11) = (   0.0000000   0.0000000   7.4753602  )
        12        S      tau(  12) = (  -0.0000005   0.5773503   7.9724944  )

     number of k points=    30  Methfessel-Paxton smearing, width (Ry)=  0.0200
                       cart. coord. in units 2pi/alat
        k(    1) = (   0.0000000   0.0000000   0.0000000), wk =   0.0078125
        k(    2) = (   0.0000000   0.0721688   0.0000000), wk =   0.0468750
        k(    3) = (   0.0000000   0.1443376   0.0000000), wk =   0.0468750
        k(    4) = (   0.0000000   0.2165064   0.0000000), wk =   0.0468750
        k(    5) = (   0.0000000   0.2886751   0.0000000), wk =   0.0468750
        k(    6) = (   0.0000000   0.3608439   0.0000000), wk =   0.0468750
        k(    7) = (   0.0000000   0.4330127   0.0000000), wk =   0.0468750
        k(    8) = (   0.0000000   0.5051815   0.0000000), wk =   0.0468750
        k(    9) = (   0.0000000  -0.5773503   0.0000000), wk =   0.0234375
        k(   10) = (   0.0625000   0.1082532   0.0000000), wk =   0.0468750
        k(   11) = (   0.0625000   0.1804220   0.0000000), wk =   0.0937500
        k(   12) = (   0.0625000   0.2525907   0.0000000), wk =   0.0937500
        k(   13) = (   0.0625000   0.3247595   0.0000000), wk =   0.0937500
        k(   14) = (   0.0625000   0.3969283   0.0000000), wk =   0.0937500
        k(   15) = (   0.0625000   0.4690971   0.0000000), wk =   0.0937500
        k(   16) = (   0.0625000   0.5412659   0.0000000), wk =   0.0937500
        k(   17) = (   0.1250000   0.2165064   0.0000000), wk =   0.0468750
        k(   18) = (   0.1250000   0.2886751   0.0000000), wk =   0.0937500
        k(   19) = (   0.1250000   0.3608439   0.0000000), wk =   0.0937500
        k(   20) = (   0.1250000   0.4330127   0.0000000), wk =   0.0937500
        k(   21) = (   0.1250000   0.5051815   0.0000000), wk =   0.0937500
        k(   22) = (   0.1250000   0.5773503   0.0000000), wk =   0.0468750
        k(   23) = (   0.1875000   0.3247595   0.0000000), wk =   0.0468750
        k(   24) = (   0.1875000   0.3969283   0.0000000), wk =   0.0937500
        k(   25) = (   0.1875000   0.4690971   0.0000000), wk =   0.0937500
        k(   26) = (   0.1875000   0.5412659   0.0000000), wk =   0.0937500
        k(   27) = (   0.2500000   0.4330127   0.0000000), wk =   0.0468750
        k(   28) = (   0.2500000   0.5051815   0.0000000), wk =   0.0937500
        k(   29) = (   0.2500000   0.5773503   0.0000000), wk =   0.0468750
        k(   30) = (   0.3125000   0.5412659   0.0000000), wk =   0.0468750

     Dense  grid:   478405 G-vectors     FFT dimensions: (  50,  50, 480)

     Smooth grid:   168563 G-vectors     FFT dimensions: (  36,  36, 324)

     Estimated max dynamical RAM per process >       2.35 GB

     Initial potential from superposition of free atoms

     starting charge     103.9962, renormalised to     104.0000

     negative rho (up, down):  5.054E-06 0.000E+00


     %%%%%%%%%%%%%%%%%%%%%%%%%%%%%%%%%%%%%%%%%%%%%%%%%%%%%%%%%%%%%%%%%%%%%%%%
     %                                                                      %
     % You are using vdW-DF, which was implemented by the Thonhauser group. %
     % Please cite the following two papers that made this development      %
     % possible and the two reviews that describe the various versions:     %
     %                                                                      %
     %   T. Thonhauser et al., PRL 115, 136402 (2015).                      %
     %   T. Thonhauser et al., PRB 76, 125112 (2007).                       %
     %   K. Berland et al., Rep. Prog. Phys. 78, 066501 (2015).             %
     %   D.C. Langreth et al., J. Phys.: Condens. Matter 21, 084203 (2009). %
     %                                                                      %
     % If you are calculating stress with vdW-DF, please also cite:         %
     %                                                                      %
     %   R. Sabatini et al., J. Phys.: Condens. Matter 24, 424209 (2012).   %
     %                                                                      %
     %%%%%%%%%%%%%%%%%%%%%%%%%%%%%%%%%%%%%%%%%%%%%%%%%%%%%%%%%%%%%%%%%%%%%%%%

     %%%%%%%%%%%%%%%%%%%%%%%%%%%%%%%%%%%%%%%%%%%%%%%%%%%%%%%%%%%%%%%%%%%%%%%%
     %                                                                      %
     %  vdW-DF NEWS:                                                        %
     %                                                                      %
     %  * vdW-DF3 is now available. DOI: 10.1021/acs.jctc.0c00471           %
     %    use with input_dft = 'vdW-DF3-opt1' or 'vdW-DF3-opt2'             %
     %                                                                      %
     %  * Unscreened and range-separated hybrid vdW-DF-cx functionals       %
     %    DOI: 10.1063/1.4986522 and 10.1088/1361-648X/ac2ad2               %
     %    use with input_dft = 'vdW-DF-cx0'    and 'vdW-DF-ahcx'            %
     %  * Unscreened and range-separated hybrid vdW-DF2-b86r functionals    %
     %    DOI: 10.1063/1.4986522 and DOI: 10.1103/PhysRevX.12.041003        %
     %    use with input_dft = 'vdW-DF2-br0' and 'vdW-DF2-ahbr'             %
     %                                                                      %
     %%%%%%%%%%%%%%%%%%%%%%%%%%%%%%%%%%%%%%%%%%%%%%%%%%%%%%%%%%%%%%%%%%%%%%%%


     Starting wfcs are   72 randomized atomic wfcs
     Checking if some PAW data can be deallocated... 

     total cpu time spent up to now is       90.5 secs

     Self-consistent Calculation

     iteration #  1     ecut=    80.00 Ry     beta= 0.20
     Davidson diagonalization with overlap
     ethr =  1.00E-02,  avg # of iterations =  3.1

     Threshold (ethr) on eigenvalues was too large:
     Diagonalizing with lowered threshold

     Davidson diagonalization with overlap
     ethr =  5.09E-04,  avg # of iterations =  3.8

     total cpu time spent up to now is      345.0 secs

     total energy              =   -1978.05685536 Ry
     estimated scf accuracy    <       0.53720717 Ry

     iteration #  2     ecut=    80.00 Ry     beta= 0.20
     Davidson diagonalization with overlap
     ethr =  5.17E-04,  avg # of iterations =  1.0

     total cpu time spent up to now is      443.5 secs

     total energy              =   -1977.88804722 Ry
     estimated scf accuracy    <       0.42209833 Ry

     iteration #  3     ecut=    80.00 Ry     beta= 0.20
     Davidson diagonalization with overlap
     ethr =  4.06E-04,  avg # of iterations =  3.5

     total cpu time spent up to now is      572.2 secs

     total energy              =   -1977.96332748 Ry
     estimated scf accuracy    <       0.03616934 Ry

     iteration #  4     ecut=    80.00 Ry     beta= 0.20
     Davidson diagonalization with overlap
     ethr =  3.48E-05,  avg # of iterations =  7.8

     total cpu time spent up to now is      696.1 secs

     total energy              =   -1977.96395145 Ry
     estimated scf accuracy    <       0.02085935 Ry

     iteration #  5     ecut=    80.00 Ry     beta= 0.20
     Davidson diagonalization with overlap
     ethr =  2.01E-05,  avg # of iterations =  3.2

     total cpu time spent up to now is      815.9 secs

     total energy              =   -1977.96152911 Ry
     estimated scf accuracy    <       0.01803914 Ry

     iteration #  6     ecut=    80.00 Ry     beta= 0.20
     Davidson diagonalization with overlap
     ethr =  1.73E-05,  avg # of iterations =  2.0

     total cpu time spent up to now is      936.4 secs

     total energy              =   -1977.96275048 Ry
     estimated scf accuracy    <       0.00506558 Ry

     iteration #  7     ecut=    80.00 Ry     beta= 0.20
     Davidson diagonalization with overlap
     ethr =  4.87E-06,  avg # of iterations =  5.8

     total cpu time spent up to now is     1049.8 secs

     total energy              =   -1977.96248208 Ry
     estimated scf accuracy    <       0.00386737 Ry

     iteration #  8     ecut=    80.00 Ry     beta= 0.20
     Davidson diagonalization with overlap
     ethr =  3.72E-06,  avg # of iterations =  1.9

     total cpu time spent up to now is     1157.0 secs

     total energy              =   -1977.96229759 Ry
     estimated scf accuracy    <       0.00249114 Ry

     iteration #  9     ecut=    80.00 Ry     beta= 0.20
     Davidson diagonalization with overlap
     c_bands:  1 eigenvalues not converged
     c_bands:  1 eigenvalues not converged
     c_bands:  1 eigenvalues not converged
     ethr =  2.40E-06,  avg # of iterations =  9.6

     total cpu time spent up to now is     1310.5 secs

     total energy              =   -1977.96169124 Ry
     estimated scf accuracy    <       0.00834404 Ry

     iteration # 10     ecut=    80.00 Ry     beta= 0.20
     Davidson diagonalization with overlap
     ethr =  2.40E-06,  avg # of iterations =  3.9

     total cpu time spent up to now is     1431.1 secs

     total energy              =   -1977.96212160 Ry
     estimated scf accuracy    <       0.00106512 Ry

     iteration # 11     ecut=    80.00 Ry     beta= 0.20
     Davidson diagonalization with overlap
     ethr =  1.02E-06,  avg # of iterations =  4.3

     negative rho (up, down):  4.560E-05 0.000E+00

     total cpu time spent up to now is     1557.8 secs

     total energy              =   -1977.96233208 Ry
     estimated scf accuracy    <       0.00066841 Ry

     iteration # 12     ecut=    80.00 Ry     beta= 0.20
     Davidson diagonalization with overlap
     ethr =  6.43E-07,  avg # of iterations =  3.7

     negative rho (up, down):  6.958E-06 0.000E+00

     total cpu time spent up to now is     1677.0 secs

     total energy              =   -1977.96242835 Ry
     estimated scf accuracy    <       0.00105309 Ry

     iteration # 13     ecut=    80.00 Ry     beta= 0.20
     Davidson diagonalization with overlap
     ethr =  6.43E-07,  avg # of iterations =  1.0

     negative rho (up, down):  1.047E-04 0.000E+00

     total cpu time spent up to now is     1777.6 secs

     total energy              =   -1977.96250955 Ry
     estimated scf accuracy    <       0.00092644 Ry

     iteration # 14     ecut=    80.00 Ry     beta= 0.20
     Davidson diagonalization with overlap
     ethr =  6.43E-07,  avg # of iterations =  2.8

     negative rho (up, down):  1.159E-03 0.000E+00

     total cpu time spent up to now is     1888.8 secs

     total energy              =   -1977.96218279 Ry
     estimated scf accuracy    <       0.00151278 Ry

     iteration # 15     ecut=    80.00 Ry     beta= 0.20
     Davidson diagonalization with overlap
     ethr =  6.43E-07,  avg # of iterations =  2.8

     negative rho (up, down):  1.246E-03 0.000E+00

     total cpu time spent up to now is     2006.5 secs

     total energy              =   -1977.96228342 Ry
     estimated scf accuracy    <       0.00054730 Ry

     iteration # 16     ecut=    80.00 Ry     beta= 0.20
     Davidson diagonalization with overlap
     ethr =  5.26E-07,  avg # of iterations =  1.0

     negative rho (up, down):  8.840E-04 0.000E+00

     total cpu time spent up to now is     2107.5 secs

     total energy              =   -1977.96220872 Ry
     estimated scf accuracy    <       0.00061038 Ry

     iteration # 17     ecut=    80.00 Ry     beta= 0.20
     Davidson diagonalization with overlap
     ethr =  5.26E-07,  avg # of iterations =  2.4

     negative rho (up, down):  4.937E-04 0.000E+00

     total cpu time spent up to now is     2221.3 secs

     total energy              =   -1977.96222978 Ry
     estimated scf accuracy    <       0.00027031 Ry

     iteration # 18     ecut=    80.00 Ry     beta= 0.20
     Davidson diagonalization with overlap
     ethr =  2.60E-07,  avg # of iterations =  1.3

     negative rho (up, down):  1.287E-03 0.000E+00

     total cpu time spent up to now is     2322.1 secs

     total energy              =   -1977.96226213 Ry
     estimated scf accuracy    <       0.00024778 Ry

     iteration # 19     ecut=    80.00 Ry     beta= 0.20
     Davidson diagonalization with overlap
     ethr =  2.38E-07,  avg # of iterations =  2.1

     negative rho (up, down):  2.024E-04 0.000E+00

     total cpu time spent up to now is     2433.1 secs

     total energy              =   -1977.96226462 Ry
     estimated scf accuracy    <       0.00042741 Ry

     iteration # 20     ecut=    80.00 Ry     beta= 0.20
     Davidson diagonalization with overlap
     ethr =  2.38E-07,  avg # of iterations =  1.4

     negative rho (up, down):  1.572E-04 0.000E+00

     total cpu time spent up to now is     2535.4 secs

     total energy              =   -1977.96225148 Ry
     estimated scf accuracy    <       0.00035829 Ry

     iteration # 21     ecut=    80.00 Ry     beta= 0.20
     Davidson diagonalization with overlap
     ethr =  2.38E-07,  avg # of iterations =  1.3

     negative rho (up, down):  3.206E-04 0.000E+00

     total cpu time spent up to now is     2636.2 secs

     total energy              =   -1977.96231174 Ry
     estimated scf accuracy    <       0.00042187 Ry

     iteration # 22     ecut=    80.00 Ry     beta= 0.20
     Davidson diagonalization with overlap
     ethr =  2.38E-07,  avg # of iterations =  2.7

     negative rho (up, down):  3.435E-04 0.000E+00

     total cpu time spent up to now is     2749.6 secs

     total energy              =   -1977.96230523 Ry
     estimated scf accuracy    <       0.00082275 Ry

     iteration # 23     ecut=    80.00 Ry     beta= 0.20
     Davidson diagonalization with overlap
     ethr =  2.38E-07,  avg # of iterations =  1.0

     negative rho (up, down):  1.296E-04 0.000E+00

     total cpu time spent up to now is     2847.7 secs

     total energy              =   -1977.96229547 Ry
     estimated scf accuracy    <       0.00064578 Ry

     iteration # 24     ecut=    80.00 Ry     beta= 0.20
     Davidson diagonalization with overlap
     ethr =  2.38E-07,  avg # of iterations =  1.2

     negative rho (up, down):  2.848E-04 0.000E+00

     total cpu time spent up to now is     2947.6 secs

     total energy              =   -1977.96236044 Ry
     estimated scf accuracy    <       0.00078983 Ry

     iteration # 25     ecut=    80.00 Ry     beta= 0.20
     Davidson diagonalization with overlap
     ethr =  2.38E-07,  avg # of iterations =  1.9

     negative rho (up, down):  5.251E-04 0.000E+00

     total cpu time spent up to now is     3055.1 secs

     total energy              =   -1977.96220140 Ry
     estimated scf accuracy    <       0.00124453 Ry

     iteration # 26     ecut=    80.00 Ry     beta= 0.20
     Davidson diagonalization with overlap
     ethr =  2.38E-07,  avg # of iterations =  3.3

     negative rho (up, down):  5.308E-04 0.000E+00

     total cpu time spent up to now is     3172.8 secs

     total energy              =   -1977.96221522 Ry
     estimated scf accuracy    <       0.00046276 Ry

     iteration # 27     ecut=    80.00 Ry     beta= 0.20
     Davidson diagonalization with overlap
     ethr =  2.38E-07,  avg # of iterations =  3.1

     negative rho (up, down):  1.862E-04 0.000E+00

     total cpu time spent up to now is     3287.9 secs

     total energy              =   -1977.96228496 Ry
     estimated scf accuracy    <       0.00025135 Ry

     iteration # 28     ecut=    80.00 Ry     beta= 0.20
     Davidson diagonalization with overlap
     ethr =  2.38E-07,  avg # of iterations =  3.5

     negative rho (up, down):  1.029E-04 0.000E+00

     total cpu time spent up to now is     3413.3 secs

     total energy              =   -1977.96232868 Ry
     estimated scf accuracy    <       0.00119596 Ry

     iteration # 29     ecut=    80.00 Ry     beta= 0.20
     Davidson diagonalization with overlap
     ethr =  2.38E-07,  avg # of iterations =  1.0

     negative rho (up, down):  4.131E-04 0.000E+00

     total cpu time spent up to now is     3511.7 secs

     total energy              =   -1977.96215295 Ry
     estimated scf accuracy    <       0.00105832 Ry

     iteration # 30     ecut=    80.00 Ry     beta= 0.20
     Davidson diagonalization with overlap
     ethr =  2.38E-07,  avg # of iterations =  2.6

     negative rho (up, down):  4.334E-04 0.000E+00

     total cpu time spent up to now is     3637.1 secs

     total energy              =   -1977.96222460 Ry
     estimated scf accuracy    <       0.00027074 Ry

     iteration # 31     ecut=    80.00 Ry     beta= 0.20
     Davidson diagonalization with overlap
     ethr =  2.38E-07,  avg # of iterations =  1.8

     negative rho (up, down):  3.960E-04 0.000E+00

     total cpu time spent up to now is     3743.5 secs

     total energy              =   -1977.96223526 Ry
     estimated scf accuracy    <       0.00023326 Ry

     iteration # 32     ecut=    80.00 Ry     beta= 0.20
     Davidson diagonalization with overlap
     ethr =  2.24E-07,  avg # of iterations =  1.0

     negative rho (up, down):  3.538E-04 0.000E+00

     total cpu time spent up to now is     3844.0 secs

     total energy              =   -1977.96224063 Ry
     estimated scf accuracy    <       0.00023218 Ry

     iteration # 33     ecut=    80.00 Ry     beta= 0.20
     Davidson diagonalization with overlap
     ethr =  2.23E-07,  avg # of iterations =  1.0

     negative rho (up, down):  3.043E-04 0.000E+00

     total cpu time spent up to now is     3945.3 secs

     total energy              =   -1977.96224708 Ry
     estimated scf accuracy    <       0.00023214 Ry

     iteration # 34     ecut=    80.00 Ry     beta= 0.20
     Davidson diagonalization with overlap
     ethr =  2.23E-07,  avg # of iterations =  2.0

     negative rho (up, down):  3.269E-04 0.000E+00

     total cpu time spent up to now is     4058.4 secs

     total energy              =   -1977.96223423 Ry
     estimated scf accuracy    <       0.00035007 Ry

     iteration # 35     ecut=    80.00 Ry     beta= 0.20
     Davidson diagonalization with overlap
     ethr =  2.23E-07,  avg # of iterations =  1.0

     negative rho (up, down):  4.679E-04 0.000E+00

     total cpu time spent up to now is     4156.9 secs

     total energy              =   -1977.96222218 Ry
     estimated scf accuracy    <       0.00027212 Ry

     iteration # 36     ecut=    80.00 Ry     beta= 0.20
     Davidson diagonalization with overlap
     ethr =  2.23E-07,  avg # of iterations =  1.9

     negative rho (up, down):  4.100E-04 0.000E+00

     total cpu time spent up to now is     4264.0 secs

     total energy              =   -1977.96219693 Ry
     estimated scf accuracy    <       0.00022714 Ry

     iteration # 37     ecut=    80.00 Ry     beta= 0.20
     Davidson diagonalization with overlap
     ethr =  2.18E-07,  avg # of iterations =  1.6

     negative rho (up, down):  3.304E-04 0.000E+00

     total cpu time spent up to now is     4368.1 secs

     total energy              =   -1977.96221998 Ry
     estimated scf accuracy    <       0.00025127 Ry

     iteration # 38     ecut=    80.00 Ry     beta= 0.20
     Davidson diagonalization with overlap
     ethr =  2.18E-07,  avg # of iterations =  1.0

     negative rho (up, down):  6.610E-04 0.000E+00

     total cpu time spent up to now is     4472.0 secs

     total energy              =   -1977.96220269 Ry
     estimated scf accuracy    <       0.00031143 Ry

     iteration # 39     ecut=    80.00 Ry     beta= 0.20
     Davidson diagonalization with overlap
     ethr =  2.18E-07,  avg # of iterations =  2.6

     negative rho (up, down):  8.191E-04 0.000E+00

     total cpu time spent up to now is     4589.0 secs

     total energy              =   -1977.96220804 Ry
     estimated scf accuracy    <       0.00034577 Ry

     iteration # 40     ecut=    80.00 Ry     beta= 0.20
     Davidson diagonalization with overlap
     ethr =  2.18E-07,  avg # of iterations =  1.1

     negative rho (up, down):  3.710E-04 0.000E+00

     total cpu time spent up to now is     4690.0 secs

     total energy              =   -1977.96220928 Ry
     estimated scf accuracy    <       0.00027176 Ry

     iteration # 41     ecut=    80.00 Ry     beta= 0.20
     Davidson diagonalization with overlap
     ethr =  2.18E-07,  avg # of iterations =  1.2

     negative rho (up, down):  3.859E-04 0.000E+00

     total cpu time spent up to now is     4793.7 secs

     total energy              =   -1977.96218089 Ry
     estimated scf accuracy    <       0.00028939 Ry

     iteration # 42     ecut=    80.00 Ry     beta= 0.20
     Davidson diagonalization with overlap
     ethr =  2.18E-07,  avg # of iterations =  2.2

     negative rho (up, down):  3.927E-04 0.000E+00

     total cpu time spent up to now is     4907.8 secs

     total energy              =   -1977.96218335 Ry
     estimated scf accuracy    <       0.00013607 Ry

     iteration # 43     ecut=    80.00 Ry     beta= 0.20
     Davidson diagonalization with overlap
     c_bands:  1 eigenvalues not converged
     ethr =  1.31E-07,  avg # of iterations =  7.3

     negative rho (up, down):  7.213E-05 0.000E+00

     total cpu time spent up to now is     5050.7 secs

     total energy              =   -1977.96209758 Ry
     estimated scf accuracy    <       0.00035846 Ry

     iteration # 44     ecut=    80.00 Ry     beta= 0.20
     Davidson diagonalization with overlap
     ethr =  1.31E-07,  avg # of iterations =  4.4

     negative rho (up, down):  4.670E-05 0.000E+00

     total cpu time spent up to now is     5191.3 secs

     total energy              =   -1977.96217673 Ry
     estimated scf accuracy    <       0.00007511 Ry

     iteration # 45     ecut=    80.00 Ry     beta= 0.20
     Davidson diagonalization with overlap
     ethr =  7.22E-08,  avg # of iterations =  2.2

     negative rho (up, down):  1.623E-05 0.000E+00

     total cpu time spent up to now is     5299.9 secs

     total energy              =   -1977.96218292 Ry
     estimated scf accuracy    <       0.00001074 Ry

     iteration # 46     ecut=    80.00 Ry     beta= 0.20
     Davidson diagonalization with overlap
     ethr =  1.03E-08,  avg # of iterations =  4.7

     negative rho (up, down):  2.427E-05 0.000E+00

     total cpu time spent up to now is     5421.5 secs

     total energy              =   -1977.96218297 Ry
     estimated scf accuracy    <       0.00000463 Ry

     iteration # 47     ecut=    80.00 Ry     beta= 0.20
     Davidson diagonalization with overlap
     ethr =  4.45E-09,  avg # of iterations =  2.2

     negative rho (up, down):  6.209E-06 0.000E+00

     total cpu time spent up to now is     5539.8 secs

     total energy              =   -1977.96218577 Ry
     estimated scf accuracy    <       0.00001986 Ry

     iteration # 48     ecut=    80.00 Ry     beta= 0.20
     Davidson diagonalization with overlap
     ethr =  4.45E-09,  avg # of iterations =  1.8

     negative rho (up, down):  6.922E-06 0.000E+00

     total cpu time spent up to now is     5647.6 secs

     total energy              =   -1977.96218550 Ry
     estimated scf accuracy    <       0.00000612 Ry

     iteration # 49     ecut=    80.00 Ry     beta= 0.20
     Davidson diagonalization with overlap
     ethr =  4.45E-09,  avg # of iterations =  1.1

     negative rho (up, down):  7.987E-06 0.000E+00

     total cpu time spent up to now is     5749.5 secs

     total energy              =   -1977.96218551 Ry
     estimated scf accuracy    <       0.00000037 Ry

     iteration # 50     ecut=    80.00 Ry     beta= 0.20
     Davidson diagonalization with overlap
     ethr =  3.53E-10,  avg # of iterations =  2.8

     negative rho (up, down):  6.908E-06 0.000E+00

     total cpu time spent up to now is     5865.2 secs

     total energy              =   -1977.96218561 Ry
     estimated scf accuracy    <       0.00000011 Ry

     iteration # 51     ecut=    80.00 Ry     beta= 0.20
     Davidson diagonalization with overlap
     ethr =  1.02E-10,  avg # of iterations =  3.9

     negative rho (up, down):  5.741E-06 0.000E+00

     total cpu time spent up to now is     5989.0 secs

     total energy              =   -1977.96218586 Ry
     estimated scf accuracy    <       0.00000005 Ry

     iteration # 52     ecut=    80.00 Ry     beta= 0.20
     Davidson diagonalization with overlap
     ethr =  4.76E-11,  avg # of iterations =  4.1

     negative rho (up, down):  5.142E-06 0.000E+00

     total cpu time spent up to now is     6116.2 secs

     total energy              =   -1977.96218598 Ry
     estimated scf accuracy    <       0.00000002 Ry

     iteration # 53     ecut=    80.00 Ry     beta= 0.20
     Davidson diagonalization with overlap
     ethr =  1.99E-11,  avg # of iterations =  2.0

     negative rho (up, down):  5.403E-06 0.000E+00

     total cpu time spent up to now is     6230.0 secs

     total energy              =   -1977.96218592 Ry
     estimated scf accuracy    <       0.00000001 Ry

     iteration # 54     ecut=    80.00 Ry     beta= 0.20
     Davidson diagonalization with overlap
     ethr =  9.95E-12,  avg # of iterations =  2.9

     negative rho (up, down):  5.268E-06 0.000E+00

     total cpu time spent up to now is     6349.9 secs

     End of self-consistent calculation

          k = 0.0000 0.0000 0.0000 ( 21311 PWs)   bands (ev):

   -53.5467 -53.2984 -52.9430 -52.9291 -27.7191 -27.4833 -27.4833 -27.4740
   -27.2346 -27.2346 -27.2332 -27.2189 -26.8986 -26.8986 -26.8847 -26.8847
   -12.0057  -6.8403  -6.6043  -6.3869  -5.9404  -5.5732  -5.2814  -4.7422
    -0.9113   1.4566   1.9451   2.8526   3.1073   3.1073   3.8039   4.7352
     4.7352   4.9748   4.9748   4.9838   4.9838   5.0108   5.5598   5.5598
     5.8515   5.8515   5.9088   6.0885   6.0886   6.1428   6.1428   6.8145
     6.8219   7.4438   7.9278   8.0143   8.0143  10.0953  10.0953  10.2766
    10.2766  10.3410  10.3410  10.3741  10.3741  10.4604

          k = 0.0000 0.0722 0.0000 ( 21283 PWs)   bands (ev):

   -53.5451 -53.2968 -52.9414 -52.9275 -27.7161 -27.4988 -27.4868 -27.4710
   -27.2502 -27.2382 -27.2299 -27.2157 -26.9149 -26.9023 -26.9009 -26.8883
   -11.9716  -6.7808  -6.5451  -6.3269  -5.8945  -5.5466  -5.2566  -4.7236
    -0.8822   1.5249   2.0108   2.8331   2.9052   3.0700   3.8146   4.6002
     4.7975   4.8322   4.8438   4.8679   5.0369   5.0470   5.4325   5.5105
     5.5547   5.7547   5.9611   5.9916   6.0373   6.0475   6.2893   6.8635
     6.8979   7.4399   7.8570   8.0359   8.0649  10.0128  10.1401  10.1939
    10.2047  10.2306  10.2550  10.3488  10.3764  10.3995

          k = 0.0000 0.1443 0.0000 ( 21263 PWs)   bands (ev):

   -53.5407 -53.2924 -52.9368 -52.9229 -27.7075 -27.5429 -27.4969 -27.4623
   -27.2942 -27.2482 -27.2206 -27.2064 -26.9610 -26.9470 -26.9127 -26.8988
   -11.8726  -6.6074  -6.3724  -6.1525  -5.7614  -5.4692  -5.1846  -4.6697
    -0.8047   1.7142   2.1687   2.2065   2.9583   3.0361   3.7863   4.2522
     4.4692   4.4976   4.5478   4.9772   5.0439   5.1425   5.2155   5.2265
     5.5045   5.5560   5.6005   5.7411   5.8043   6.1147   6.4448   6.8867
     6.9741   7.3338   7.6184   8.0924   8.1934   9.7725   9.8794   9.9190
    10.0387  10.0521  10.1716  10.2196  10.2818  10.4896

          k = 0.0000 0.2165 0.0000 ( 21233 PWs)   bands (ev):

   -53.5340 -53.2857 -52.9300 -52.9160 -27.6945 -27.6082 -27.5118 -27.4493
   -27.3596 -27.2632 -27.2066 -27.1926 -27.0293 -27.0153 -26.9283 -26.9143
   -11.7189  -6.3352  -6.1018  -5.8808  -5.5547  -5.3478  -5.0718  -4.5859
    -0.7067   1.3858   1.9688   2.4161   2.7828   3.1340   3.6702   3.8280
     4.0198   4.0916   4.1890   4.5436   4.8449   5.1800   5.1927   5.2506
     5.3956   5.4167   5.4893   5.5808   5.5974   6.0373   6.4082   6.7758
     6.8755   7.0411   7.2271   8.1934   8.3391   9.4298   9.6723   9.7744
     9.8339   9.9047  10.0735  10.1333  10.3210  10.4463

          k = 0.0000 0.2887 0.0000 ( 21197 PWs)   bands (ev):

   -53.5262 -53.2779 -52.9219 -52.9079 -27.6845 -27.6791 -27.5294 -27.4360
   -27.4340 -27.2808 -27.1901 -27.1762 -27.1089 -27.0950 -26.9465 -26.9326
   -11.5278  -5.9902  -5.7596  -5.5411  -5.2982  -5.1940  -4.9300  -4.4814
    -0.6301   0.5926   2.1523   2.5158   2.5738   2.9860   3.4122   3.5082
     3.5900   3.7639   3.9119   4.0713   4.6533   4.8519   4.8529   5.0862
     5.1243   5.5795   5.6055   5.8166   5.8246   5.8903   6.2071   6.5101
     6.6089   6.7101   6.8228   8.3855   8.5197   9.2942   9.4505   9.6434
     9.7637   9.8856  10.0580  10.2750  10.2758  10.5293

          k = 0.0000 0.3608 0.0000 ( 21187 PWs)   bands (ev):

   -53.5183 -53.2700 -52.9138 -52.8998 -27.7598 -27.6638 -27.5470 -27.5114
   -27.4186 -27.2984 -27.1883 -27.1745 -27.1727 -27.1591 -26.9647 -26.9508
   -11.3244  -5.6115  -5.3853  -5.1768  -5.0469  -5.0030  -4.7766  -4.3687
    -0.6522  -0.0506   2.0795   2.3376   2.3693   2.6360   3.1028   3.1671
     3.3600   3.4723   3.6679   3.7532   4.5172   4.5643   4.6817   4.7984
     4.8416   5.5851   5.6060   5.9045   5.9558   6.1402   6.2438   6.2912
     6.3867   6.4988   6.5877   8.6990   8.7868   9.3390   9.4609   9.5324
     9.7740   9.8665  10.1410  10.3011  10.5692  10.7508

          k = 0.0000 0.4330 0.0000 ( 21140 PWs)   bands (ev):

   -53.5117 -53.2633 -52.9069 -52.8929 -27.8230 -27.6507 -27.5746 -27.5618
   -27.4055 -27.3132 -27.2537 -27.2398 -27.1593 -27.1455 -26.9801 -26.9662
   -11.1404  -5.2545  -5.0358  -4.8926  -4.8361  -4.7601  -4.6341  -4.2630
    -0.9316  -0.3223   1.8126   2.0352   2.2020   2.2922   2.7656   2.8639
     3.0273   3.3364   3.3693   3.6126   4.3350   4.3440   4.5467   4.5779
     4.6227   5.4041   5.5811   5.7599   6.1669   6.3141   6.3674   6.4029
     6.4553   6.5478   6.6252   9.0959   9.1370   9.5159   9.5715   9.6794
     9.7570  10.0348  10.0811  10.5113  10.7786  10.8512

          k = 0.0000 0.5052 0.0000 ( 21078 PWs)   bands (ev):

   -53.5072 -53.2589 -52.9022 -52.8883 -27.8649 -27.6419 -27.6166 -27.5717
   -27.3967 -27.3231 -27.2974 -27.2835 -27.1499 -27.1361 -26.9904 -26.9764
   -11.0105  -4.9905  -4.8085  -4.7479  -4.6148  -4.5795  -4.5261  -4.1815
    -1.2465  -0.3775   1.5687   1.7842   2.0522   2.0936   2.5136   2.6706
     2.7556   3.1121   3.2389   3.4977   4.1588   4.2066   4.4009   4.4403
     4.4858   5.3047   5.5524   5.6485   6.3283   6.4386   6.4898   6.5413
     6.5660   6.7474   6.7978   9.4646   9.5065   9.5563   9.7987   9.9224
     9.9686  10.0805  10.2147  10.6404  10.7158  11.0195

          k = 0.0000-0.5774 0.0000 ( 21006 PWs)   bands (ev):

   -53.5056 -53.2573 -52.9006 -52.8867 -27.8796 -27.6389 -27.6312 -27.5751
   -27.3937 -27.3265 -27.3127 -27.2987 -27.1466 -27.1328 -26.9940 -26.9800
   -10.9634  -4.8915  -4.7578  -4.6616  -4.5471  -4.5076  -4.4815  -4.1485
    -1.3647  -0.3906   1.4733   1.6877   1.9658   2.0562   2.4225   2.6042
     2.6560   3.0199   3.1901   3.4465   4.0879   4.1599   4.3376   4.3936
     4.4393   5.2744   5.5403   5.6125   6.3811   6.4942   6.5294   6.6198
     6.6377   6.8158   6.8837   9.5824   9.6286   9.6914   9.8259  10.0476
    10.0900  10.1845  10.3114  10.6703  10.6963  11.0675

          k = 0.0625 0.1083 0.0000 ( 21269 PWs)   bands (ev):

   -53.5421 -53.2938 -52.9383 -52.9244 -27.7103 -27.5282 -27.4941 -27.4651
   -27.2795 -27.2454 -27.2236 -27.2094 -26.9456 -26.9316 -26.9098 -26.8959
   -11.9050  -6.6643  -6.4291  -6.2096  -5.8050  -5.4946  -5.2082  -4.6873
    -0.8288   1.6542   2.1336   2.3918   2.9793   2.9984   3.8053   4.3609
     4.5840   4.6048   4.6465   4.9166   5.1552   5.1662   5.1912   5.2281
     5.5400   5.5517   5.7223   5.7768   5.8547   6.1448   6.4454   6.8939
     6.9740   7.3874   7.7015   8.0555   8.1755   9.8752   9.8972   9.9867
    10.1048  10.1180  10.1611  10.2248  10.3421  10.4696

          k = 0.0625 0.1804 0.0000 ( 21194 PWs)   bands (ev):

   -53.5366 -53.2883 -52.9326 -52.9187 -27.6995 -27.5816 -27.5078 -27.4543
   -27.3331 -27.2591 -27.2119 -27.1979 -27.0015 -26.9876 -26.9241 -26.9101
   -11.7786  -6.4414  -6.2073  -5.9864  -5.6349  -5.3950  -5.1156  -4.6182
    -0.7404   1.7024   1.8810   2.3430   2.8007   3.1250   3.7426   3.9808
     4.1964   4.2365   4.3317   4.7689   4.9344   5.1334   5.1749   5.3035
     5.3717   5.3969   5.4170   5.5678   5.5950   6.2020   6.5231   6.8460
     6.9610   7.1883   7.3848   8.0874   8.3596   9.5268   9.7326   9.8017
     9.8360   9.9102  10.0584  10.1584  10.1963  10.4634

          k = 0.0625 0.2526 0.0000 ( 21202 PWs)   bands (ev):

   -53.5293 -53.2810 -52.9251 -52.9112 -27.6853 -27.6508 -27.5257 -27.4401
   -27.4023 -27.2771 -27.1967 -27.1827 -27.0738 -27.0598 -26.9427 -26.9287
   -11.6059  -6.1322  -5.9002  -5.6801  -5.4025  -5.2570  -4.9876  -4.5234
    -0.6507   0.9380   2.1143   2.5176   2.5783   3.1095   3.5520   3.6271
     3.7843   3.8994   4.0355   4.2960   4.7005   4.8029   4.8624   5.0410
     5.3119   5.4035   5.5898   5.6426   5.7153   6.0981   6.4214   6.6478
     6.7606   6.8685   6.9883   8.1779   8.5757   9.2771   9.4995   9.6833
     9.7556   9.8853   9.9251  10.1572  10.2840  10.3347

          k = 0.0625 0.3248 0.0000 ( 21194 PWs)   bands (ev):

   -53.5215 -53.2732 -52.9170 -52.9031 -27.7248 -27.6699 -27.5451 -27.4763
   -27.4248 -27.2964 -27.1804 -27.1665 -27.1508 -27.1369 -26.9628 -26.9488
   -11.4078  -5.7688  -5.5404  -5.3263  -5.1404  -5.0901  -4.8386  -4.4135
    -0.6107   0.2319   2.1771   2.3304   2.4789   2.8315   3.2677   3.3589
     3.4536   3.6323   3.7793   3.8948   4.5045   4.5241   4.5665   4.7668
     5.1230   5.5884   5.6432   5.8433   5.9051   5.9851   6.1926   6.4131
     6.4854   6.6291   6.6964   8.3881   8.8501   9.2215   9.3407   9.5942
     9.7370   9.9000  10.1173  10.1889  10.3220  10.5740

          k = 0.0625 0.3969 0.0000 ( 21151 PWs)   bands (ev):

   -53.5142 -53.2659 -52.9095 -52.8955 -27.7924 -27.6557 -27.5629 -27.5440
   -27.4105 -27.3143 -27.2219 -27.2079 -27.1646 -27.1508 -26.9813 -26.9673
   -11.2128  -5.3977  -5.1751  -4.9814  -4.9386  -4.8570  -4.6884  -4.3023
    -0.7479  -0.2223   1.9847   2.1131   2.2194   2.4819   2.9329   3.0074
     3.1958   3.4139   3.4979   3.6862   4.3064   4.3833   4.4271   4.5806
     4.9392   5.5323   5.6131   5.7861   5.9224   6.0292   6.1609   6.3634
     6.4302   6.6353   6.6829   8.7272   9.1861   9.3036   9.3810   9.6289
     9.7835   9.9917  10.1835  10.3515  10.6186  10.7989

          k = 0.0625 0.4691 0.0000 ( 21105 PWs)   bands (ev):

   -53.5086 -53.2603 -52.9037 -52.8898 -27.8437 -27.6448 -27.5953 -27.5765
   -27.3996 -27.3279 -27.2753 -27.2614 -27.1529 -27.1392 -26.9954 -26.9815
   -11.0542  -5.0823  -4.8752  -4.8053  -4.6869  -4.6400  -4.5604  -4.2058
    -1.0808  -0.3408   1.7229   1.9325   1.9544   2.1991   2.6000   2.7715
     2.8598   3.1653   3.3153   3.5733   4.1925   4.2581   4.2751   4.4504
     4.7589   5.4171   5.4597   5.7335   5.9243   6.1480   6.2443   6.4429
     6.6052   6.7967   6.8552   9.1402   9.5030   9.5260   9.5305   9.7444
     9.9022  10.1393  10.2544  10.5151  10.8332  10.9229

          k = 0.0625 0.5413 0.0000 ( 21084 PWs)   bands (ev):

   -53.5056 -53.2573 -52.9006 -52.8867 -27.8713 -27.6389 -27.6229 -27.5838
   -27.3937 -27.3352 -27.3041 -27.2901 -27.1466 -27.1328 -27.0030 -26.9891
   -10.9646  -4.8964  -4.7559  -4.6651  -4.5473  -4.5084  -4.4783  -4.1445
    -1.3003  -0.3685   1.5540   1.7666   1.8550   2.0423   2.4112   2.6221
     2.6975   2.9758   3.2248   3.4797   4.1295   4.1469   4.1918   4.3889
     4.6548   5.3143   5.4134   5.6346   6.0205   6.2474   6.2949   6.5454
     6.7628   6.9107   7.0118   9.5003   9.5858   9.7257   9.7728   9.8271
    10.0512  10.2402  10.3305  10.5774  10.8074  11.1219

          k = 0.1250 0.2165 0.0000 ( 21179 PWs)   bands (ev):

   -53.5304 -53.2821 -52.9263 -52.9123 -27.6875 -27.6368 -27.5266 -27.4423
   -27.3882 -27.2779 -27.1990 -27.1850 -27.0591 -27.0452 -26.9436 -26.9297
   -11.6329  -6.1810  -5.9486  -5.7280  -5.4385  -5.2784  -5.0073  -4.5376
    -0.6588   1.0976   2.0977   2.4897   2.5492   3.1593   3.6166   3.6806
     3.8731   3.9644   4.1161   4.4534   4.6626   4.7191   4.8479   4.9031
     5.3233   5.3847   5.5572   5.5873   5.6338   6.2763   6.5575   6.7066
     6.8399   6.9544   7.0640   8.0947   8.6251   9.2614   9.5052   9.6684
     9.7661   9.7754   9.8761  10.1447  10.1894  10.2611

          k = 0.1250 0.2887 0.0000 ( 21199 PWs)   bands (ev):

   -53.5232 -53.2749 -52.9188 -52.9048 -27.7001 -27.6733 -27.5499 -27.4516
   -27.4281 -27.3012 -27.1838 -27.1699 -27.1252 -27.1113 -26.9678 -26.9539
   -11.4523  -5.8517  -5.6223  -5.4059  -5.1965  -5.1282  -4.8705  -4.4359
    -0.5964   0.4728   2.1799   2.2390   2.5778   2.9834   3.3835   3.4770
     3.5992   3.7497   3.9073   4.0540   4.2752   4.3360   4.4847   4.6527
     5.3071   5.4305   5.5712   5.6667   5.7831   6.1877   6.4386   6.5107
     6.5873   6.7270   6.7965   8.2123   8.9234   9.1064   9.2975   9.5477
     9.7663   9.8653   9.9040  10.1548  10.1851  10.3381

          k = 0.1250 0.3608 0.0000 ( 21195 PWs)   bands (ev):

   -53.5159 -53.2676 -52.9113 -52.8973 -27.7623 -27.6591 -27.5735 -27.5139
   -27.4139 -27.3249 -27.1907 -27.1767 -27.1680 -27.1542 -26.9924 -26.9785
   -11.2609  -5.4918  -5.2672  -5.0636  -4.9818  -4.9186  -4.7215  -4.3245
    -0.6258  -0.0388   1.8669   2.1560   2.4107   2.6875   3.1108   3.1510
     3.3477   3.5210   3.5999   3.7511   4.0751   4.2092   4.3717   4.5724
     5.2155   5.3783   5.4806   5.6157   5.7945   5.9519   6.2074   6.3754
     6.4753   6.7063   6.7500   8.4773   9.0900   9.2003   9.2526   9.5820
     9.8274  10.0028  10.1438  10.2441  10.3112  10.5558

          k = 0.1250 0.4330 0.0000 ( 21113 PWs)   bands (ev):

   -53.5097 -53.2614 -52.9049 -52.8909 -27.8144 -27.6470 -27.5937 -27.5660
   -27.4018 -27.3451 -27.2448 -27.2308 -27.1553 -27.1415 -27.0134 -26.9995
   -11.0886  -5.1549  -4.9401  -4.8349  -4.7462  -4.6836  -4.5812  -4.2180
    -0.8627  -0.2599   1.6032   1.9472   2.1728   2.4209   2.6916   2.8710
     2.9630   3.1666   3.4501   3.6892   4.0434   4.1849   4.3099   4.4689
     5.0302   5.3120   5.3430   5.5646   5.6818   5.7979   5.9343   6.4186
     6.6127   6.8485   6.8912   8.8521   9.1288   9.3652   9.5252   9.7419
     9.9234  10.1348  10.3629  10.3800  10.5725  10.7829

          k = 0.1250 0.5052 0.0000 ( 21081 PWs)   bands (ev):

   -53.5056 -53.2573 -52.9006 -52.8867 -27.8489 -27.6389 -27.6072 -27.6006
   -27.3937 -27.3586 -27.2808 -27.2668 -27.1466 -27.1328 -27.0274 -27.0135
   -10.9674  -4.9079  -4.7521  -4.6729  -4.5481  -4.5101  -4.4705  -4.1347
    -1.1241  -0.3097   1.4263   1.7680   1.9849   2.2457   2.3863   2.6003
     2.7945   2.8689   3.3295   3.5768   4.0686   4.1340   4.2160   4.3993
     4.8907   5.1769   5.3722   5.4320   5.6328   5.7061   5.8333   6.5832
     6.8054   7.0227   7.0660   9.2533   9.3035   9.5306   9.6807   9.7944
    10.0839  10.2777  10.3506  10.5053  10.8369  11.0239

          k = 0.1250 0.5774 0.0000 ( 21108 PWs)   bands (ev):

   -53.5042 -53.2558 -52.8991 -52.8852 -27.8610 -27.6361 -27.6127 -27.6119
   -27.3909 -27.3633 -27.2934 -27.2794 -27.1435 -27.1298 -27.0324 -27.0184
   -10.9236  -4.8159  -4.7083  -4.5877  -4.4914  -4.4407  -4.4236  -4.1009
    -1.2236  -0.3212   1.3638   1.6993   1.9141   2.1855   2.2783   2.4950
     2.7466   2.7655   3.2681   3.5177   4.0668   4.1182   4.1654   4.3892
     4.8524   5.1283   5.3242   5.4171   5.6138   5.6666   5.8374   6.6663
     6.9025   7.0875   7.1608   9.4627   9.5090   9.5550   9.6575   9.7884
    10.1686  10.1980  10.4340  10.5513  10.9562  11.0835

          k = 0.1875 0.3248 0.0000 ( 21195 PWs)   bands (ev):

   -53.5165 -53.2682 -52.9119 -52.8979 -27.7487 -27.6602 -27.5803 -27.5003
   -27.4151 -27.3317 -27.1773 -27.1686 -27.1632 -27.1548 -26.9995 -26.9856
   -11.2777  -5.5245  -5.2993  -5.0934  -4.9960  -4.9393  -4.7326  -4.3315
    -0.5889   0.0720   1.7297   2.2291   2.4966   2.7831   3.1764   3.2607
     3.4151   3.5933   3.6442   3.7530   3.9309   4.1373   4.3088   4.5710
     5.2033   5.3407   5.4291   5.5092   5.6063   6.1004   6.3493   6.3597
     6.4839   6.7165   6.7873   8.3952   9.0173   9.1470   9.2517   9.5562
     9.8480   9.9855  10.0315  10.1962  10.2610  10.4203

          k = 0.1875 0.3969 0.0000 ( 21153 PWs)   bands (ev):

   -53.5103 -53.2620 -52.9055 -52.8916 -27.7906 -27.6482 -27.6111 -27.5422
   -27.4030 -27.3625 -27.2200 -27.2061 -27.1565 -27.1427 -27.0316 -27.0176
   -11.1074  -5.1947  -4.9775  -4.8486  -4.7787  -4.7064  -4.5907  -4.2223
    -0.7060  -0.1599   1.3080   2.1192   2.3550   2.6001   2.7665   2.9441
     3.0260   3.1466   3.5994   3.7662   3.9282   4.1683   4.3191   4.4887
     4.8933   5.0909   5.1924   5.3168   5.4636   5.8533   6.0796   6.3596
     6.5847   6.8264   6.9416   8.6992   8.9322   9.2469   9.4565   9.7489
     9.9341  10.1564  10.2629  10.3441  10.4289  10.5533

          k = 0.1875 0.4691 0.0000 ( 21101 PWs)   bands (ev):

   -53.5056 -53.2573 -52.9006 -52.8867 -27.8211 -27.6389 -27.6360 -27.5727
   -27.3937 -27.3875 -27.2518 -27.2378 -27.1466 -27.1329 -27.0575 -27.0436
   -10.9703  -4.9193  -4.7497  -4.6792  -4.5497  -4.5111  -4.4627  -4.1245
    -0.9038  -0.2326   0.9897   2.0171   2.2379   2.3668   2.4827   2.5821
     2.7600   2.8737   3.5121   3.7275   3.9960   4.1644   4.2716   4.4189
     4.7313   4.9288   4.9570   5.0977   5.4215   5.5611   5.7937   6.5508
     6.7825   7.0248   7.1528   8.9331   9.0386   9.4185   9.5468   9.7708
    10.1216  10.3077  10.3706  10.4658  10.5267  10.7343

          k = 0.1875 0.5413 0.0000 ( 21112 PWs)   bands (ev):

   -53.5031 -53.2547 -52.8980 -52.8840 -27.8371 -27.6500 -27.6339 -27.5887
   -27.4014 -27.3887 -27.2685 -27.2545 -27.1412 -27.1275 -27.0720 -27.0581
   -10.8934  -4.7596  -4.6689  -4.5320  -4.4492  -4.3895  -4.3760  -4.0618
    -1.0329  -0.2551   0.8209   1.9677   2.1438   2.1858   2.3624   2.4380
     2.5627   2.8171   3.3639   3.6068   4.0460   4.1435   4.1812   4.4055
     4.7015   4.8979   4.9259   4.9849   5.3431   5.3650   5.5923   6.7377
     6.9713   7.2122   7.2977   9.0988   9.3058   9.4195   9.5338   9.6676
    10.0220  10.3349  10.5240  10.5753  10.6572  10.8389

          k = 0.2500 0.4330 0.0000 ( 21125 PWs)   bands (ev):

   -53.5056 -53.2573 -52.9006 -52.8867 -27.8066 -27.6509 -27.6389 -27.5582
   -27.4024 -27.3937 -27.2367 -27.2228 -27.1466 -27.1329 -27.0731 -27.0591
   -10.9715  -4.9239  -4.7491  -4.6813  -4.5506  -4.5113  -4.4595  -4.1202
    -0.7920  -0.1833   0.7795   2.1336   2.3307   2.3903   2.5517   2.6210
     2.7131   2.9058   3.6924   3.7997   4.0113   4.1965   4.3017   4.3988
     4.4611   4.5957   4.7619   5.0814   5.3471   5.6130   5.8368   6.5153
     6.7652   7.0091   7.2054   8.7906   8.9608   9.3622   9.4837   9.7556
    10.1332  10.3134  10.3300  10.3904  10.5240  10.6105

          k = 0.2500 0.5052 0.0000 ( 21117 PWs)   bands (ev):

   -53.5025 -53.2541 -52.8974 -52.8834 -27.8113 -27.6835 -27.6327 -27.5629
   -27.4350 -27.3875 -27.2418 -27.2278 -27.1400 -27.1262 -27.1069 -27.0929
   -10.8774  -4.7312  -4.6461  -4.5035  -4.4258  -4.3621  -4.3486  -4.0385
    -0.8195  -0.1915   0.3932   2.0580   2.2213   2.2842   2.4013   2.4592
     2.7130   2.8728   3.5387   3.7443   4.0689   4.0905   4.1349   4.1864
     4.3595   4.4144   4.6640   4.9098   5.2404   5.3424   5.5769   6.7531
     7.0048   7.2485   7.4671   8.8030   9.1412   9.2985   9.4280   9.5700
     9.9385  10.3306  10.3715  10.5597  10.6641  10.7720

          k = 0.2500 0.5774 0.0000 ( 21116 PWs)   bands (ev):

   -53.5014 -53.2530 -52.8962 -52.8823 -27.8112 -27.6967 -27.6306 -27.5628
   -27.4482 -27.3854 -27.2417 -27.2277 -27.1377 -27.1239 -27.1206 -27.1067
   -10.8437  -4.6609  -4.6118  -4.4366  -4.3858  -4.3092  -4.3037  -4.0059
    -0.8133  -0.2036   0.2517   1.9556   2.1682   2.3014   2.3096   2.5183
     2.7832   2.8715   3.3774   3.6127   3.9581   4.0344   4.0673   4.1901
     4.3891   4.4114   4.7320   4.8619   5.1766   5.2162   5.4433   6.8724
     7.1334   7.3773   7.5706   8.9248   9.1981   9.2094   9.3967   9.4420
     9.6526  10.3442  10.4274  10.6159  10.7721  10.8780

          k = 0.3125 0.5413 0.0000 ( 21100 PWs)   bands (ev):

   -53.5008 -53.2524 -52.8956 -52.8816 -27.7901 -27.7252 -27.6294 -27.5417
   -27.4767 -27.3842 -27.2202 -27.2063 -27.1497 -27.1364 -27.1358 -27.1227
   -10.8263  -4.6265  -4.5910  -4.4041  -4.3624  -4.2825  -4.2760  -3.9850
    -0.6144  -0.1658  -0.0871   1.8861   2.1045   2.2206   2.5365   2.7559
     2.9031   3.0229   3.3374   3.5007   3.7712   3.8437   3.9452   3.9960
     4.3410   4.4072   4.6710   4.8815   5.1287   5.1668   5.3692   6.9305
     7.2126   7.4561   7.7208   8.8329   9.0829   9.1702   9.2995   9.3369
     9.4837  10.2567  10.3722  10.6555  10.8507  10.9590

     the Fermi energy is     8.9190 ev

!    total energy              =   -1977.96218593 Ry
     total all-electron energy =    -38771.283031 Ry
     estimated scf accuracy    <          7.9E-09 Ry
     smearing contrib. (-TS)   =       0.00124138 Ry
     internal energy E=F+TS    =   -1977.96342731 Ry

     The total energy is F=E-TS. E is the sum of the following terms:
     one-electron contribution =   -2678.70372327 Ry
     hartree contribution      =    1381.65069862 Ry
     xc contribution           =    -119.89998748 Ry
     ewald contribution        =     708.89027410 Ry
     one-center paw contrib.   =   -1269.90068928 Ry

     convergence has been achieved in  54 iterations

     Writing all to output data dir ./tmp/cleave/cleave_dz025_dz6p5/mos2_cleave.save/ :
     XML data file, charge density, pseudopotentials, collected wavefunctions

     init_run     :     89.43s CPU     90.43s WALL (       1 calls)
     electrons    :   6154.70s CPU   6259.38s WALL (       1 calls)

     Called by init_run:
     wfcinit      :     44.51s CPU     44.64s WALL (       1 calls)
     potinit      :     42.64s CPU     42.90s WALL (       1 calls)
     hinit0       :      0.32s CPU      0.34s WALL (       1 calls)

     Called by electrons:
     c_bands      :   5127.13s CPU   5158.70s WALL (      55 calls)
     sum_band     :    777.33s CPU    811.24s WALL (      55 calls)
     v_of_rho     :    136.79s CPU    147.26s WALL (      55 calls)
     newd         :     97.82s CPU    126.90s WALL (      55 calls)
     PAW_pot      :     21.74s CPU     21.74s WALL (      55 calls)
     mix_rho      :     37.15s CPU     37.61s WALL (      55 calls)
     vdW_kernel   :     40.31s CPU     40.32s WALL (       1 calls)

     Called by c_bands:
     init_us_2    :     24.00s CPU     24.04s WALL (    3330 calls)
     init_us_2:cp :     23.99s CPU     24.03s WALL (    3330 calls)
     cegterg      :   4888.08s CPU   4919.37s WALL (    1650 calls)

     Called by *egterg:
     cdiaghg      :     14.76s CPU     14.77s WALL (    6055 calls)
     h_psi        :   2655.32s CPU   2667.57s WALL (    6115 calls)
     s_psi        :    807.77s CPU    808.10s WALL (    6115 calls)
     g_psi        :     12.11s CPU     12.11s WALL (    4435 calls)

     Called by h_psi:
     h_psi:calbec :   1045.58s CPU   1045.87s WALL (    6115 calls)
     vloc_psi     :    796.06s CPU    796.91s WALL (    6115 calls)
     add_vuspsi   :    808.28s CPU    808.50s WALL (    6115 calls)

     General routines
     calbec       :   1515.90s CPU   1516.33s WALL (    7765 calls)
     fft          :     40.45s CPU     40.47s WALL (    3464 calls)
     ffts         :     17.99s CPU     18.00s WALL (    6107 calls)
     fftw         :    741.51s CPU    742.19s WALL (  556530 calls)
     interpolate  :      0.87s CPU      0.87s WALL (      55 calls)

     Parallel routines

     PWSCF        :      1h44m CPU      1h45m WALL


   This run was terminated on:  15:21:35   9Jun2026            

=------------------------------------------------------------------------------=
   JOB DONE.
=------------------------------------------------------------------------------=
Note: The following floating-point exceptions are signalling: IEEE_UNDERFLOW_FLAG IEEE_DENORMAL
