Authorization required, but no authorization protocol specified

Authorization required, but no authorization protocol specified

Authorization required, but no authorization protocol specified

Authorization required, but no authorization protocol specified

Authorization required, but no authorization protocol specified

Authorization required, but no authorization protocol specified

Authorization required, but no authorization protocol specified

Authorization required, but no authorization protocol specified


     Program PWSCF v.7.3 starts on  7Jun2026 at 15:41:54 

     This program is part of the open-source Quantum ESPRESSO suite
     for quantum simulation of materials; please cite
         "P. Giannozzi et al., J. Phys.:Condens. Matter 21 395502 (2009);
         "P. Giannozzi et al., J. Phys.:Condens. Matter 29 465901 (2017);
         "P. Giannozzi et al., J. Chem. Phys. 152 154105 (2020);
          URL http://www.quantum-espresso.org", 
     in publications or presentations arising from this work. More details at
     http://www.quantum-espresso.org/quote

     Parallel version (MPI), running on     1 processors

     MPI processes distributed on     1 nodes
     21714 MiB available memory on the printing compute node when the environment starts

     Waiting for input...
     Reading input from standard input

     Current dimensions of program PWSCF are:
     Max number of different atomic species (ntypx) = 10
     Max number of k-points (npk) =  40000
     Max angular momentum in pseudopotentials (lmaxx) =  4
     file Mo.pbe-spn-kjpaw_psl.1.0.0.UPF: wavefunction(s)  4S 4D renormalized
     file S.pbe-n-kjpaw_psl.1.0.0.UPF: wavefunction(s)  3S 3P renormalized

     IMPORTANT: XC functional enforced from input :
     Exchange-correlation= VDW-DF2-B86R
                           (   1   4  26   0   2   0   0)
     Any further DFT definition will be discarded
     Please, verify this is what you really want


     Subspace diagonalization in iterative solution of the eigenvalue problem:
     a serial algorithm will be used


     G-vector sticks info
     --------------------
     sticks:   dense  smooth     PW     G-vecs:    dense   smooth      PW
     Sum        1573     769    223               478405   168563   26075

     Using Slab Decomposition



     bravais-lattice index     =            4
     lattice parameter (alat)  =       5.9715  a.u.
     unit-cell volume          =    1750.7440 (a.u.)^3
     number of atoms/cell      =           12
     number of atomic types    =            2
     number of electrons       =       104.00
     number of Kohn-Sham states=           62
     kinetic-energy cutoff     =      80.0000  Ry
     charge density cutoff     =     640.0000  Ry
     scf convergence threshold =      1.0E-08
     mixing beta               =       0.2000
     number of iterations used =            8  local-TF  mixing
     Exchange-correlation= VDW-DF2-B86R
                           (   1   4  26   0   2   0   0)

     celldm(1)=   5.971535  celldm(2)=   0.000000  celldm(3)=   9.493671
     celldm(4)=   0.000000  celldm(5)=   0.000000  celldm(6)=   0.000000

     crystal axes: (cart. coord. in units of alat)
               a(1) = (   1.000000   0.000000   0.000000 )  
               a(2) = (  -0.500000   0.866025   0.000000 )  
               a(3) = (   0.000000   0.000000   9.493671 )  

     reciprocal axes: (cart. coord. in units 2 pi/alat)
               b(1) = (  1.000000  0.577350 -0.000000 )  
               b(2) = (  0.000000  1.154701  0.000000 )  
               b(3) = (  0.000000 -0.000000  0.105333 )  


     PseudoPot. # 1 for Mo read from file:
     ./pseudo/Mo.pbe-spn-kjpaw_psl.1.0.0.UPF
     MD5 check sum: 4396e0c640fcce5c25f020efccf1ab12
     Pseudo is Projector augmented-wave + core cor, Zval = 14.0
     Generated using &quot;atomic&quot; code by A. Dal Corso  v.6.3
     Shape of augmentation charge: PSQ
     Using radial grid of 1229 points,  6 beta functions with: 
                l(1) =   0
                l(2) =   0
                l(3) =   1
                l(4) =   1
                l(5) =   2
                l(6) =   2
     Q(r) pseudized with 0 coefficients 


     PseudoPot. # 2 for S  read from file:
     ./pseudo/S.pbe-n-kjpaw_psl.1.0.0.UPF
     MD5 check sum: fb45dfebcf3e72a4e1bd4a866ec2e262
     Pseudo is Projector augmented-wave + core cor, Zval =  6.0
     Generated using &quot;atomic&quot; code by A. Dal Corso  v.6.3
     Shape of augmentation charge: PSQ
     Using radial grid of 1151 points,  6 beta functions with: 
                l(1) =   0
                l(2) =   0
                l(3) =   1
                l(4) =   1
                l(5) =   2
                l(6) =   2
     Q(r) pseudized with 0 coefficients 


     atomic species   valence    mass     pseudopotential
     Mo               14.00    95.96000     Mo( 1.00)
     S                 6.00    32.06000     S ( 1.00)

      6 Sym. Ops. (no inversion) found



   Cartesian axes

     site n.     atom                  positions (alat units)
         1        S      tau(   1) = (  -0.0000005   0.5773503  -0.9967195  )
         2        Mo     tau(   2) = (   0.0000000   0.0000000  -0.4993332  )
         3        S      tau(   3) = (  -0.0000005   0.5773503  -0.0017175  )
         4        S      tau(   4) = (   0.5000003   0.2886747   0.9835827  )
         5        Mo     tau(   5) = (  -0.0000005   0.5773503   1.4818950  )
         6        S      tau(   6) = (   0.5000003   0.2886747   1.9798512  )
         7        S      tau(   7) = (   0.0000000   0.0000000   2.9586848  )
         8        Mo     tau(   8) = (   0.5000003   0.2886747   3.4569999  )
         9        S      tau(   9) = (   0.0000000   0.0000000   3.9548385  )
        10        S      tau(  10) = (  -0.0000005   0.5773503   4.9207616  )
        11        Mo     tau(  11) = (   0.0000000   0.0000000   5.4183982  )
        12        S      tau(  12) = (  -0.0000005   0.5773503   5.9155324  )

     number of k points=    30  Methfessel-Paxton smearing, width (Ry)=  0.0200
                       cart. coord. in units 2pi/alat
        k(    1) = (   0.0000000   0.0000000   0.0000000), wk =   0.0078125
        k(    2) = (   0.0000000   0.0721688   0.0000000), wk =   0.0468750
        k(    3) = (   0.0000000   0.1443376   0.0000000), wk =   0.0468750
        k(    4) = (   0.0000000   0.2165064   0.0000000), wk =   0.0468750
        k(    5) = (   0.0000000   0.2886751   0.0000000), wk =   0.0468750
        k(    6) = (   0.0000000   0.3608439   0.0000000), wk =   0.0468750
        k(    7) = (   0.0000000   0.4330127   0.0000000), wk =   0.0468750
        k(    8) = (   0.0000000   0.5051815   0.0000000), wk =   0.0468750
        k(    9) = (   0.0000000  -0.5773503   0.0000000), wk =   0.0234375
        k(   10) = (   0.0625000   0.1082532   0.0000000), wk =   0.0468750
        k(   11) = (   0.0625000   0.1804220   0.0000000), wk =   0.0937500
        k(   12) = (   0.0625000   0.2525907   0.0000000), wk =   0.0937500
        k(   13) = (   0.0625000   0.3247595   0.0000000), wk =   0.0937500
        k(   14) = (   0.0625000   0.3969283   0.0000000), wk =   0.0937500
        k(   15) = (   0.0625000   0.4690971   0.0000000), wk =   0.0937500
        k(   16) = (   0.0625000   0.5412659   0.0000000), wk =   0.0937500
        k(   17) = (   0.1250000   0.2165064   0.0000000), wk =   0.0468750
        k(   18) = (   0.1250000   0.2886751   0.0000000), wk =   0.0937500
        k(   19) = (   0.1250000   0.3608439   0.0000000), wk =   0.0937500
        k(   20) = (   0.1250000   0.4330127   0.0000000), wk =   0.0937500
        k(   21) = (   0.1250000   0.5051815   0.0000000), wk =   0.0937500
        k(   22) = (   0.1250000   0.5773503   0.0000000), wk =   0.0468750
        k(   23) = (   0.1875000   0.3247595   0.0000000), wk =   0.0468750
        k(   24) = (   0.1875000   0.3969283   0.0000000), wk =   0.0937500
        k(   25) = (   0.1875000   0.4690971   0.0000000), wk =   0.0937500
        k(   26) = (   0.1875000   0.5412659   0.0000000), wk =   0.0937500
        k(   27) = (   0.2500000   0.4330127   0.0000000), wk =   0.0468750
        k(   28) = (   0.2500000   0.5051815   0.0000000), wk =   0.0937500
        k(   29) = (   0.2500000   0.5773503   0.0000000), wk =   0.0468750
        k(   30) = (   0.3125000   0.5412659   0.0000000), wk =   0.0468750

     Dense  grid:   478405 G-vectors     FFT dimensions: (  50,  50, 480)

     Smooth grid:   168563 G-vectors     FFT dimensions: (  36,  36, 324)

     Estimated max dynamical RAM per process >       2.35 GB

     Initial potential from superposition of free atoms

     starting charge     103.9962, renormalised to     104.0000


     %%%%%%%%%%%%%%%%%%%%%%%%%%%%%%%%%%%%%%%%%%%%%%%%%%%%%%%%%%%%%%%%%%%%%%%%
     %                                                                      %
     % You are using vdW-DF, which was implemented by the Thonhauser group. %
     % Please cite the following two papers that made this development      %
     % possible and the two reviews that describe the various versions:     %
     %                                                                      %
     %   T. Thonhauser et al., PRL 115, 136402 (2015).                      %
     %   T. Thonhauser et al., PRB 76, 125112 (2007).                       %
     %   K. Berland et al., Rep. Prog. Phys. 78, 066501 (2015).             %
     %   D.C. Langreth et al., J. Phys.: Condens. Matter 21, 084203 (2009). %
     %                                                                      %
     % If you are calculating stress with vdW-DF, please also cite:         %
     %                                                                      %
     %   R. Sabatini et al., J. Phys.: Condens. Matter 24, 424209 (2012).   %
     %                                                                      %
     %%%%%%%%%%%%%%%%%%%%%%%%%%%%%%%%%%%%%%%%%%%%%%%%%%%%%%%%%%%%%%%%%%%%%%%%

     %%%%%%%%%%%%%%%%%%%%%%%%%%%%%%%%%%%%%%%%%%%%%%%%%%%%%%%%%%%%%%%%%%%%%%%%
     %                                                                      %
     %  vdW-DF NEWS:                                                        %
     %                                                                      %
     %  * vdW-DF3 is now available. DOI: 10.1021/acs.jctc.0c00471           %
     %    use with input_dft = 'vdW-DF3-opt1' or 'vdW-DF3-opt2'             %
     %                                                                      %
     %  * Unscreened and range-separated hybrid vdW-DF-cx functionals       %
     %    DOI: 10.1063/1.4986522 and 10.1088/1361-648X/ac2ad2               %
     %    use with input_dft = 'vdW-DF-cx0'    and 'vdW-DF-ahcx'            %
     %  * Unscreened and range-separated hybrid vdW-DF2-b86r functionals    %
     %    DOI: 10.1063/1.4986522 and DOI: 10.1103/PhysRevX.12.041003        %
     %    use with input_dft = 'vdW-DF2-br0' and 'vdW-DF2-ahbr'             %
     %                                                                      %
     %%%%%%%%%%%%%%%%%%%%%%%%%%%%%%%%%%%%%%%%%%%%%%%%%%%%%%%%%%%%%%%%%%%%%%%%


     Starting wfcs are   72 randomized atomic wfcs
     Checking if some PAW data can be deallocated... 

     total cpu time spent up to now is       86.2 secs

     Self-consistent Calculation

     iteration #  1     ecut=    80.00 Ry     beta= 0.20
     Davidson diagonalization with overlap
     ethr =  1.00E-02,  avg # of iterations =  2.2

     Threshold (ethr) on eigenvalues was too large:
     Diagonalizing with lowered threshold

     Davidson diagonalization with overlap
     ethr =  3.00E-04,  avg # of iterations =  2.9

     total cpu time spent up to now is      341.0 secs

     total energy              =   -1978.46622416 Ry
     estimated scf accuracy    <       0.42891836 Ry

     iteration #  2     ecut=    80.00 Ry     beta= 0.20
     Davidson diagonalization with overlap
     ethr =  4.12E-04,  avg # of iterations =  1.0

     total cpu time spent up to now is      439.5 secs

     total energy              =   -1978.28836529 Ry
     estimated scf accuracy    <       0.35712467 Ry

     iteration #  3     ecut=    80.00 Ry     beta= 0.20
     Davidson diagonalization with overlap
     ethr =  3.43E-04,  avg # of iterations =  2.0

     total cpu time spent up to now is      570.5 secs

     total energy              =   -1978.36882209 Ry
     estimated scf accuracy    <       0.04813502 Ry

     iteration #  4     ecut=    80.00 Ry     beta= 0.20
     Davidson diagonalization with overlap
     ethr =  4.63E-05,  avg # of iterations =  2.5

     total cpu time spent up to now is      697.3 secs

     total energy              =   -1978.37304680 Ry
     estimated scf accuracy    <       0.01367368 Ry

     iteration #  5     ecut=    80.00 Ry     beta= 0.20
     Davidson diagonalization with overlap
     ethr =  1.31E-05,  avg # of iterations =  5.5

     total cpu time spent up to now is      818.1 secs

     total energy              =   -1978.37389973 Ry
     estimated scf accuracy    <       0.00409697 Ry

     iteration #  6     ecut=    80.00 Ry     beta= 0.20
     Davidson diagonalization with overlap
     c_bands:  1 eigenvalues not converged
     ethr =  3.94E-06,  avg # of iterations =  5.5

     total cpu time spent up to now is      932.5 secs

     total energy              =   -1978.37314354 Ry
     estimated scf accuracy    <       0.00308785 Ry

     iteration #  7     ecut=    80.00 Ry     beta= 0.20
     Davidson diagonalization with overlap
     c_bands:  1 eigenvalues not converged
     ethr =  2.97E-06,  avg # of iterations =  6.6

     total cpu time spent up to now is     1076.9 secs

     total energy              =   -1978.37276185 Ry
     estimated scf accuracy    <       0.00609817 Ry

     iteration #  8     ecut=    80.00 Ry     beta= 0.20
     Davidson diagonalization with overlap
     ethr =  2.97E-06,  avg # of iterations =  2.7

     total cpu time spent up to now is     1194.8 secs

     total energy              =   -1978.37303495 Ry
     estimated scf accuracy    <       0.00111768 Ry

     iteration #  9     ecut=    80.00 Ry     beta= 0.20
     Davidson diagonalization with overlap
     ethr =  1.07E-06,  avg # of iterations =  7.4

     total cpu time spent up to now is     1337.0 secs

     total energy              =   -1978.37330946 Ry
     estimated scf accuracy    <       0.00281326 Ry

     iteration # 10     ecut=    80.00 Ry     beta= 0.20
     Davidson diagonalization with overlap
     ethr =  1.07E-06,  avg # of iterations =  1.1

     total cpu time spent up to now is     1436.4 secs

     total energy              =   -1978.37321342 Ry
     estimated scf accuracy    <       0.00191819 Ry

     iteration # 11     ecut=    80.00 Ry     beta= 0.20
     Davidson diagonalization with overlap
     ethr =  1.07E-06,  avg # of iterations =  1.0

     negative rho (up, down):  1.639E-04 0.000E+00

     total cpu time spent up to now is     1535.6 secs

     total energy              =   -1978.37295550 Ry
     estimated scf accuracy    <       0.00120019 Ry

     iteration # 12     ecut=    80.00 Ry     beta= 0.20
     Davidson diagonalization with overlap
     ethr =  1.07E-06,  avg # of iterations =  3.4

     negative rho (up, down):  2.505E-04 0.000E+00

     total cpu time spent up to now is     1657.8 secs

     total energy              =   -1978.37314342 Ry
     estimated scf accuracy    <       0.00016486 Ry

     iteration # 13     ecut=    80.00 Ry     beta= 0.20
     Davidson diagonalization with overlap
     ethr =  1.59E-07,  avg # of iterations =  3.3

     negative rho (up, down):  5.289E-06 0.000E+00

     total cpu time spent up to now is     1770.8 secs

     total energy              =   -1978.37310124 Ry
     estimated scf accuracy    <       0.00016111 Ry

     iteration # 14     ecut=    80.00 Ry     beta= 0.20
     Davidson diagonalization with overlap
     ethr =  1.55E-07,  avg # of iterations =  2.3

     negative rho (up, down):  1.311E-04 0.000E+00

     total cpu time spent up to now is     1895.2 secs

     total energy              =   -1978.37311342 Ry
     estimated scf accuracy    <       0.00014088 Ry

     iteration # 15     ecut=    80.00 Ry     beta= 0.20
     Davidson diagonalization with overlap
     ethr =  1.35E-07,  avg # of iterations =  1.0

     negative rho (up, down):  2.796E-04 0.000E+00

     total cpu time spent up to now is     1994.2 secs

     total energy              =   -1978.37310038 Ry
     estimated scf accuracy    <       0.00008677 Ry

     iteration # 16     ecut=    80.00 Ry     beta= 0.20
     Davidson diagonalization with overlap
     ethr =  8.34E-08,  avg # of iterations =  4.0

     total cpu time spent up to now is     2123.3 secs

     total energy              =   -1978.37308891 Ry
     estimated scf accuracy    <       0.00018357 Ry

     iteration # 17     ecut=    80.00 Ry     beta= 0.20
     Davidson diagonalization with overlap
     ethr =  8.34E-08,  avg # of iterations =  2.8

     total cpu time spent up to now is     2246.8 secs

     total energy              =   -1978.37310416 Ry
     estimated scf accuracy    <       0.00001940 Ry

     iteration # 18     ecut=    80.00 Ry     beta= 0.20
     Davidson diagonalization with overlap
     c_bands:  1 eigenvalues not converged
     ethr =  1.87E-08,  avg # of iterations =  7.5

     total cpu time spent up to now is     2378.4 secs

     total energy              =   -1978.37310840 Ry
     estimated scf accuracy    <       0.00001203 Ry

     iteration # 19     ecut=    80.00 Ry     beta= 0.20
     Davidson diagonalization with overlap
     ethr =  1.16E-08,  avg # of iterations =  1.8

     total cpu time spent up to now is     2485.9 secs

     total energy              =   -1978.37310912 Ry
     estimated scf accuracy    <       0.00001030 Ry

     iteration # 20     ecut=    80.00 Ry     beta= 0.20
     Davidson diagonalization with overlap
     ethr =  9.90E-09,  avg # of iterations =  2.0

     total cpu time spent up to now is     2596.6 secs

     total energy              =   -1978.37310982 Ry
     estimated scf accuracy    <       0.00000602 Ry

     iteration # 21     ecut=    80.00 Ry     beta= 0.20
     Davidson diagonalization with overlap
     ethr =  5.78E-09,  avg # of iterations =  1.0

     total cpu time spent up to now is     2695.5 secs

     total energy              =   -1978.37311040 Ry
     estimated scf accuracy    <       0.00000554 Ry

     iteration # 22     ecut=    80.00 Ry     beta= 0.20
     Davidson diagonalization with overlap
     ethr =  5.32E-09,  avg # of iterations =  1.9

     total cpu time spent up to now is     2803.9 secs

     total energy              =   -1978.37311044 Ry
     estimated scf accuracy    <       0.00000582 Ry

     iteration # 23     ecut=    80.00 Ry     beta= 0.20
     Davidson diagonalization with overlap
     ethr =  5.32E-09,  avg # of iterations =  1.0

     total cpu time spent up to now is     2902.6 secs

     total energy              =   -1978.37311016 Ry
     estimated scf accuracy    <       0.00000529 Ry

     iteration # 24     ecut=    80.00 Ry     beta= 0.20
     Davidson diagonalization with overlap
     ethr =  5.08E-09,  avg # of iterations =  3.2

     total cpu time spent up to now is     3028.5 secs

     total energy              =   -1978.37311010 Ry
     estimated scf accuracy    <       0.00001225 Ry

     iteration # 25     ecut=    80.00 Ry     beta= 0.20
     Davidson diagonalization with overlap
     ethr =  5.08E-09,  avg # of iterations =  1.7

     total cpu time spent up to now is     3133.4 secs

     total energy              =   -1978.37310988 Ry
     estimated scf accuracy    <       0.00000572 Ry

     iteration # 26     ecut=    80.00 Ry     beta= 0.20
     Davidson diagonalization with overlap
     ethr =  5.08E-09,  avg # of iterations =  1.7

     total cpu time spent up to now is     3239.9 secs

     total energy              =   -1978.37310936 Ry
     estimated scf accuracy    <       0.00000392 Ry

     iteration # 27     ecut=    80.00 Ry     beta= 0.20
     Davidson diagonalization with overlap
     ethr =  3.77E-09,  avg # of iterations =  2.4

     total cpu time spent up to now is     3351.6 secs

     total energy              =   -1978.37310911 Ry
     estimated scf accuracy    <       0.00000299 Ry

     iteration # 28     ecut=    80.00 Ry     beta= 0.20
     Davidson diagonalization with overlap
     ethr =  2.87E-09,  avg # of iterations =  1.6

     total cpu time spent up to now is     3457.9 secs

     total energy              =   -1978.37310913 Ry
     estimated scf accuracy    <       0.00000207 Ry

     iteration # 29     ecut=    80.00 Ry     beta= 0.20
     Davidson diagonalization with overlap
     ethr =  1.99E-09,  avg # of iterations =  2.0

     total cpu time spent up to now is     3568.8 secs

     total energy              =   -1978.37310913 Ry
     estimated scf accuracy    <       0.00000135 Ry

     iteration # 30     ecut=    80.00 Ry     beta= 0.20
     Davidson diagonalization with overlap
     ethr =  1.30E-09,  avg # of iterations =  1.2

     total cpu time spent up to now is     3669.9 secs

     total energy              =   -1978.37310914 Ry
     estimated scf accuracy    <       0.00000102 Ry

     iteration # 31     ecut=    80.00 Ry     beta= 0.20
     Davidson diagonalization with overlap
     ethr =  9.76E-10,  avg # of iterations =  1.3

     total cpu time spent up to now is     3771.2 secs

     total energy              =   -1978.37310902 Ry
     estimated scf accuracy    <       0.00000073 Ry

     iteration # 32     ecut=    80.00 Ry     beta= 0.20
     Davidson diagonalization with overlap
     ethr =  7.01E-10,  avg # of iterations =  2.0

     total cpu time spent up to now is     3879.7 secs

     total energy              =   -1978.37310897 Ry
     estimated scf accuracy    <       0.00000053 Ry

     iteration # 33     ecut=    80.00 Ry     beta= 0.20
     Davidson diagonalization with overlap
     ethr =  5.11E-10,  avg # of iterations =  1.1

     total cpu time spent up to now is     3979.4 secs

     total energy              =   -1978.37310901 Ry
     estimated scf accuracy    <       0.00000044 Ry

     iteration # 34     ecut=    80.00 Ry     beta= 0.20
     Davidson diagonalization with overlap
     ethr =  4.21E-10,  avg # of iterations =  2.0

     total cpu time spent up to now is     4088.4 secs

     total energy              =   -1978.37310902 Ry
     estimated scf accuracy    <       0.00000027 Ry

     iteration # 35     ecut=    80.00 Ry     beta= 0.20
     Davidson diagonalization with overlap
     ethr =  2.57E-10,  avg # of iterations =  2.0

     total cpu time spent up to now is     4214.4 secs

     total energy              =   -1978.37310902 Ry
     estimated scf accuracy    <       0.00000029 Ry

     iteration # 36     ecut=    80.00 Ry     beta= 0.20
     Davidson diagonalization with overlap
     ethr =  2.57E-10,  avg # of iterations =  1.4

     total cpu time spent up to now is     4317.3 secs

     total energy              =   -1978.37310897 Ry
     estimated scf accuracy    <       0.00000020 Ry

     iteration # 37     ecut=    80.00 Ry     beta= 0.20
     Davidson diagonalization with overlap
     ethr =  1.93E-10,  avg # of iterations =  1.4

     total cpu time spent up to now is     4421.4 secs

     total energy              =   -1978.37310898 Ry
     estimated scf accuracy    <       0.00000012 Ry

     iteration # 38     ecut=    80.00 Ry     beta= 0.20
     Davidson diagonalization with overlap
     ethr =  1.14E-10,  avg # of iterations =  2.0

     total cpu time spent up to now is     4537.4 secs

     total energy              =   -1978.37310894 Ry
     estimated scf accuracy    <       0.00000006 Ry

     iteration # 39     ecut=    80.00 Ry     beta= 0.20
     Davidson diagonalization with overlap
     ethr =  6.21E-11,  avg # of iterations =  2.4

     total cpu time spent up to now is     4653.1 secs

     total energy              =   -1978.37310896 Ry
     estimated scf accuracy    <       0.00000002 Ry

     iteration # 40     ecut=    80.00 Ry     beta= 0.20
     Davidson diagonalization with overlap
     ethr =  2.26E-11,  avg # of iterations =  2.5

     total cpu time spent up to now is     4769.4 secs

     End of self-consistent calculation

          k = 0.0000 0.0000 0.0000 ( 21311 PWs)   bands (ev):

   -53.5079 -53.4677 -53.4285 -53.3935 -27.6826 -27.6424 -27.6031 -27.5679
   -27.4456 -27.4456 -27.4043 -27.4043 -27.3650 -27.3650 -27.3311 -27.3311
    -6.8708  -6.7872  -6.7110  -6.6310  -5.6430  -5.5139  -5.3918  -5.2936
     1.2966   1.5315   1.8339   2.0990   4.6941   4.7557   4.7557   4.8055
     4.8055   4.8465   4.8465   4.8734   4.8734   5.1580   5.7494   5.8725
     5.8726   5.9197   5.9197   5.9606   5.9606   5.9922   5.9922   6.3577
     6.9560   7.4035   7.7293   7.9165  10.1092  10.1092  10.1570  10.1570
    10.1945  10.1946  10.2438  10.2439  10.3287  10.3290

          k = 0.0000 0.0722 0.0000 ( 21283 PWs)   bands (ev):

   -53.5063 -53.4661 -53.4269 -53.3920 -27.6796 -27.6394 -27.6000 -27.5649
   -27.4612 -27.4492 -27.4199 -27.4079 -27.3805 -27.3685 -27.3467 -27.3347
    -6.8111  -6.7278  -6.6518  -6.5719  -5.6150  -5.4875  -5.3675  -5.2708
     1.3657   1.5991   1.9008   2.1668   4.5658   4.6213   4.6697   4.7109
     4.7389   4.8179   4.8677   4.9087   4.9360   4.9752   5.3920   5.6132
     5.7753   5.8228   5.8636   5.8960   5.9794   6.0529   6.1912   6.5530
     6.9616   7.3859   7.6692   7.8279  10.0383  10.0787  10.1183  10.1606
    10.1799  10.1919  10.2302  10.2392  10.2672  10.2802

          k = 0.0000 0.1443 0.0000 ( 21263 PWs)   bands (ev):

   -53.5019 -53.4617 -53.4225 -53.3875 -27.6709 -27.6307 -27.5914 -27.5562
   -27.5053 -27.4639 -27.4592 -27.4246 -27.4179 -27.3908 -27.3786 -27.3447
    -6.6370  -6.5544  -6.4793  -6.3998  -5.5332  -5.4105  -5.2970  -5.2044
     1.5582   1.7861   2.0840   2.3514   4.2537   4.2841   4.3176   4.3610
     4.3926   4.6053   4.9137   4.9972   5.0467   5.0877   5.0997   5.1163
     5.5238   5.5723   5.6130   5.6470   6.0337   6.1464   6.3503   6.6821
     6.9390   7.2703   7.4531   7.5523   9.7610   9.8342   9.8899   9.9279
    10.0032  10.0491  10.0576  10.0975  10.1186  10.1358

          k = 0.0000 0.2165 0.0000 ( 21233 PWs)   bands (ev):

   -53.4952 -53.4550 -53.4158 -53.3809 -27.6579 -27.6177 -27.5784 -27.5708
   -27.5432 -27.5293 -27.4900 -27.4742 -27.4563 -27.4329 -27.3935 -27.3597
    -6.3631  -6.2822  -6.2092  -6.1307  -5.4049  -5.2900  -5.1870  -5.1008
     1.8206   2.0339   2.3155   2.5740   3.8260   3.8771   3.8943   3.9329
     3.9815   4.1911   4.4124   4.5474   5.1965   5.2436   5.2720   5.2871
     5.3175   5.3286   5.3643   5.3934   5.9400   6.0863   6.3096   6.5885
     6.8008   6.9849   7.0710   7.1313   9.3702   9.5075   9.6762   9.8275
     9.8631   9.8993   9.9601   9.9662  10.0281  10.1411

          k = 0.0000 0.2887 0.0000 ( 21197 PWs)   bands (ev):

   -53.4874 -53.4472 -53.4080 -53.3730 -27.6472 -27.6425 -27.6057 -27.6024
   -27.5663 -27.5630 -27.5326 -27.5278 -27.4918 -27.4505 -27.4112 -27.3774
    -6.0149  -5.9371  -5.8682  -5.7917  -5.2428  -5.1386  -5.0496  -4.9717
     2.0278   2.2043   2.4269   2.6241   3.4216   3.4827   3.5503   3.5727
     3.6859   3.8100   3.9256   3.9988   4.8685   4.9189   4.9595   4.9972
     5.5958   5.6472   5.6879   5.7197   5.7242   5.8888   6.1107   6.3360
     6.5277   6.6175   6.6659   6.7173   9.2239   9.4007   9.6283   9.6395
     9.7101   9.7693   9.8355   9.8799  10.1761  10.3675

          k = 0.0000 0.3608 0.0000 ( 21187 PWs)   bands (ev):

   -53.4795 -53.4393 -53.4001 -53.3651 -27.7227 -27.6811 -27.6417 -27.6271
   -27.6081 -27.5870 -27.5476 -27.5124 -27.5094 -27.4681 -27.4287 -27.3949
    -5.6307  -5.5580  -5.4958  -5.4235  -5.0660  -4.9753  -4.9027  -4.8343
     2.0042   2.1221   2.2466   2.3574   3.0542   3.1477   3.2495   3.3908
     3.4339   3.5558   3.6153   3.6941   4.5800   4.6310   4.6718   4.7105
     5.4824   5.6561   5.8634   5.9148   5.9704   6.0127   6.0527   6.0571
     6.3069   6.3887   6.4355   6.4858   9.3366   9.5076   9.5378   9.6013
     9.6528   9.7134   9.7302   9.9662  10.5006  10.6827

          k = 0.0000 0.4330 0.0000 ( 21140 PWs)   bands (ev):

   -53.4728 -53.4326 -53.3934 -53.3584 -27.7860 -27.7443 -27.7049 -27.6714
   -27.6140 -27.5739 -27.5346 -27.5243 -27.4993 -27.4829 -27.4435 -27.4098
    -5.2653  -5.1999  -5.1474  -5.0818  -4.9009  -4.8261  -4.7699  -4.7110
     1.7806   1.8592   1.9265   2.0034   2.7211   2.8100   2.8958   3.0009
     3.3144   3.4125   3.5122   3.6118   4.3591   4.4106   4.4514   4.4908
     5.3074   5.4739   5.6659   5.8326   6.1682   6.2309   6.2782   6.3219
     6.3315   6.4131   6.4797   6.5416   9.5344   9.5876   9.6007   9.6304
     9.6818   9.7373   9.9111  10.0893  10.8039  10.9620

          k = 0.0000 0.5052 0.0000 ( 21078 PWs)   bands (ev):

   -53.4684 -53.4282 -53.3890 -53.3540 -27.8280 -27.7863 -27.7469 -27.7134
   -27.6052 -27.5651 -27.5341 -27.5258 -27.4928 -27.4905 -27.4534 -27.4197
    -4.9915  -4.9348  -4.8915  -4.8359  -4.7790  -4.7216  -4.6764  -4.6258
     1.5560   1.6171   1.6665   1.7345   2.4886   2.5602   2.6254   2.7185
     3.2086   3.3048   3.4017   3.4970   4.2213   4.2731   4.3140   4.3537
     5.2125   5.3726   5.5513   5.6981   6.3209   6.3904   6.4446   6.5046
     6.5085   6.5943   6.6629   6.7297   9.5846   9.6298   9.6695   9.7112
     9.8980   9.9912  10.0962  10.2058  10.9921  11.1242

          k = 0.0000-0.5774 0.0000 ( 21006 PWs)   bands (ev):

   -53.4668 -53.4266 -53.3874 -53.3524 -27.8426 -27.8009 -27.7615 -27.7281
   -27.6021 -27.5621 -27.5376 -27.5227 -27.4962 -27.4874 -27.4569 -27.4231
    -4.8870  -4.8353  -4.7953  -4.7490  -4.7304  -4.6851  -4.6427  -4.5958
     1.4649   1.5218   1.5681   1.6347   2.4055   2.4685   2.5276   2.6190
     3.1597   3.2562   3.3511   3.4441   4.1745   4.2264   4.2673   4.3072
     5.1841   5.3415   5.5141   5.6526   6.3703   6.4426   6.4999   6.5623
     6.6269   6.6973   6.7531   6.8149   9.6135   9.6567   9.6962   9.7341
    10.0565  10.1256  10.1774  10.2393  11.0525  11.1665

          k = 0.0625 0.1083 0.0000 ( 21269 PWs)   bands (ev):

   -53.5033 -53.4631 -53.4239 -53.3890 -27.6737 -27.6335 -27.5942 -27.5590
   -27.4906 -27.4564 -27.4492 -27.4151 -27.4099 -27.3761 -27.3757 -27.3419
    -6.6942  -6.6114  -6.5359  -6.4562  -5.5601  -5.4357  -5.3201  -5.2261
     1.4970   1.7269   2.0265   2.2939   4.3569   4.3867   4.4281   4.4704
     4.5002   4.7204   4.9369   4.9862   5.0267   5.0550   5.0627   5.2668
     5.5605   5.6076   5.6485   5.6809   6.0732   6.1704   6.3539   6.6878
     6.9548   7.3219   7.5315   7.6454   9.8862   9.9135   9.9351   9.9729
    10.0240  10.0317  10.0725  10.1271  10.1297  10.1943

          k = 0.0625 0.1804 0.0000 ( 21194 PWs)   bands (ev):

   -53.4978 -53.4576 -53.4184 -53.3834 -27.6629 -27.6227 -27.5834 -27.5482
   -27.5442 -27.5028 -27.4701 -27.4634 -27.4297 -27.4288 -27.3895 -27.3557
    -6.4700  -6.3884  -6.3145  -6.2355  -5.4549  -5.3368  -5.2296  -5.1409
     1.7284   1.9490   2.2400   2.5056   3.9913   4.0397   4.0556   4.0911
     4.1270   4.3729   4.6406   4.8031   5.1526   5.1872   5.2106   5.2325
     5.2528   5.2673   5.2898   5.3154   6.1205   6.2381   6.4308   6.7098
     6.8791   7.1228   7.2290   7.2941   9.4846   9.5948   9.7129   9.8184
     9.8625   9.9097   9.9605   9.9958  10.0343  10.1068

          k = 0.0625 0.2526 0.0000 ( 21202 PWs)   bands (ev):

   -53.4905 -53.4503 -53.4111 -53.3762 -27.6487 -27.6134 -27.6085 -27.5720
   -27.5692 -27.5340 -27.5326 -27.4989 -27.4881 -27.4468 -27.4074 -27.3736
    -6.1584  -6.0792  -6.0083  -5.9308  -5.3090  -5.2002  -5.1053  -5.0239
     1.9763   2.1731   2.4305   2.6657   3.5976   3.6469   3.6882   3.7104
     3.7977   3.9957   4.1684   4.2690   4.8181   4.8696   4.9102   4.9496
     5.4214   5.4708   5.5119   5.5460   6.0160   6.1457   6.3309   6.5470
     6.6722   6.7820   6.8282   6.8775   9.2072   9.3666   9.5457   9.6744
     9.7619   9.8216   9.8665   9.9026   9.9911  10.1839

          k = 0.0625 0.3248 0.0000 ( 21194 PWs)   bands (ev):

   -53.4827 -53.4425 -53.4033 -53.3683 -27.6876 -27.6460 -27.6333 -27.6066
   -27.5932 -27.5730 -27.5538 -27.5186 -27.5075 -27.4661 -27.4268 -27.3930
    -5.7906  -5.7155  -5.6501  -5.5757  -5.1382  -5.0414  -4.9618  -4.8893
     2.0766   2.2223   2.3919   2.5371   3.2511   3.3237   3.4096   3.4859
     3.5912   3.6858   3.7285   3.7647   4.5122   4.5740   4.6199   4.6704
     5.6555   5.7015   5.7441   5.7860   5.8079   5.9314   6.1022   6.2757
     6.4387   6.4999   6.5412   6.5856   9.1630   9.3285   9.4883   9.5893
     9.6989   9.7637   9.8117   9.9543  10.2346  10.4223

          k = 0.0625 0.3969 0.0000 ( 21151 PWs)   bands (ev):

   -53.4754 -53.4352 -53.3960 -53.3610 -27.7553 -27.7137 -27.6743 -27.6408
   -27.6190 -27.5789 -27.5396 -27.5253 -27.5043 -27.4840 -27.4446 -27.4108
    -5.4126  -5.3437  -5.2867  -5.2177  -4.9649  -4.8828  -4.8197  -4.7567
     1.9341   2.0292   2.1188   2.2075   2.8850   2.9746   3.0624   3.1705
     3.3875   3.4831   3.5792   3.6822   4.3120   4.3757   4.4230   4.4743
     5.5374   5.6720   5.8024   5.8065   5.8679   5.9056   5.9325   6.0261
     6.4467   6.4995   6.5397   6.5812   9.2972   9.4292   9.5365   9.6180
     9.7416   9.8071   9.8768  10.0369  10.5689  10.7313

          k = 0.0625 0.4691 0.0000 ( 21105 PWs)   bands (ev):

   -53.4698 -53.4296 -53.3904 -53.3554 -27.8067 -27.7650 -27.7256 -27.6921
   -27.6081 -27.5680 -27.5390 -27.5287 -27.4976 -27.4934 -27.4582 -27.4245
    -5.0878  -5.0271  -4.9802  -4.9198  -4.8182  -4.7531  -4.7041  -4.6502
     1.7025   1.7709   1.8267   1.8982   2.5742   2.6475   2.7119   2.7998
     3.2809   3.3754   3.4754   3.5760   4.2046   4.2588   4.3024   4.3491
     5.3445   5.4838   5.6370   5.7674   5.9256   5.9841   6.0354   6.0974
     6.6194   6.6741   6.7172   6.7651   9.4958   9.5752   9.6312   9.6923
     9.8765   9.9460  10.0312  10.1524  10.8780  11.0072

          k = 0.0625 0.5413 0.0000 ( 21084 PWs)   bands (ev):

   -53.4668 -53.4266 -53.3874 -53.3524 -27.8344 -27.7927 -27.7533 -27.7198
   -27.6021 -27.5621 -27.5463 -27.5227 -27.5049 -27.4874 -27.4656 -27.4318
    -4.8930  -4.8403  -4.7999  -4.7516  -4.7290  -4.6814  -4.6387  -4.5914
     1.5448   1.6023   1.6492   1.7166   2.3989   2.4590   2.5140   2.5984
     3.1898   3.2866   3.3838   3.4789   4.1619   4.2063   4.2481   4.2886
     5.2380   5.3819   5.5363   5.6608   6.0133   6.0795   6.1318   6.1943
     6.7722   6.8311   6.8780   6.9315   9.6139   9.6520   9.6915   9.7313
    10.0506  10.1214  10.1820  10.2542  11.1017  11.1976

          k = 0.1250 0.2165 0.0000 ( 21179 PWs)   bands (ev):

   -53.4916 -53.4514 -53.4122 -53.3773 -27.6508 -27.6107 -27.5994 -27.5714
   -27.5579 -27.5361 -27.5186 -27.4890 -27.4849 -27.4476 -27.4083 -27.3745
    -6.2076  -6.1280  -6.0565  -5.9787  -5.3317  -5.2213  -5.1243  -5.0418
     1.9558   2.1595   2.4285   2.6766   3.6726   3.7126   3.7552   3.7831
     3.8717   4.1271   4.3416   4.4569   4.6805   4.7324   4.7739   4.8090
     5.3421   5.3901   5.4313   5.4647   6.2050   6.3147   6.4729   6.6621
     6.7471   6.8637   6.9017   6.9461   9.1965   9.3454   9.5052   9.6376
     9.7624   9.7865   9.8305   9.8689   9.9285  10.1310

          k = 0.1250 0.2887 0.0000 ( 21199 PWs)   bands (ev):

   -53.4844 -53.4442 -53.4050 -53.3700 -27.6628 -27.6366 -27.6213 -27.5965
   -27.5819 -27.5572 -27.5483 -27.5219 -27.5123 -27.4709 -27.4316 -27.3978
    -5.8748  -5.7985  -5.7315  -5.6561  -5.1756  -5.0758  -4.9922  -4.9176
     2.1205   2.2862   2.4903   2.6666   3.4152   3.4613   3.5212   3.5802
     3.6875   3.8274   3.8943   3.9447   4.2491   4.3291   4.4131   4.4986
     5.4462   5.4938   5.5355   5.5767   6.1342   6.2348   6.3649   6.4958
     6.5537   6.5833   6.6215   6.6587   9.0281   9.1991   9.3814   9.5136
     9.7594   9.7881   9.8385   9.8902  10.0060  10.2251

          k = 0.1250 0.3608 0.0000 ( 21195 PWs)   bands (ev):

   -53.4771 -53.4369 -53.3977 -53.3627 -27.7252 -27.6836 -27.6442 -27.6224
   -27.6106 -27.5823 -27.5429 -27.5360 -27.5077 -27.4946 -27.4553 -27.4215
    -5.5091  -5.4381  -5.3782  -5.3073  -5.0049  -4.9183  -4.8503  -4.7845
     2.0852   2.1999   2.3186   2.4242   3.0858   3.1611   3.2309   3.3207
     3.4806   3.5592   3.6396   3.7471   4.0458   4.1721   4.2825   4.3661
     5.3887   5.4394   5.4816   5.5295   5.9152   6.0057   6.1107   6.2195
     6.4989   6.5420   6.5821   6.6208   9.0592   9.2363   9.4368   9.5854
     9.8298   9.8706   9.9167  10.0107  10.2283  10.4093

          k = 0.1250 0.4330 0.0000 ( 21113 PWs)   bands (ev):

   -53.4709 -53.4307 -53.3915 -53.3565 -27.7774 -27.7357 -27.6963 -27.6628
   -27.6103 -27.5702 -27.5562 -27.5308 -27.5148 -27.4956 -27.4754 -27.4417
    -5.1638  -5.1002  -5.0499  -4.9863  -4.8448  -4.7740  -4.7211  -4.6644
     1.9126   1.9942   2.0651   2.1437   2.6799   2.7395   2.7892   2.8598
     3.4043   3.4909   3.5883   3.6978   4.0134   4.1325   4.2300   4.3067
     5.3312   5.3966   5.4497   5.5143   5.6396   5.7299   5.8263   5.9247
     6.6376   6.6836   6.7237   6.7625   9.2668   9.4269   9.6135   9.7534
     9.9374   9.9852  10.0299  10.0878  10.5350  10.6714

          k = 0.1250 0.5052 0.0000 ( 21081 PWs)   bands (ev):

   -53.4668 -53.4266 -53.3874 -53.3524 -27.8120 -27.7703 -27.7309 -27.6974
   -27.6021 -27.5697 -27.5621 -27.5283 -27.5228 -27.4890 -27.4875 -27.4552
    -4.9071  -4.8522  -4.8106  -4.7590  -4.7247  -4.6728  -4.6293  -4.5808
     1.7535   1.8158   1.8667   1.9370   2.3878   2.4362   2.4826   2.5505
     3.2825   3.3810   3.4804   3.5774   4.0651   4.1527   4.2196   4.2837
     5.3197   5.4061   5.4518   5.4813   5.5299   5.5665   5.6156   5.7147
     6.8238   6.8778   6.9206   6.9674   9.4968   9.5918   9.6744   9.7471
    10.0850  10.1478  10.2052  10.2868  10.8087  10.8931

          k = 0.1250 0.5774 0.0000 ( 21108 PWs)   bands (ev):

   -53.4653 -53.4251 -53.3859 -53.3510 -27.8241 -27.7824 -27.7430 -27.7095
   -27.5993 -27.5745 -27.5592 -27.5331 -27.5199 -27.4937 -27.4846 -27.4600
    -4.8097  -4.7598  -4.7213  -4.6888  -4.6679  -4.6368  -4.5960  -4.5513
     1.6916   1.7463   1.7924   1.8610   2.2835   2.3285   2.3745   2.4425
     3.2220   3.3222   3.4218   3.5162   4.1170   4.1707   4.2192   4.2746
     5.2632   5.3825   5.4172   5.4792   5.5080   5.5521   5.5784   5.6584
     6.9152   6.9749   7.0216   7.0738   9.5814   9.6181   9.6579   9.7003
    10.1929  10.2683  10.3204  10.3803  10.9151  11.0036

          k = 0.1875 0.3248 0.0000 ( 21195 PWs)   bands (ev):

   -53.4777 -53.4375 -53.3983 -53.3633 -27.7116 -27.6700 -27.6306 -27.6235
   -27.5970 -27.5835 -27.5441 -27.5428 -27.5089 -27.5014 -27.4620 -27.4283
    -5.5426  -5.4709  -5.4101  -5.3385  -5.0185  -4.9303  -4.8606  -4.7938
     2.1490   2.2737   2.4077   2.5226   3.2155   3.2761   3.3260   3.3876
     3.5261   3.5942   3.6590   3.7251   3.9115   4.0613   4.2060   4.3007
     5.2152   5.2641   5.3061   5.3554   6.0840   6.1546   6.2341   6.3239
     6.5037   6.5505   6.5906   6.6337   8.9683   9.1594   9.3843   9.5664
     9.8529   9.8768   9.9296   9.9710  10.0932  10.2900

          k = 0.1875 0.3969 0.0000 ( 21153 PWs)   bands (ev):

   -53.4715 -53.4313 -53.3921 -53.3571 -27.7535 -27.7119 -27.6725 -27.6390
   -27.6114 -27.5736 -27.5714 -27.5322 -27.5320 -27.4968 -27.4929 -27.4591
    -5.2055  -5.1403  -5.0882  -5.0229  -4.8581  -4.7842  -4.7288  -4.6705
     2.0706   2.1660   2.2550   2.3411   2.7767   2.8070   2.8504   2.9012
     3.5387   3.6036   3.6687   3.7582   3.9184   4.0561   4.1875   4.2732
     4.8959   4.9534   4.9993   5.0553   5.8577   5.9134   5.9651   6.0383
     6.6063   6.6588   6.7001   6.7450   9.1186   9.3134   9.5646   9.8134
     9.9641   9.9993  10.0407  10.0781  10.2603  10.4202

          k = 0.1875 0.4691 0.0000 ( 21101 PWs)   bands (ev):

   -53.4668 -53.4266 -53.3874 -53.3524 -27.7841 -27.7424 -27.7030 -27.6695
   -27.6022 -27.5986 -27.5621 -27.5572 -27.5228 -27.5178 -27.4875 -27.4841
    -4.9207  -4.8639  -4.8210  -4.7667  -4.7200  -4.6644  -4.6199  -4.5702
     1.9889   2.0647   2.1280   2.2033   2.3815   2.4132   2.4574   2.5062
     3.4484   3.5505   3.6374   3.7129   3.9587   4.0956   4.2149   4.3025
     4.7065   4.7864   4.8609   4.9435   5.5533   5.6298   5.6829   5.7518
     6.8085   6.8580   6.8978   6.9377   9.3456   9.4821   9.6319   9.7544
    10.1270  10.1812  10.2308  10.3211  10.4790  10.5842

          k = 0.1875 0.5413 0.0000 ( 21112 PWs)   bands (ev):

   -53.4642 -53.4240 -53.3848 -53.3498 -27.8001 -27.7584 -27.7190 -27.6855
   -27.6126 -27.5971 -27.5711 -27.5571 -27.5317 -27.5178 -27.4980 -27.4825
    -4.7525  -4.7036  -4.6672  -4.6447  -4.6178  -4.5956  -4.5574  -4.5145
     1.9547   2.0105   2.0584   2.1340   2.1663   2.2014   2.2451   2.2951
     3.3057   3.4122   3.5118   3.5967   4.0920   4.1814   4.2553   4.3319
     4.6572   4.7571   4.8484   4.9336   5.3470   5.4253   5.4845   5.5517
     6.9924   7.0463   7.0885   7.1349   9.4303   9.4862   9.5319   9.5854
    10.3067  10.3819  10.4561  10.5593  10.5922  10.6751

          k = 0.2500 0.4330 0.0000 ( 21125 PWs)   bands (ev):

   -53.4668 -53.4266 -53.3874 -53.3524 -27.7696 -27.7279 -27.6885 -27.6550
   -27.6136 -27.6022 -27.5721 -27.5621 -27.5327 -27.5228 -27.4990 -27.4875
    -4.9262  -4.8687  -4.8252  -4.7699  -4.7180  -4.6610  -4.6160  -4.5659
     2.0957   2.1808   2.2547   2.3255   2.3813   2.4098   2.4515   2.4879
     3.6331   3.6744   3.7340   3.7789   3.9827   4.1055   4.2329   4.3224
     4.3967   4.4502   4.4921   4.5345   5.6284   5.6729   5.7167   5.7851
     6.7916   6.8423   6.8820   6.9211   9.2823   9.4315   9.6034   9.7498
    10.1378  10.1856  10.2266  10.3242  10.3497  10.4897

          k = 0.2500 0.5052 0.0000 ( 21117 PWs)   bands (ev):

   -53.4636 -53.4234 -53.3842 -53.3492 -27.7743 -27.7326 -27.6932 -27.6597
   -27.6461 -27.6047 -27.5960 -27.5653 -27.5559 -27.5316 -27.5166 -27.4813
    -4.7243  -4.6754  -4.6405  -4.6197  -4.5920  -4.5705  -4.5341  -4.4921
     2.0708   2.1017   2.1443   2.1881   2.2192   2.2885   2.3462   2.4143
     3.4741   3.5846   3.6550   3.7028   4.0277   4.0853   4.1443   4.2000
     4.2386   4.3092   4.3829   4.4350   5.3505   5.4088   5.4580   5.5260
     7.0333   7.0813   7.1207   7.1586   9.2954   9.3632   9.4220   9.4870
    10.2747  10.3250  10.3770  10.3888  10.5709  10.6298

          k = 0.2500 0.5774 0.0000 ( 21116 PWs)   bands (ev):

   -53.4625 -53.4223 -53.3831 -53.3481 -27.7742 -27.7325 -27.6931 -27.6596
   -27.6594 -27.6179 -27.5938 -27.5786 -27.5538 -27.5449 -27.5144 -27.4791
    -4.6484  -4.6052  -4.5867  -4.5654  -4.5491  -4.5234  -4.5031  -4.4657
     1.9725   2.0015   2.0443   2.0890   2.3071   2.3532   2.3996   2.4619
     3.3213   3.4279   3.5132   3.5804   3.9872   4.0716   4.1539   4.2375
     4.2745   4.3517   4.4186   4.4663   5.2349   5.2874   5.3266   5.3875
     7.1599   7.2094   7.2495   7.2914   9.2270   9.2684   9.3086   9.3444
    10.2962  10.3557  10.3847  10.4383  10.7250  10.7674

          k = 0.3125 0.5413 0.0000 ( 21100 PWs)   bands (ev):

   -53.4619 -53.4217 -53.3825 -53.3475 -27.7531 -27.7114 -27.6878 -27.6720
   -27.6464 -27.6385 -27.6070 -27.5926 -27.5733 -27.5526 -27.5133 -27.4780
    -4.6113  -4.5722  -4.5621  -4.5375  -4.5229  -4.4967  -4.4813  -4.4473
     1.9050   1.9342   1.9778   2.0203   2.5287   2.5896   2.6379   2.7063
     3.3371   3.3516   3.3951   3.4486   3.8187   3.8547   3.8770   3.9114
     4.3239   4.4049   4.4583   4.5176   5.1450   5.2105   5.2536   5.3185
     7.2428   7.2887   7.3280   7.3657   9.1101   9.1536   9.1938   9.2290
    10.2379  10.2794  10.2871  10.3586  10.8219  10.8903

     the Fermi energy is     8.3746 ev

!    total energy              =   -1978.37310898 Ry
     total all-electron energy =    -38771.693954 Ry
     estimated scf accuracy    <          6.8E-09 Ry
     smearing contrib. (-TS)   =       0.00005891 Ry
     internal energy E=F+TS    =   -1978.37316788 Ry

     The total energy is F=E-TS. E is the sum of the following terms:
     one-electron contribution =   -1737.49373924 Ry
     hartree contribution      =     911.02070712 Ry
     xc contribution           =    -119.26260970 Ry
     ewald contribution        =     237.21474529 Ry
     one-center paw contrib.   =   -1269.85227136 Ry

     convergence has been achieved in  40 iterations

     Writing all to output data dir ./tmp/cleave/cleave_dz000_dz0p0/mos2_cleave.save/ :
     XML data file, charge density, pseudopotentials, collected wavefunctions

     init_run     :     85.19s CPU     86.10s WALL (       1 calls)
     electrons    :   4608.83s CPU   4683.25s WALL (       1 calls)

     Called by init_run:
     wfcinit      :     41.13s CPU     41.28s WALL (       1 calls)
     potinit      :     41.88s CPU     42.10s WALL (       1 calls)
     hinit0       :      0.31s CPU      0.33s WALL (       1 calls)

     Called by electrons:
     c_bands      :   3850.00s CPU   3873.58s WALL (      41 calls)
     sum_band     :    576.63s CPU    600.14s WALL (      41 calls)
     v_of_rho     :    111.03s CPU    118.46s WALL (      41 calls)
     newd         :     72.15s CPU     92.43s WALL (      41 calls)
     PAW_pot      :     16.17s CPU     16.18s WALL (      41 calls)
     mix_rho      :     25.57s CPU     25.89s WALL (      41 calls)
     vdW_kernel   :     39.50s CPU     39.51s WALL (       1 calls)

     Called by c_bands:
     init_us_2    :     17.89s CPU     17.91s WALL (    2490 calls)
     init_us_2:cp :     17.88s CPU     17.91s WALL (    2490 calls)
     cegterg      :   3672.59s CPU   3695.92s WALL (    1230 calls)

     Called by *egterg:
     cdiaghg      :     10.69s CPU     10.70s WALL (    4334 calls)
     h_psi        :   1999.65s CPU   2008.73s WALL (    4394 calls)
     s_psi        :    606.16s CPU    606.41s WALL (    4394 calls)
     g_psi        :      9.19s CPU      9.20s WALL (    3134 calls)

     Called by h_psi:
     h_psi:calbec :    784.46s CPU    784.69s WALL (    4394 calls)
     vloc_psi     :    604.86s CPU    605.52s WALL (    4394 calls)
     add_vuspsi   :    606.27s CPU    606.45s WALL (    4394 calls)

     General routines
     calbec       :   1131.69s CPU   1132.03s WALL (    5624 calls)
     fft          :     30.14s CPU     30.16s WALL (    2582 calls)
     ffts         :     12.38s CPU     12.39s WALL (    4253 calls)
     fftw         :    562.13s CPU    562.65s WALL (  420144 calls)
     interpolate  :      0.64s CPU      0.65s WALL (      41 calls)

     Parallel routines

     PWSCF        :      1h18m CPU      1h19m WALL


   This run was terminated on:  17: 1:23   7Jun2026            

=------------------------------------------------------------------------------=
   JOB DONE.
=------------------------------------------------------------------------------=
Note: The following floating-point exceptions are signalling: IEEE_UNDERFLOW_FLAG IEEE_DENORMAL
