Authorization required, but no authorization protocol specified

Authorization required, but no authorization protocol specified

Authorization required, but no authorization protocol specified

Authorization required, but no authorization protocol specified

Authorization required, but no authorization protocol specified

Authorization required, but no authorization protocol specified

Authorization required, but no authorization protocol specified

Authorization required, but no authorization protocol specified


     Program PWSCF v.7.3 starts on  8Jun2026 at  2: 6:57 

     This program is part of the open-source Quantum ESPRESSO suite
     for quantum simulation of materials; please cite
         "P. Giannozzi et al., J. Phys.:Condens. Matter 21 395502 (2009);
         "P. Giannozzi et al., J. Phys.:Condens. Matter 29 465901 (2017);
         "P. Giannozzi et al., J. Chem. Phys. 152 154105 (2020);
          URL http://www.quantum-espresso.org", 
     in publications or presentations arising from this work. More details at
     http://www.quantum-espresso.org/quote

     Parallel version (MPI), running on     1 processors

     MPI processes distributed on     1 nodes
     16781 MiB available memory on the printing compute node when the environment starts

     Waiting for input...
     Reading input from standard input

     Current dimensions of program PWSCF are:
     Max number of different atomic species (ntypx) = 10
     Max number of k-points (npk) =  40000
     Max angular momentum in pseudopotentials (lmaxx) =  4
     file Mo.pbe-spn-kjpaw_psl.1.0.0.UPF: wavefunction(s)  4S 4D renormalized
     file S.pbe-n-kjpaw_psl.1.0.0.UPF: wavefunction(s)  3S 3P renormalized

     IMPORTANT: XC functional enforced from input :
     Exchange-correlation= VDW-DF2-B86R
                           (   1   4  26   0   2   0   0)
     Any further DFT definition will be discarded
     Please, verify this is what you really want


     Subspace diagonalization in iterative solution of the eigenvalue problem:
     a serial algorithm will be used


     G-vector sticks info
     --------------------
     sticks:   dense  smooth     PW     G-vecs:    dense   smooth      PW
     Sum        1573     769    223               478405   168563   26075

     Using Slab Decomposition



     bravais-lattice index     =            4
     lattice parameter (alat)  =       5.9715  a.u.
     unit-cell volume          =    1750.7440 (a.u.)^3
     number of atoms/cell      =           12
     number of atomic types    =            2
     number of electrons       =       104.00
     number of Kohn-Sham states=           62
     kinetic-energy cutoff     =      80.0000  Ry
     charge density cutoff     =     640.0000  Ry
     scf convergence threshold =      1.0E-08
     mixing beta               =       0.2000
     number of iterations used =            8  local-TF  mixing
     Exchange-correlation= VDW-DF2-B86R
                           (   1   4  26   0   2   0   0)

     celldm(1)=   5.971535  celldm(2)=   0.000000  celldm(3)=   9.493671
     celldm(4)=   0.000000  celldm(5)=   0.000000  celldm(6)=   0.000000

     crystal axes: (cart. coord. in units of alat)
               a(1) = (   1.000000   0.000000   0.000000 )  
               a(2) = (  -0.500000   0.866025   0.000000 )  
               a(3) = (   0.000000   0.000000   9.493671 )  

     reciprocal axes: (cart. coord. in units 2 pi/alat)
               b(1) = (  1.000000  0.577350 -0.000000 )  
               b(2) = (  0.000000  1.154701  0.000000 )  
               b(3) = (  0.000000 -0.000000  0.105333 )  


     PseudoPot. # 1 for Mo read from file:
     ./pseudo/Mo.pbe-spn-kjpaw_psl.1.0.0.UPF
     MD5 check sum: 4396e0c640fcce5c25f020efccf1ab12
     Pseudo is Projector augmented-wave + core cor, Zval = 14.0
     Generated using &quot;atomic&quot; code by A. Dal Corso  v.6.3
     Shape of augmentation charge: PSQ
     Using radial grid of 1229 points,  6 beta functions with: 
                l(1) =   0
                l(2) =   0
                l(3) =   1
                l(4) =   1
                l(5) =   2
                l(6) =   2
     Q(r) pseudized with 0 coefficients 


     PseudoPot. # 2 for S  read from file:
     ./pseudo/S.pbe-n-kjpaw_psl.1.0.0.UPF
     MD5 check sum: fb45dfebcf3e72a4e1bd4a866ec2e262
     Pseudo is Projector augmented-wave + core cor, Zval =  6.0
     Generated using &quot;atomic&quot; code by A. Dal Corso  v.6.3
     Shape of augmentation charge: PSQ
     Using radial grid of 1151 points,  6 beta functions with: 
                l(1) =   0
                l(2) =   0
                l(3) =   1
                l(4) =   1
                l(5) =   2
                l(6) =   2
     Q(r) pseudized with 0 coefficients 


     atomic species   valence    mass     pseudopotential
     Mo               14.00    95.96000     Mo( 1.00)
     S                 6.00    32.06000     S ( 1.00)

      6 Sym. Ops. (no inversion) found



   Cartesian axes

     site n.     atom                  positions (alat units)
         1        S      tau(   1) = (  -0.0000005   0.5773503  -0.9967195  )
         2        Mo     tau(   2) = (   0.0000000   0.0000000  -0.4993332  )
         3        S      tau(   3) = (  -0.0000005   0.5773503  -0.0017175  )
         4        S      tau(   4) = (   0.5000003   0.2886747   0.9835827  )
         5        Mo     tau(   5) = (  -0.0000005   0.5773503   1.4818950  )
         6        S      tau(   6) = (   0.5000003   0.2886747   1.9798512  )
         7        S      tau(   7) = (   0.0000000   0.0000000   2.9586848  )
         8        Mo     tau(   8) = (   0.5000003   0.2886747   3.4569999  )
         9        S      tau(   9) = (   0.0000000   0.0000000   3.9548385  )
        10        S      tau(  10) = (  -0.0000005   0.5773503   5.3637996  )
        11        Mo     tau(  11) = (   0.0000000   0.0000000   5.8614362  )
        12        S      tau(  12) = (  -0.0000005   0.5773503   6.3585703  )

     number of k points=    30  Methfessel-Paxton smearing, width (Ry)=  0.0200
                       cart. coord. in units 2pi/alat
        k(    1) = (   0.0000000   0.0000000   0.0000000), wk =   0.0078125
        k(    2) = (   0.0000000   0.0721688   0.0000000), wk =   0.0468750
        k(    3) = (   0.0000000   0.1443376   0.0000000), wk =   0.0468750
        k(    4) = (   0.0000000   0.2165064   0.0000000), wk =   0.0468750
        k(    5) = (   0.0000000   0.2886751   0.0000000), wk =   0.0468750
        k(    6) = (   0.0000000   0.3608439   0.0000000), wk =   0.0468750
        k(    7) = (   0.0000000   0.4330127   0.0000000), wk =   0.0468750
        k(    8) = (   0.0000000   0.5051815   0.0000000), wk =   0.0468750
        k(    9) = (   0.0000000  -0.5773503   0.0000000), wk =   0.0234375
        k(   10) = (   0.0625000   0.1082532   0.0000000), wk =   0.0468750
        k(   11) = (   0.0625000   0.1804220   0.0000000), wk =   0.0937500
        k(   12) = (   0.0625000   0.2525907   0.0000000), wk =   0.0937500
        k(   13) = (   0.0625000   0.3247595   0.0000000), wk =   0.0937500
        k(   14) = (   0.0625000   0.3969283   0.0000000), wk =   0.0937500
        k(   15) = (   0.0625000   0.4690971   0.0000000), wk =   0.0937500
        k(   16) = (   0.0625000   0.5412659   0.0000000), wk =   0.0937500
        k(   17) = (   0.1250000   0.2165064   0.0000000), wk =   0.0468750
        k(   18) = (   0.1250000   0.2886751   0.0000000), wk =   0.0937500
        k(   19) = (   0.1250000   0.3608439   0.0000000), wk =   0.0937500
        k(   20) = (   0.1250000   0.4330127   0.0000000), wk =   0.0937500
        k(   21) = (   0.1250000   0.5051815   0.0000000), wk =   0.0937500
        k(   22) = (   0.1250000   0.5773503   0.0000000), wk =   0.0468750
        k(   23) = (   0.1875000   0.3247595   0.0000000), wk =   0.0468750
        k(   24) = (   0.1875000   0.3969283   0.0000000), wk =   0.0937500
        k(   25) = (   0.1875000   0.4690971   0.0000000), wk =   0.0937500
        k(   26) = (   0.1875000   0.5412659   0.0000000), wk =   0.0937500
        k(   27) = (   0.2500000   0.4330127   0.0000000), wk =   0.0468750
        k(   28) = (   0.2500000   0.5051815   0.0000000), wk =   0.0937500
        k(   29) = (   0.2500000   0.5773503   0.0000000), wk =   0.0468750
        k(   30) = (   0.3125000   0.5412659   0.0000000), wk =   0.0468750

     Dense  grid:   478405 G-vectors     FFT dimensions: (  50,  50, 480)

     Smooth grid:   168563 G-vectors     FFT dimensions: (  36,  36, 324)

     Estimated max dynamical RAM per process >       2.35 GB

     Initial potential from superposition of free atoms

     starting charge     103.9962, renormalised to     104.0000


     %%%%%%%%%%%%%%%%%%%%%%%%%%%%%%%%%%%%%%%%%%%%%%%%%%%%%%%%%%%%%%%%%%%%%%%%
     %                                                                      %
     % You are using vdW-DF, which was implemented by the Thonhauser group. %
     % Please cite the following two papers that made this development      %
     % possible and the two reviews that describe the various versions:     %
     %                                                                      %
     %   T. Thonhauser et al., PRL 115, 136402 (2015).                      %
     %   T. Thonhauser et al., PRB 76, 125112 (2007).                       %
     %   K. Berland et al., Rep. Prog. Phys. 78, 066501 (2015).             %
     %   D.C. Langreth et al., J. Phys.: Condens. Matter 21, 084203 (2009). %
     %                                                                      %
     % If you are calculating stress with vdW-DF, please also cite:         %
     %                                                                      %
     %   R. Sabatini et al., J. Phys.: Condens. Matter 24, 424209 (2012).   %
     %                                                                      %
     %%%%%%%%%%%%%%%%%%%%%%%%%%%%%%%%%%%%%%%%%%%%%%%%%%%%%%%%%%%%%%%%%%%%%%%%

     %%%%%%%%%%%%%%%%%%%%%%%%%%%%%%%%%%%%%%%%%%%%%%%%%%%%%%%%%%%%%%%%%%%%%%%%
     %                                                                      %
     %  vdW-DF NEWS:                                                        %
     %                                                                      %
     %  * vdW-DF3 is now available. DOI: 10.1021/acs.jctc.0c00471           %
     %    use with input_dft = 'vdW-DF3-opt1' or 'vdW-DF3-opt2'             %
     %                                                                      %
     %  * Unscreened and range-separated hybrid vdW-DF-cx functionals       %
     %    DOI: 10.1063/1.4986522 and 10.1088/1361-648X/ac2ad2               %
     %    use with input_dft = 'vdW-DF-cx0'    and 'vdW-DF-ahcx'            %
     %  * Unscreened and range-separated hybrid vdW-DF2-b86r functionals    %
     %    DOI: 10.1063/1.4986522 and DOI: 10.1103/PhysRevX.12.041003        %
     %    use with input_dft = 'vdW-DF2-br0' and 'vdW-DF2-ahbr'             %
     %                                                                      %
     %%%%%%%%%%%%%%%%%%%%%%%%%%%%%%%%%%%%%%%%%%%%%%%%%%%%%%%%%%%%%%%%%%%%%%%%


     Starting wfcs are   72 randomized atomic wfcs
     Checking if some PAW data can be deallocated... 

     total cpu time spent up to now is       86.1 secs

     Self-consistent Calculation

     iteration #  1     ecut=    80.00 Ry     beta= 0.20
     Davidson diagonalization with overlap
     ethr =  1.00E-02,  avg # of iterations =  2.2

     Threshold (ethr) on eigenvalues was too large:
     Diagonalizing with lowered threshold

     Davidson diagonalization with overlap
     ethr =  3.06E-04,  avg # of iterations =  3.0

     total cpu time spent up to now is      340.6 secs

     total energy              =   -1978.46034241 Ry
     estimated scf accuracy    <       0.43636781 Ry

     iteration #  2     ecut=    80.00 Ry     beta= 0.20
     Davidson diagonalization with overlap
     ethr =  4.20E-04,  avg # of iterations =  1.0

     total cpu time spent up to now is      439.2 secs

     total energy              =   -1978.28145915 Ry
     estimated scf accuracy    <       0.36444939 Ry

     iteration #  3     ecut=    80.00 Ry     beta= 0.20
     Davidson diagonalization with overlap
     ethr =  3.50E-04,  avg # of iterations =  2.0

     total cpu time spent up to now is      570.1 secs

     total energy              =   -1978.36167632 Ry
     estimated scf accuracy    <       0.04897895 Ry

     iteration #  4     ecut=    80.00 Ry     beta= 0.20
     Davidson diagonalization with overlap
     ethr =  4.71E-05,  avg # of iterations =  2.2

     total cpu time spent up to now is      696.4 secs

     total energy              =   -1978.36525179 Ry
     estimated scf accuracy    <       0.01568894 Ry

     iteration #  5     ecut=    80.00 Ry     beta= 0.20
     Davidson diagonalization with overlap
     ethr =  1.51E-05,  avg # of iterations =  4.7

     total cpu time spent up to now is      817.9 secs

     total energy              =   -1978.36626233 Ry
     estimated scf accuracy    <       0.00394630 Ry

     iteration #  6     ecut=    80.00 Ry     beta= 0.20
     Davidson diagonalization with overlap
     c_bands:  1 eigenvalues not converged
     c_bands:  1 eigenvalues not converged
     ethr =  3.79E-06,  avg # of iterations =  6.2

     total cpu time spent up to now is      935.1 secs

     total energy              =   -1978.36520415 Ry
     estimated scf accuracy    <       0.00274565 Ry

     iteration #  7     ecut=    80.00 Ry     beta= 0.20
     Davidson diagonalization with overlap
     c_bands:  1 eigenvalues not converged
     ethr =  2.64E-06,  avg # of iterations =  6.1

     total cpu time spent up to now is     1090.7 secs

     total energy              =   -1978.36482398 Ry
     estimated scf accuracy    <       0.00738887 Ry

     iteration #  8     ecut=    80.00 Ry     beta= 0.20
     Davidson diagonalization with overlap
     c_bands:  1 eigenvalues not converged
     ethr =  2.64E-06,  avg # of iterations =  3.4

     total cpu time spent up to now is     1211.9 secs

     total energy              =   -1978.36521865 Ry
     estimated scf accuracy    <       0.00076215 Ry

     iteration #  9     ecut=    80.00 Ry     beta= 0.20
     Davidson diagonalization with overlap
     ethr =  7.33E-07,  avg # of iterations =  7.5

     total cpu time spent up to now is     1360.8 secs

     total energy              =   -1978.36537876 Ry
     estimated scf accuracy    <       0.00184246 Ry

     iteration # 10     ecut=    80.00 Ry     beta= 0.20
     Davidson diagonalization with overlap
     ethr =  7.33E-07,  avg # of iterations =  2.0

     total cpu time spent up to now is     1473.7 secs

     total energy              =   -1978.36537950 Ry
     estimated scf accuracy    <       0.00093914 Ry

     iteration # 11     ecut=    80.00 Ry     beta= 0.20
     Davidson diagonalization with overlap
     ethr =  7.33E-07,  avg # of iterations =  1.0

     total cpu time spent up to now is     1572.2 secs

     total energy              =   -1978.36528061 Ry
     estimated scf accuracy    <       0.00058909 Ry

     iteration # 12     ecut=    80.00 Ry     beta= 0.20
     Davidson diagonalization with overlap
     ethr =  5.66E-07,  avg # of iterations =  2.6

     total cpu time spent up to now is     1685.8 secs

     total energy              =   -1978.36531652 Ry
     estimated scf accuracy    <       0.00007161 Ry

     iteration # 13     ecut=    80.00 Ry     beta= 0.20
     Davidson diagonalization with overlap
     ethr =  6.89E-08,  avg # of iterations =  5.8

     total cpu time spent up to now is     1825.1 secs

     total energy              =   -1978.36532825 Ry
     estimated scf accuracy    <       0.00009919 Ry

     iteration # 14     ecut=    80.00 Ry     beta= 0.20
     Davidson diagonalization with overlap
     ethr =  6.89E-08,  avg # of iterations =  2.2

     total cpu time spent up to now is     1937.7 secs

     total energy              =   -1978.36533624 Ry
     estimated scf accuracy    <       0.00003276 Ry

     iteration # 15     ecut=    80.00 Ry     beta= 0.20
     Davidson diagonalization with overlap
     ethr =  3.15E-08,  avg # of iterations =  2.9

     total cpu time spent up to now is     2053.2 secs

     total energy              =   -1978.36533502 Ry
     estimated scf accuracy    <       0.00003774 Ry

     iteration # 16     ecut=    80.00 Ry     beta= 0.20
     Davidson diagonalization with overlap
     ethr =  3.15E-08,  avg # of iterations =  1.1

     total cpu time spent up to now is     2152.6 secs

     total energy              =   -1978.36533472 Ry
     estimated scf accuracy    <       0.00002833 Ry

     iteration # 17     ecut=    80.00 Ry     beta= 0.20
     Davidson diagonalization with overlap
     ethr =  2.72E-08,  avg # of iterations =  2.3

     total cpu time spent up to now is     2268.0 secs

     total energy              =   -1978.36532328 Ry
     estimated scf accuracy    <       0.00004410 Ry

     iteration # 18     ecut=    80.00 Ry     beta= 0.20
     Davidson diagonalization with overlap
     ethr =  2.72E-08,  avg # of iterations =  4.5

     total cpu time spent up to now is     2420.9 secs

     total energy              =   -1978.36532454 Ry
     estimated scf accuracy    <       0.00010776 Ry

     iteration # 19     ecut=    80.00 Ry     beta= 0.20
     Davidson diagonalization with overlap
     ethr =  2.72E-08,  avg # of iterations =  3.1

     total cpu time spent up to now is     2542.2 secs

     total energy              =   -1978.36533007 Ry
     estimated scf accuracy    <       0.00001973 Ry

     iteration # 20     ecut=    80.00 Ry     beta= 0.20
     Davidson diagonalization with overlap
     ethr =  1.90E-08,  avg # of iterations =  4.3

     total cpu time spent up to now is     2662.6 secs

     total energy              =   -1978.36532999 Ry
     estimated scf accuracy    <       0.00001810 Ry

     iteration # 21     ecut=    80.00 Ry     beta= 0.20
     Davidson diagonalization with overlap
     ethr =  1.74E-08,  avg # of iterations =  2.6

     total cpu time spent up to now is     2777.5 secs

     total energy              =   -1978.36533427 Ry
     estimated scf accuracy    <       0.00001382 Ry

     iteration # 22     ecut=    80.00 Ry     beta= 0.20
     Davidson diagonalization with overlap
     ethr =  1.33E-08,  avg # of iterations =  2.9

     total cpu time spent up to now is     2891.1 secs

     total energy              =   -1978.36533192 Ry
     estimated scf accuracy    <       0.00002533 Ry

     iteration # 23     ecut=    80.00 Ry     beta= 0.20
     Davidson diagonalization with overlap
     ethr =  1.33E-08,  avg # of iterations =  1.4

     total cpu time spent up to now is     2993.4 secs

     total energy              =   -1978.36533084 Ry
     estimated scf accuracy    <       0.00001363 Ry

     iteration # 24     ecut=    80.00 Ry     beta= 0.20
     Davidson diagonalization with overlap
     ethr =  1.31E-08,  avg # of iterations =  1.1

     total cpu time spent up to now is     3092.9 secs

     total energy              =   -1978.36532953 Ry
     estimated scf accuracy    <       0.00000870 Ry

     iteration # 25     ecut=    80.00 Ry     beta= 0.20
     Davidson diagonalization with overlap
     ethr =  8.36E-09,  avg # of iterations =  2.9

     total cpu time spent up to now is     3209.1 secs

     total energy              =   -1978.36533055 Ry
     estimated scf accuracy    <       0.00000550 Ry

     iteration # 26     ecut=    80.00 Ry     beta= 0.20
     Davidson diagonalization with overlap
     ethr =  5.29E-09,  avg # of iterations =  1.0

     total cpu time spent up to now is     3307.6 secs

     total energy              =   -1978.36533001 Ry
     estimated scf accuracy    <       0.00000505 Ry

     iteration # 27     ecut=    80.00 Ry     beta= 0.20
     Davidson diagonalization with overlap
     ethr =  4.86E-09,  avg # of iterations =  2.1

     total cpu time spent up to now is     3422.9 secs

     total energy              =   -1978.36533000 Ry
     estimated scf accuracy    <       0.00000775 Ry

     iteration # 28     ecut=    80.00 Ry     beta= 0.20
     Davidson diagonalization with overlap
     ethr =  4.86E-09,  avg # of iterations =  1.0

     total cpu time spent up to now is     3521.4 secs

     total energy              =   -1978.36532999 Ry
     estimated scf accuracy    <       0.00000479 Ry

     iteration # 29     ecut=    80.00 Ry     beta= 0.20
     Davidson diagonalization with overlap
     ethr =  4.61E-09,  avg # of iterations =  1.4

     total cpu time spent up to now is     3623.7 secs

     total energy              =   -1978.36532964 Ry
     estimated scf accuracy    <       0.00000435 Ry

     iteration # 30     ecut=    80.00 Ry     beta= 0.20
     Davidson diagonalization with overlap
     ethr =  4.18E-09,  avg # of iterations =  2.8

     total cpu time spent up to now is     3743.3 secs

     total energy              =   -1978.36532745 Ry
     estimated scf accuracy    <       0.00000833 Ry

     iteration # 31     ecut=    80.00 Ry     beta= 0.20
     Davidson diagonalization with overlap
     ethr =  4.18E-09,  avg # of iterations =  2.3

     total cpu time spent up to now is     3861.7 secs

     total energy              =   -1978.36532778 Ry
     estimated scf accuracy    <       0.00000158 Ry

     iteration # 32     ecut=    80.00 Ry     beta= 0.20
     Davidson diagonalization with overlap
     ethr =  1.51E-09,  avg # of iterations =  2.8

     total cpu time spent up to now is     3977.0 secs

     total energy              =   -1978.36532794 Ry
     estimated scf accuracy    <       0.00000042 Ry

     iteration # 33     ecut=    80.00 Ry     beta= 0.20
     Davidson diagonalization with overlap
     ethr =  4.02E-10,  avg # of iterations =  5.7

     total cpu time spent up to now is     4101.0 secs

     total energy              =   -1978.36532796 Ry
     estimated scf accuracy    <       0.00000031 Ry

     iteration # 34     ecut=    80.00 Ry     beta= 0.20
     Davidson diagonalization with overlap
     ethr =  3.03E-10,  avg # of iterations =  4.5

     total cpu time spent up to now is     4229.1 secs

     total energy              =   -1978.36532802 Ry
     estimated scf accuracy    <       0.00000047 Ry

     iteration # 35     ecut=    80.00 Ry     beta= 0.20
     Davidson diagonalization with overlap
     ethr =  3.03E-10,  avg # of iterations =  1.9

     total cpu time spent up to now is     4336.2 secs

     total energy              =   -1978.36532797 Ry
     estimated scf accuracy    <       0.00000020 Ry

     iteration # 36     ecut=    80.00 Ry     beta= 0.20
     Davidson diagonalization with overlap
     ethr =  1.95E-10,  avg # of iterations =  3.3

     total cpu time spent up to now is     4457.7 secs

     total energy              =   -1978.36532802 Ry
     estimated scf accuracy    <       0.00000010 Ry

     iteration # 37     ecut=    80.00 Ry     beta= 0.20
     Davidson diagonalization with overlap
     ethr =  9.73E-11,  avg # of iterations =  1.0

     total cpu time spent up to now is     4556.0 secs

     total energy              =   -1978.36532801 Ry
     estimated scf accuracy    <       0.00000008 Ry

     iteration # 38     ecut=    80.00 Ry     beta= 0.20
     Davidson diagonalization with overlap
     ethr =  7.88E-11,  avg # of iterations =  1.1

     total cpu time spent up to now is     4654.8 secs

     total energy              =   -1978.36532801 Ry
     estimated scf accuracy    <       0.00000007 Ry

     iteration # 39     ecut=    80.00 Ry     beta= 0.20
     Davidson diagonalization with overlap
     ethr =  6.62E-11,  avg # of iterations =  1.9

     total cpu time spent up to now is     4762.1 secs

     total energy              =   -1978.36532801 Ry
     estimated scf accuracy    <       0.00000010 Ry

     iteration # 40     ecut=    80.00 Ry     beta= 0.20
     Davidson diagonalization with overlap
     ethr =  6.62E-11,  avg # of iterations =  1.2

     total cpu time spent up to now is     4862.0 secs

     total energy              =   -1978.36532802 Ry
     estimated scf accuracy    <       0.00000007 Ry

     iteration # 41     ecut=    80.00 Ry     beta= 0.20
     Davidson diagonalization with overlap
     ethr =  6.59E-11,  avg # of iterations =  1.8

     total cpu time spent up to now is     4968.0 secs

     total energy              =   -1978.36532800 Ry
     estimated scf accuracy    <       0.00000005 Ry

     iteration # 42     ecut=    80.00 Ry     beta= 0.20
     Davidson diagonalization with overlap
     ethr =  5.08E-11,  avg # of iterations =  2.0

     total cpu time spent up to now is     5078.0 secs

     total energy              =   -1978.36532800 Ry
     estimated scf accuracy    <       0.00000007 Ry

     iteration # 43     ecut=    80.00 Ry     beta= 0.20
     Davidson diagonalization with overlap
     ethr =  5.08E-11,  avg # of iterations =  2.9

     total cpu time spent up to now is     5199.0 secs

     total energy              =   -1978.36532801 Ry
     estimated scf accuracy    <       0.00000005 Ry

     iteration # 44     ecut=    80.00 Ry     beta= 0.20
     Davidson diagonalization with overlap
     ethr =  4.79E-11,  avg # of iterations =  1.8

     total cpu time spent up to now is     5305.4 secs

     total energy              =   -1978.36532801 Ry
     estimated scf accuracy    <       0.00000006 Ry

     iteration # 45     ecut=    80.00 Ry     beta= 0.20
     Davidson diagonalization with overlap
     ethr =  4.79E-11,  avg # of iterations =  1.2

     total cpu time spent up to now is     5405.3 secs

     total energy              =   -1978.36532800 Ry
     estimated scf accuracy    <       0.00000004 Ry

     iteration # 46     ecut=    80.00 Ry     beta= 0.20
     Davidson diagonalization with overlap
     ethr =  4.02E-11,  avg # of iterations =  2.2

     total cpu time spent up to now is     5517.0 secs

     End of self-consistent calculation

          k = 0.0000 0.0000 0.0000 ( 21311 PWs)   bands (ev):

   -53.4934 -53.4674 -53.4539 -53.4125 -27.6673 -27.6411 -27.6285 -27.5869
   -27.4300 -27.4299 -27.4052 -27.4052 -27.3904 -27.3904 -27.3501 -27.3501
    -6.8420  -6.7479  -6.7407  -6.6535  -5.6083  -5.4581  -5.4484  -5.3213
     1.3562   1.6784   1.7402   2.0423   4.7843   4.7843   4.7875   4.8008
     4.8009   4.8213   4.8213   4.8544   4.8545   5.3770   5.5440   5.8988
     5.8988   5.9203   5.9204   5.9356   5.9356   5.9731   5.9731   6.2262
     6.9792   7.2689   7.5380   7.8575  10.1282  10.1282  10.1748  10.1749
    10.1805  10.1805  10.2253  10.2253  10.3465  10.3469

          k = 0.0000 0.0722 0.0000 ( 21283 PWs)   bands (ev):

   -53.4918 -53.4659 -53.4524 -53.4110 -27.6643 -27.6381 -27.6254 -27.5838
   -27.4455 -27.4335 -27.4208 -27.4087 -27.4060 -27.3940 -27.3657 -27.3536
    -6.7824  -6.6885  -6.6813  -6.5944  -5.5806  -5.4330  -5.4233  -5.2982
     1.4251   1.7462   1.8090   2.1102   4.6441   4.6556   4.6666   4.6858
     4.7204   4.8465   4.8634   4.8835   4.9170   5.1405   5.2492   5.5751
     5.8015   5.8237   5.8388   5.8768   5.9962   6.0826   6.1333   6.4654
     6.9822   7.2496   7.5020   7.7772  10.0550  10.0884  10.0952  10.1403
    10.1846  10.2119  10.2159  10.2427  10.2571  10.2815

          k = 0.0000 0.1443 0.0000 ( 21263 PWs)   bands (ev):

   -53.4874 -53.4614 -53.4479 -53.4065 -27.6556 -27.6294 -27.6168 -27.5752
   -27.4896 -27.4649 -27.4500 -27.4435 -27.4188 -27.4098 -27.4040 -27.3637
    -6.6084  -6.5156  -6.5083  -6.4222  -5.5000  -5.3598  -5.3503  -5.2310
     1.6169   1.9331   1.9986   2.2954   4.2946   4.3197   4.3297   4.3425
     4.3805   4.7155   4.7906   5.0255   5.0436   5.0590   5.0627   5.0972
     5.5500   5.5737   5.5885   5.6276   6.0545   6.2144   6.2937   6.6156
     6.9544   7.1564   7.3454   7.5189   9.7507   9.8226   9.8660   9.9270
     9.9733   9.9861  10.0663  10.0688  10.1135  10.1421

          k = 0.0000 0.2165 0.0000 ( 21233 PWs)   bands (ev):

   -53.4808 -53.4548 -53.4413 -53.3999 -27.6427 -27.6164 -27.6038 -27.5622
   -27.5549 -27.5303 -27.5154 -27.4752 -27.4585 -27.4338 -27.4190 -27.3787
    -6.3348  -6.2445  -6.2370  -6.1529  -5.3734  -5.2456  -5.2361  -5.1263
     1.8769   2.1760   2.2439   2.5218   3.8567   3.8951   3.8999   3.9244
     3.9980   4.2474   4.3114   4.5134   5.2230   5.2501   5.2613   5.2962
     5.3069   5.3187   5.3398   5.3740   5.9669   6.1653   6.2437   6.5320
     6.8121   6.9268   7.0222   7.1079   9.3712   9.5126   9.5976   9.8213
     9.8481   9.9274   9.9333   9.9537  10.0066  10.0386

          k = 0.0000 0.2887 0.0000 ( 21197 PWs)   bands (ev):

   -53.4729 -53.4469 -53.4334 -53.3920 -27.6312 -27.6273 -27.6067 -27.6010
   -27.5917 -27.5885 -27.5516 -27.5468 -27.4761 -27.4514 -27.4366 -27.3963
    -5.9872  -5.9014  -5.8939  -5.8135  -5.2135  -5.1026  -5.0927  -4.9959
     2.0771   2.3215   2.3793   2.5865   3.4539   3.5234   3.5735   3.5986
     3.6798   3.7677   3.8614   3.9736   4.8949   4.9223   4.9356   4.9775
     5.6229   5.6482   5.6639   5.7044   5.7519   5.9686   6.0351   6.2866
     6.5403   6.6014   6.6377   6.6958   9.2383   9.4303   9.5289   9.6600
     9.7365   9.7407   9.8139   9.8170  10.1691  10.3022

          k = 0.0000 0.3608 0.0000 ( 21187 PWs)   bands (ev):

   -53.4650 -53.4390 -53.4256 -53.3841 -27.7066 -27.6821 -27.6671 -27.6271
   -27.6119 -27.5856 -27.5731 -27.5314 -27.4937 -27.4690 -27.4542 -27.4139
    -5.6037  -5.5259  -5.5186  -5.4445  -5.0394  -4.9489  -4.9386  -4.8570
     2.0411   2.1916   2.2229   2.3340   3.0886   3.2088   3.2954   3.3754
     3.4465   3.5059   3.5751   3.6670   4.6064   4.6349   4.6480   4.6907
     5.5175   5.7370   5.7917   5.9410   5.9765   5.9891   6.0104   6.0368
     6.3220   6.3789   6.4083   6.4649   9.3571   9.5517   9.5571   9.6221
     9.6254   9.6369   9.6923   9.9069  10.4993  10.6521

          k = 0.0000 0.4330 0.0000 ( 21140 PWs)   bands (ev):

   -53.4584 -53.4324 -53.4189 -53.3774 -27.7698 -27.7454 -27.7304 -27.6904
   -27.5988 -27.5725 -27.5600 -27.5182 -27.5085 -27.4838 -27.4690 -27.4287
    -5.2392  -5.1730  -5.1664  -5.1018  -4.8770  -4.8085  -4.7984  -4.7324
     1.8095   1.8987   1.9184   1.9831   2.7515   2.8602   2.9032   2.9796
     3.3374   3.4475   3.4638   3.5853   4.3855   4.4147   4.4277   4.4710
     5.3433   5.5555   5.6007   5.7947   6.1939   6.2437   6.2535   6.3106
     6.3401   6.4176   6.4451   6.5194   9.5525   9.5998   9.6055   9.6208
     9.6615   9.7812   9.8400  10.0441  10.8113  10.9655

          k = 0.0000 0.5052 0.0000 ( 21078 PWs)   bands (ev):

   -53.4539 -53.4279 -53.4144 -53.3730 -27.8117 -27.7874 -27.7723 -27.7324
   -27.5901 -27.5637 -27.5512 -27.5184 -27.5095 -27.4937 -27.4789 -27.4386
    -4.9659  -4.9132  -4.9077  -4.8541  -4.7577  -4.7086  -4.7006  -4.6463
     1.5822   1.6462   1.6664   1.7146   2.5151   2.5979   2.6356   2.6981
     3.2343   3.3470   3.3592   3.4723   4.2477   4.2774   4.2903   4.3339
     5.2486   5.4521   5.4886   5.6636   6.3468   6.4096   6.4174   6.4832
     6.5284   6.6132   6.6317   6.7076   9.6025   9.6356   9.6450   9.6916
     9.9148  10.0226  10.0526  10.1761  11.0074  11.1416

          k = 0.0000-0.5774 0.0000 ( 21006 PWs)   bands (ev):

   -53.4523 -53.4263 -53.4128 -53.3714 -27.8264 -27.8021 -27.7869 -27.7470
   -27.5870 -27.5607 -27.5481 -27.5218 -27.5064 -27.4972 -27.4823 -27.4421
    -4.8616  -4.8160  -4.8114  -4.7633  -4.7130  -4.6722  -4.6664  -4.6158
     1.4906   1.5489   1.5702   1.6149   2.4306   2.5019   2.5407   2.5988
     3.1862   3.2986   3.3097   3.4199   4.2009   4.2308   4.2437   4.2873
     5.2203   5.4196   5.4522   5.6194   6.3964   6.4644   6.4715   6.5407
     6.6455   6.7177   6.7308   6.7939   9.6315   9.6601   9.6714   9.7148
    10.0722  10.1425  10.1513  10.2190  11.0689  11.1968

          k = 0.0625 0.1083 0.0000 ( 21269 PWs)   bands (ev):

   -53.4888 -53.4629 -53.4494 -53.4080 -27.6584 -27.6322 -27.6196 -27.5780
   -27.4748 -27.4501 -27.4407 -27.4353 -27.4160 -27.4012 -27.3951 -27.3609
    -6.6655  -6.5724  -6.5651  -6.4787  -5.5264  -5.3838  -5.3743  -5.2530
     1.5559   1.8741   1.9388   2.2376   4.4054   4.4278   4.4369   4.4473
     4.4844   4.8471   4.9303   4.9654   4.9827   5.0024   5.0360   5.2241
     5.5867   5.6092   5.6235   5.6618   6.0917   6.2288   6.3020   6.6196
     6.9711   7.1938   7.4072   7.6076   9.8765   9.9098   9.9444   9.9578
     9.9854  10.0126  10.0393  10.1062  10.1430  10.2035

          k = 0.0625 0.1804 0.0000 ( 21194 PWs)   bands (ev):

   -53.4833 -53.4573 -53.4438 -53.4024 -27.6476 -27.6214 -27.6088 -27.5671
   -27.5283 -27.5037 -27.4888 -27.4544 -27.4486 -27.4297 -27.4149 -27.3746
    -6.4416  -6.3502  -6.3427  -6.2578  -5.4226  -5.2899  -5.2805  -5.1669
     1.7859   2.0944   2.1621   2.4511   4.0216   4.0496   4.0570   4.0873
     4.1473   4.4569   4.5248   4.7650   5.1808   5.2004   5.2096   5.2297
     5.2438   5.2460   5.2667   5.2964   6.1423   6.3069   6.3840   6.6591
     6.8890   7.0311   7.1665   7.2694   9.4815   9.5942   9.6598   9.8107
     9.8506   9.9098   9.9268   9.9808   9.9979  10.0199

          k = 0.0625 0.2526 0.0000 ( 21202 PWs)   bands (ev):

   -53.4761 -53.4501 -53.4366 -53.3952 -27.6335 -27.6072 -27.5975 -27.5946
   -27.5730 -27.5580 -27.5529 -27.5179 -27.4724 -27.4477 -27.4329 -27.3926
    -6.1304  -6.0425  -6.0349  -5.9528  -5.2788  -5.1607  -5.1510  -5.0487
     2.0297   2.3057   2.3715   2.6198   3.6262   3.6739   3.6875   3.7115
     3.8184   4.0152   4.0846   4.2409   4.8417   4.8697   4.8858   4.9297
     5.4488   5.4725   5.4874   5.5266   6.0401   6.2120   6.2770   6.5049
     6.6797   6.7469   6.8012   6.8559   9.2175   9.3889   9.4734   9.6521
     9.7796   9.8150   9.8486   9.8818   9.9721  10.0584

          k = 0.0625 0.3248 0.0000 ( 21194 PWs)   bands (ev):

   -53.4682 -53.4422 -53.4287 -53.3873 -27.6715 -27.6471 -27.6321 -27.6181
   -27.5920 -27.5918 -27.5792 -27.5375 -27.4917 -27.4671 -27.4522 -27.4120
    -5.7633  -5.6816  -5.6742  -5.5971  -5.1104  -5.0110  -5.0008  -4.9126
     2.1196   2.3145   2.3576   2.5089   3.2850   3.3751   3.4866   3.5346
     3.5495   3.5724   3.7056   3.7399   4.5345   4.5770   4.5946   4.6495
     5.6814   5.7158   5.7211   5.7662   5.8292   5.9915   6.0426   6.2360
     6.4533   6.4951   6.5160   6.5653   9.1823   9.3669   9.4361   9.5659
     9.7095   9.7497   9.7837   9.9047  10.2303  10.3625

          k = 0.0625 0.3969 0.0000 ( 21151 PWs)   bands (ev):

   -53.4609 -53.4349 -53.4214 -53.3800 -27.7392 -27.7148 -27.6998 -27.6597
   -27.6039 -27.5775 -27.5650 -27.5233 -27.5096 -27.4849 -27.4701 -27.4298
    -5.3861  -5.3143  -5.3073  -5.2382  -4.9398  -4.8617  -4.8513  -4.7787
     1.9662   2.0805   2.1034   2.1864   2.9165   3.0269   3.0746   3.1489
     3.4090   3.5105   3.5299   3.6543   4.3352   4.3830   4.3981   4.4534
     5.5664   5.7351   5.7773   5.8295   5.8633   5.8789   5.8979   5.9916
     6.4640   6.4991   6.5154   6.5613   9.3180   9.4661   9.5071   9.5958
     9.7525   9.8029   9.8334   9.9899  10.5719  10.7106

          k = 0.0625 0.4691 0.0000 ( 21105 PWs)   bands (ev):

   -53.4553 -53.4293 -53.4159 -53.3744 -27.7905 -27.7662 -27.7511 -27.7111
   -27.5929 -27.5666 -27.5541 -27.5232 -27.5123 -27.4985 -27.4837 -27.4434
    -5.0620  -5.0034  -4.9973  -4.9388  -4.7957  -4.7390  -4.7297  -4.6710
     1.7298   1.8039   1.8234   1.8781   2.6013   2.6853   2.7183   2.7795
     3.3064   3.4203   3.4350   3.5505   4.2290   4.2702   4.2788   4.3291
     5.3753   5.5505   5.5853   5.7374   5.9488   6.0017   6.0084   6.0752
     6.6369   6.6789   6.6926   6.7448   9.5130   9.5961   9.6129   9.6713
     9.8888   9.9594   9.9877  10.1179  10.8887  11.0326

          k = 0.0625 0.5413 0.0000 ( 21084 PWs)   bands (ev):

   -53.4523 -53.4263 -53.4129 -53.3714 -27.8181 -27.7938 -27.7787 -27.7388
   -27.5870 -27.5607 -27.5482 -27.5305 -27.5064 -27.5059 -27.4910 -27.4508
    -4.8676  -4.8206  -4.8157  -4.7669  -4.7107  -4.6689  -4.6624  -4.6115
     1.5705   1.6297   1.6514   1.6967   2.4236   2.4899   2.5231   2.5784
     3.2171   3.3319   3.3442   3.4544   4.1876   4.2195   4.2234   4.2696
     5.2705   5.4504   5.4799   5.6306   6.0380   6.1044   6.1072   6.1733
     6.7902   6.8428   6.8537   6.9110   9.6298   9.6632   9.6679   9.7118
    10.0661  10.1384  10.1529  10.2316  11.1152  11.2299

          k = 0.1250 0.2165 0.0000 ( 21179 PWs)   bands (ev):

   -53.4772 -53.4512 -53.4377 -53.3963 -27.6356 -27.6094 -27.5968 -27.5835
   -27.5589 -27.5551 -27.5440 -27.5038 -27.4732 -27.4485 -27.4337 -27.3934
    -6.1796  -6.0910  -6.0834  -6.0007  -5.3011  -5.1805  -5.1709  -5.0667
     2.0105   2.2970   2.3651   2.6277   3.7004   3.7326   3.7413   3.7741
     3.9151   4.1736   4.2424   4.4282   4.7039   4.7265   4.7479   4.7887
     5.3695   5.3927   5.4065   5.4455   6.2256   6.3736   6.4383   6.6383
     6.7436   6.8073   6.8780   6.9247   9.2057   9.3663   9.4422   9.6116
     9.7657   9.8000   9.8471   9.8525   9.9052   9.9177

          k = 0.1250 0.2887 0.0000 ( 21199 PWs)   bands (ev):

   -53.4699 -53.4439 -53.4304 -53.3890 -27.6468 -27.6223 -27.6214 -27.6074
   -27.5951 -27.5826 -27.5673 -27.5409 -27.4965 -27.4718 -27.4570 -27.4168
    -5.8473  -5.7638  -5.7563  -5.6777  -5.1472  -5.0431  -5.0330  -4.9412
     2.1677   2.3951   2.4476   2.6332   3.4444   3.4947   3.5625   3.5990
     3.6878   3.7790   3.8635   3.9223   4.2681   4.3309   4.3640   4.4713
     5.4718   5.5050   5.5117   5.5572   6.1533   6.2804   6.3276   6.4745
     6.5595   6.5817   6.5951   6.6389   9.0478   9.2390   9.3138   9.4863
     9.7694   9.7928   9.8206   9.8892   9.9838  10.0655

          k = 0.1250 0.3608 0.0000 ( 21195 PWs)   bands (ev):

   -53.4626 -53.4366 -53.4232 -53.3817 -27.7091 -27.6846 -27.6696 -27.6296
   -27.6072 -27.5809 -27.5684 -27.5266 -27.5202 -27.4956 -27.4807 -27.4405
    -5.4823  -5.4072  -5.4000  -5.3281  -4.9791  -4.8946  -4.8841  -4.8069
     2.1214   2.2662   2.2943   2.4013   3.1166   3.2058   3.2541   3.3018
     3.5010   3.5854   3.6029   3.7194   4.0712   4.1797   4.2246   4.3395
     5.4126   5.4574   5.4590   5.5097   5.9339   6.0434   6.0773   6.1920
     6.5185   6.5479   6.5569   6.6015   9.0856   9.2920   9.3636   9.5547
     9.8410   9.8733   9.8931   9.9765  10.2283  10.3529

          k = 0.1250 0.4330 0.0000 ( 21113 PWs)   bands (ev):

   -53.4565 -53.4304 -53.4170 -53.3755 -27.7612 -27.7368 -27.7217 -27.6818
   -27.5951 -27.5688 -27.5563 -27.5404 -27.5157 -27.5145 -27.5009 -27.4607
    -5.1378  -5.0745  -5.0680  -5.0058  -4.8216  -4.7584  -4.7483  -4.6856
     1.9420   2.0354   2.0550   2.1232   2.7058   2.7689   2.7923   2.8399
     3.4303   3.5397   3.5686   3.6732   4.0420   4.1523   4.1822   4.2823
     5.3557   5.4224   5.4287   5.4932   5.6597   5.7659   5.7913   5.8985
     6.6572   6.6875   6.6986   6.7433   9.2946   9.4864   9.5458   9.7243
     9.9517   9.9806  10.0024  10.0600  10.5436  10.6836

          k = 0.1250 0.5052 0.0000 ( 21081 PWs)   bands (ev):

   -53.4523 -53.4263 -53.4129 -53.3714 -27.7957 -27.7714 -27.7563 -27.7164
   -27.5870 -27.5607 -27.5539 -27.5482 -27.5293 -27.5144 -27.5064 -27.4742
    -4.8816  -4.8316  -4.8262  -4.7754  -4.7052  -4.6609  -4.6531  -4.6011
     1.7799   1.8457   1.8675   1.9171   2.4117   2.4609   2.4832   2.5308
     3.3116   3.4314   3.4494   3.5535   4.0916   4.1788   4.1904   4.2624
     5.3496   5.4388   5.4776   5.4850   5.5282   5.5559   5.5748   5.6871
     6.8424   6.8838   6.8958   6.9474   9.5169   9.6196   9.6432   9.7252
    10.0998  10.1600  10.1765  10.2616  10.8237  10.9323

          k = 0.1250 0.5774 0.0000 ( 21108 PWs)   bands (ev):

   -53.4509 -53.4249 -53.4114 -53.3700 -27.8078 -27.7835 -27.7684 -27.7285
   -27.5842 -27.5586 -27.5578 -27.5453 -27.5340 -27.5191 -27.5036 -27.4789
    -4.7843  -4.7410  -4.7367  -4.6925  -4.6609  -4.6253  -4.6197  -4.5711
     1.7172   1.7729   1.7976   1.8413   2.3069   2.3521   2.3749   2.4229
     3.2516   3.3722   3.3870   3.4923   4.1409   4.1942   4.2016   4.2547
     5.2935   5.4276   5.4535   5.4750   5.5065   5.5103   5.5559   5.6308
     6.9339   6.9840   6.9960   7.0533   9.5972   9.6299   9.6352   9.6807
    10.2105  10.2877  10.2994  10.3601  10.9380  11.0513

          k = 0.1875 0.3248 0.0000 ( 21195 PWs)   bands (ev):

   -53.4632 -53.4372 -53.4238 -53.3823 -27.6955 -27.6710 -27.6560 -27.6160
   -27.6084 -27.5821 -27.5695 -27.5278 -27.5270 -27.5023 -27.4875 -27.4472
    -5.5157  -5.4395  -5.4322  -5.3594  -4.9924  -4.9057  -4.8952  -4.8163
     2.1873   2.3477   2.3787   2.4986   3.2454   3.3137   3.3574   3.3739
     3.5443   3.6199   3.6381   3.7195   3.9264   4.0507   4.1265   4.2706
     5.2388   5.2831   5.2843   5.3358   6.0991   6.1842   6.2156   6.3008
     6.5239   6.5582   6.5659   6.6141   8.9971   9.2224   9.3024   9.5290
     9.8659   9.8862   9.9105   9.9620  10.0822  10.1835

          k = 0.1875 0.3969 0.0000 ( 21153 PWs)   bands (ev):

   -53.4571 -53.4311 -53.4176 -53.3761 -27.7374 -27.7130 -27.6980 -27.6579
   -27.5963 -27.5700 -27.5578 -27.5575 -27.5332 -27.5183 -27.5157 -27.4781
    -5.1793  -5.1136  -5.1068  -5.0427  -4.8345  -4.7676  -4.7571  -4.6920
     2.1025   2.2163   2.2363   2.3202   2.8009   2.8293   2.8482   2.8820
     3.5657   3.6391   3.7176   3.7676   3.9272   4.0378   4.1144   4.2448
     4.9193   4.9748   4.9770   5.0350   5.8734   5.9346   5.9591   6.0184
     6.6267   6.6621   6.6745   6.7250   9.1526   9.3959   9.4774   9.7592
     9.9804  10.0084  10.0141  10.0588  10.2682  10.3841

          k = 0.1875 0.4691 0.0000 ( 21101 PWs)   bands (ev):

   -53.4523 -53.4263 -53.4129 -53.3714 -27.7679 -27.7435 -27.7285 -27.6885
   -27.5871 -27.5827 -27.5607 -27.5581 -27.5482 -27.5432 -27.5064 -27.5031
    -4.8951  -4.8424  -4.8365  -4.7838  -4.6998  -4.6529  -4.6440  -4.5907
     2.0172   2.1016   2.1224   2.1836   2.4055   2.4332   2.4465   2.4871
     3.4805   3.6020   3.6316   3.6994   3.9895   4.1270   4.1569   4.2766
     4.7329   4.8222   4.8295   4.9195   5.5728   5.6527   5.6660   5.7319
     6.8280   6.8589   6.8726   6.9184   9.3730   9.5382   9.5810   9.7256
    10.1420  10.1948  10.2106  10.2963  10.4850  10.5985

          k = 0.1875 0.5413 0.0000 ( 21112 PWs)   bands (ev):

   -53.4498 -53.4238 -53.4103 -53.3688 -27.7839 -27.7595 -27.7444 -27.7045
   -27.5967 -27.5821 -27.5721 -27.5572 -27.5557 -27.5432 -27.5170 -27.5014
    -4.7272  -4.6851  -4.6809  -4.6412  -4.6174  -4.5870  -4.5811  -4.5341
     1.9811   2.0375   2.0697   2.1147   2.1901   2.2202   2.2292   2.2759
     3.3376   3.4656   3.4817   3.5758   4.1198   4.2196   4.2323   4.3097
     4.6879   4.8039   4.8112   4.9095   5.3643   5.4475   5.4575   5.5316
     7.0111   7.0504   7.0632   7.1150   9.4475   9.4996   9.5090   9.5647
    10.3269  10.4178  10.4624  10.5383  10.6041  10.6974

          k = 0.2500 0.4330 0.0000 ( 21125 PWs)   bands (ev):

   -53.4523 -53.4263 -53.4129 -53.3714 -27.7534 -27.7290 -27.7139 -27.6740
   -27.5977 -27.5871 -27.5731 -27.5607 -27.5582 -27.5482 -27.5180 -27.5065
    -4.9006  -4.8468  -4.8408  -4.7872  -4.6976  -4.6496  -4.6403  -4.5864
     2.1254   2.2237   2.2435   2.3097   2.4052   2.4268   2.4321   2.4691
     3.6632   3.7036   3.7868   3.8070   3.9953   4.1051   4.1650   4.2941
     4.4197   4.4636   4.4700   4.5143   5.6455   5.6896   5.7139   5.7664
     6.8115   6.8412   6.8567   6.9018   9.3125   9.4985   9.5495   9.7173
    10.1535  10.2005  10.2205  10.3041  10.3562  10.5003

          k = 0.2500 0.5052 0.0000 ( 21117 PWs)   bands (ev):

   -53.4492 -53.4232 -53.4097 -53.3682 -27.7581 -27.7338 -27.7187 -27.6787
   -27.6302 -27.6057 -27.5907 -27.5809 -27.5545 -27.5506 -27.5420 -27.5003
    -4.6991  -4.6569  -4.6527  -4.6155  -4.5918  -4.5643  -4.5576  -4.5117
     2.0975   2.1212   2.1397   2.1702   2.2451   2.3203   2.3309   2.3935
     3.5079   3.6339   3.6476   3.6899   4.0561   4.1223   4.1925   4.2048
     4.2447   4.2655   4.3394   4.4092   5.3675   5.4293   5.4414   5.5062
     7.0522   7.0812   7.0955   7.1395   9.3141   9.3832   9.3960   9.4653
    10.2946  10.3601  10.3817  10.4555  10.5602  10.5929

          k = 0.2500 0.5774 0.0000 ( 21116 PWs)   bands (ev):

   -53.4481 -53.4220 -53.4086 -53.3671 -27.7580 -27.7336 -27.7185 -27.6786
   -27.6435 -27.6189 -27.6040 -27.5787 -27.5638 -27.5523 -27.5399 -27.4981
    -4.6234  -4.5872  -4.5845  -4.5658  -4.5449  -4.5330  -4.5257  -4.4847
     1.9983   2.0204   2.0357   2.0700   2.3312   2.3788   2.4004   2.4423
     3.3535   3.4752   3.4857   3.5622   4.0189   4.1238   4.1730   4.2204
     4.2960   4.3552   4.3861   4.4419   5.2491   5.3003   5.3059   5.3688
     7.1783   7.2114   7.2244   7.2719   9.2466   9.2733   9.2837   9.3252
    10.3189  10.3828  10.4178  10.4599  10.7308  10.7624

          k = 0.3125 0.5413 0.0000 ( 21100 PWs)   bands (ev):

   -53.4475 -53.4214 -53.4080 -53.3665 -27.7369 -27.7126 -27.6975 -27.6719
   -27.6575 -27.6473 -27.6324 -27.5923 -27.5776 -27.5512 -27.5387 -27.4969
    -4.5864  -4.5532  -4.5508  -4.5419  -4.5201  -4.5131  -4.5022  -4.4660
     1.9309   1.9525   1.9642   2.0014   2.5548   2.6173   2.6378   2.6864
     3.3619   3.3758   3.4215   3.4311   3.8413   3.8743   3.8891   3.8924
     4.3473   4.4274   4.4348   4.4968   5.1606   5.2255   5.2279   5.2991
     7.2610   7.2897   7.3028   7.3468   9.1306   9.1561   9.1689   9.2097
    10.2564  10.2892  10.3384  10.3699  10.8256  10.8867

     the Fermi energy is     8.3635 ev

!    total energy              =   -1978.36532799 Ry
     total all-electron energy =    -38771.686173 Ry
     estimated scf accuracy    <          9.9E-09 Ry
     smearing contrib. (-TS)   =       0.00003448 Ry
     internal energy E=F+TS    =   -1978.36536247 Ry

     The total energy is F=E-TS. E is the sum of the following terms:
     one-electron contribution =   -1197.72857912 Ry
     hartree contribution      =     641.10989120 Ry
     xc contribution           =    -119.22878941 Ry
     ewald contribution        =     -32.66586303 Ry
     one-center paw contrib.   =   -1269.85202212 Ry

     convergence has been achieved in  46 iterations

     Writing all to output data dir ./tmp/cleave/cleave_dz007_dz1p4/mos2_cleave.save/ :
     XML data file, charge density, pseudopotentials, collected wavefunctions

     init_run     :     85.02s CPU     85.99s WALL (       1 calls)
     electrons    :   5341.39s CPU   5430.88s WALL (       1 calls)

     Called by init_run:
     wfcinit      :     41.18s CPU     41.31s WALL (       1 calls)
     potinit      :     41.65s CPU     41.91s WALL (       1 calls)
     hinit0       :      0.31s CPU      0.33s WALL (       1 calls)

     Called by electrons:
     c_bands      :   4486.96s CPU   4514.72s WALL (      47 calls)
     sum_band     :    658.76s CPU    687.32s WALL (      47 calls)
     v_of_rho     :    120.85s CPU    129.88s WALL (      47 calls)
     newd         :     82.81s CPU    107.39s WALL (      47 calls)
     PAW_pot      :     18.52s CPU     18.52s WALL (      47 calls)
     mix_rho      :     15.86s CPU     16.22s WALL (      47 calls)
     vdW_kernel   :     39.51s CPU     39.52s WALL (       1 calls)

     Called by c_bands:
     init_us_2    :     20.48s CPU     20.51s WALL (    2850 calls)
     init_us_2:cp :     20.47s CPU     20.50s WALL (    2850 calls)
     cegterg      :   4283.27s CPU   4310.73s WALL (    1410 calls)

     Called by *egterg:
     cdiaghg      :     12.71s CPU     12.72s WALL (    5177 calls)
     h_psi        :   2313.55s CPU   2323.97s WALL (    5237 calls)
     s_psi        :    704.90s CPU    705.21s WALL (    5237 calls)
     g_psi        :     10.80s CPU     10.81s WALL (    3797 calls)

     Called by h_psi:
     h_psi:calbec :    910.61s CPU    910.88s WALL (    5237 calls)
     vloc_psi     :    692.93s CPU    693.69s WALL (    5237 calls)
     add_vuspsi   :    705.29s CPU    705.50s WALL (    5237 calls)

     General routines
     calbec       :   1309.23s CPU   1309.64s WALL (    6647 calls)
     fft          :     34.29s CPU     34.30s WALL (    2960 calls)
     ffts         :      7.50s CPU      7.50s WALL (    2577 calls)
     fftw         :    644.60s CPU    645.21s WALL (  486342 calls)
     interpolate  :      0.73s CPU      0.74s WALL (      47 calls)

     Parallel routines

     PWSCF        :      1h30m CPU      1h31m WALL


   This run was terminated on:   3:38:54   8Jun2026            

=------------------------------------------------------------------------------=
   JOB DONE.
=------------------------------------------------------------------------------=
Note: The following floating-point exceptions are signalling: IEEE_UNDERFLOW_FLAG IEEE_DENORMAL
