Authorization required, but no authorization protocol specified

Authorization required, but no authorization protocol specified

Authorization required, but no authorization protocol specified

Authorization required, but no authorization protocol specified

Authorization required, but no authorization protocol specified

Authorization required, but no authorization protocol specified

Authorization required, but no authorization protocol specified

Authorization required, but no authorization protocol specified


     Program PWSCF v.7.3 starts on  9Jun2026 at 15:21:35 

     This program is part of the open-source Quantum ESPRESSO suite
     for quantum simulation of materials; please cite
         "P. Giannozzi et al., J. Phys.:Condens. Matter 21 395502 (2009);
         "P. Giannozzi et al., J. Phys.:Condens. Matter 29 465901 (2017);
         "P. Giannozzi et al., J. Chem. Phys. 152 154105 (2020);
          URL http://www.quantum-espresso.org", 
     in publications or presentations arising from this work. More details at
     http://www.quantum-espresso.org/quote

     Parallel version (MPI), running on     1 processors

     MPI processes distributed on     1 nodes
     74998 MiB available memory on the printing compute node when the environment starts

     Waiting for input...
     Reading input from standard input

     Current dimensions of program PWSCF are:
     Max number of different atomic species (ntypx) = 10
     Max number of k-points (npk) =  40000
     Max angular momentum in pseudopotentials (lmaxx) =  4
     file Mo.pbe-spn-kjpaw_psl.1.0.0.UPF: wavefunction(s)  4S 4D renormalized
     file S.pbe-n-kjpaw_psl.1.0.0.UPF: wavefunction(s)  3S 3P renormalized

     IMPORTANT: XC functional enforced from input :
     Exchange-correlation= VDW-DF2-B86R
                           (   1   4  26   0   2   0   0)
     Any further DFT definition will be discarded
     Please, verify this is what you really want


     Subspace diagonalization in iterative solution of the eigenvalue problem:
     a serial algorithm will be used


     G-vector sticks info
     --------------------
     sticks:   dense  smooth     PW     G-vecs:    dense   smooth      PW
     Sum        1573     769    223               478405   168563   26075

     Using Slab Decomposition



     bravais-lattice index     =            4
     lattice parameter (alat)  =       5.9715  a.u.
     unit-cell volume          =    1750.7440 (a.u.)^3
     number of atoms/cell      =           12
     number of atomic types    =            2
     number of electrons       =       104.00
     number of Kohn-Sham states=           62
     kinetic-energy cutoff     =      80.0000  Ry
     charge density cutoff     =     640.0000  Ry
     scf convergence threshold =      1.0E-08
     mixing beta               =       0.2000
     number of iterations used =            8  local-TF  mixing
     Exchange-correlation= VDW-DF2-B86R
                           (   1   4  26   0   2   0   0)

     celldm(1)=   5.971535  celldm(2)=   0.000000  celldm(3)=   9.493671
     celldm(4)=   0.000000  celldm(5)=   0.000000  celldm(6)=   0.000000

     crystal axes: (cart. coord. in units of alat)
               a(1) = (   1.000000   0.000000   0.000000 )  
               a(2) = (  -0.500000   0.866025   0.000000 )  
               a(3) = (   0.000000   0.000000   9.493671 )  

     reciprocal axes: (cart. coord. in units 2 pi/alat)
               b(1) = (  1.000000  0.577350 -0.000000 )  
               b(2) = (  0.000000  1.154701  0.000000 )  
               b(3) = (  0.000000 -0.000000  0.105333 )  


     PseudoPot. # 1 for Mo read from file:
     ./pseudo/Mo.pbe-spn-kjpaw_psl.1.0.0.UPF
     MD5 check sum: 4396e0c640fcce5c25f020efccf1ab12
     Pseudo is Projector augmented-wave + core cor, Zval = 14.0
     Generated using &quot;atomic&quot; code by A. Dal Corso  v.6.3
     Shape of augmentation charge: PSQ
     Using radial grid of 1229 points,  6 beta functions with: 
                l(1) =   0
                l(2) =   0
                l(3) =   1
                l(4) =   1
                l(5) =   2
                l(6) =   2
     Q(r) pseudized with 0 coefficients 


     PseudoPot. # 2 for S  read from file:
     ./pseudo/S.pbe-n-kjpaw_psl.1.0.0.UPF
     MD5 check sum: fb45dfebcf3e72a4e1bd4a866ec2e262
     Pseudo is Projector augmented-wave + core cor, Zval =  6.0
     Generated using &quot;atomic&quot; code by A. Dal Corso  v.6.3
     Shape of augmentation charge: PSQ
     Using radial grid of 1151 points,  6 beta functions with: 
                l(1) =   0
                l(2) =   0
                l(3) =   1
                l(4) =   1
                l(5) =   2
                l(6) =   2
     Q(r) pseudized with 0 coefficients 


     atomic species   valence    mass     pseudopotential
     Mo               14.00    95.96000     Mo( 1.00)
     S                 6.00    32.06000     S ( 1.00)

      6 Sym. Ops. (no inversion) found



   Cartesian axes

     site n.     atom                  positions (alat units)
         1        S      tau(   1) = (  -0.0000005   0.5773503  -0.9967195  )
         2        Mo     tau(   2) = (   0.0000000   0.0000000  -0.4993332  )
         3        S      tau(   3) = (  -0.0000005   0.5773503  -0.0017175  )
         4        S      tau(   4) = (   0.5000003   0.2886747   0.9835827  )
         5        Mo     tau(   5) = (  -0.0000005   0.5773503   1.4818950  )
         6        S      tau(   6) = (   0.5000003   0.2886747   1.9798512  )
         7        S      tau(   7) = (   0.0000000   0.0000000   2.9586848  )
         8        Mo     tau(   8) = (   0.5000003   0.2886747   3.4569999  )
         9        S      tau(   9) = (   0.0000000   0.0000000   3.9548385  )
        10        S      tau(  10) = (  -0.0000005   0.5773503   7.1359515  )
        11        Mo     tau(  11) = (   0.0000000   0.0000000   7.6335881  )
        12        S      tau(  12) = (  -0.0000005   0.5773503   8.1307222  )

     number of k points=    30  Methfessel-Paxton smearing, width (Ry)=  0.0200
                       cart. coord. in units 2pi/alat
        k(    1) = (   0.0000000   0.0000000   0.0000000), wk =   0.0078125
        k(    2) = (   0.0000000   0.0721688   0.0000000), wk =   0.0468750
        k(    3) = (   0.0000000   0.1443376   0.0000000), wk =   0.0468750
        k(    4) = (   0.0000000   0.2165064   0.0000000), wk =   0.0468750
        k(    5) = (   0.0000000   0.2886751   0.0000000), wk =   0.0468750
        k(    6) = (   0.0000000   0.3608439   0.0000000), wk =   0.0468750
        k(    7) = (   0.0000000   0.4330127   0.0000000), wk =   0.0468750
        k(    8) = (   0.0000000   0.5051815   0.0000000), wk =   0.0468750
        k(    9) = (   0.0000000  -0.5773503   0.0000000), wk =   0.0234375
        k(   10) = (   0.0625000   0.1082532   0.0000000), wk =   0.0468750
        k(   11) = (   0.0625000   0.1804220   0.0000000), wk =   0.0937500
        k(   12) = (   0.0625000   0.2525907   0.0000000), wk =   0.0937500
        k(   13) = (   0.0625000   0.3247595   0.0000000), wk =   0.0937500
        k(   14) = (   0.0625000   0.3969283   0.0000000), wk =   0.0937500
        k(   15) = (   0.0625000   0.4690971   0.0000000), wk =   0.0937500
        k(   16) = (   0.0625000   0.5412659   0.0000000), wk =   0.0937500
        k(   17) = (   0.1250000   0.2165064   0.0000000), wk =   0.0468750
        k(   18) = (   0.1250000   0.2886751   0.0000000), wk =   0.0937500
        k(   19) = (   0.1250000   0.3608439   0.0000000), wk =   0.0937500
        k(   20) = (   0.1250000   0.4330127   0.0000000), wk =   0.0937500
        k(   21) = (   0.1250000   0.5051815   0.0000000), wk =   0.0937500
        k(   22) = (   0.1250000   0.5773503   0.0000000), wk =   0.0468750
        k(   23) = (   0.1875000   0.3247595   0.0000000), wk =   0.0468750
        k(   24) = (   0.1875000   0.3969283   0.0000000), wk =   0.0937500
        k(   25) = (   0.1875000   0.4690971   0.0000000), wk =   0.0937500
        k(   26) = (   0.1875000   0.5412659   0.0000000), wk =   0.0937500
        k(   27) = (   0.2500000   0.4330127   0.0000000), wk =   0.0468750
        k(   28) = (   0.2500000   0.5051815   0.0000000), wk =   0.0937500
        k(   29) = (   0.2500000   0.5773503   0.0000000), wk =   0.0468750
        k(   30) = (   0.3125000   0.5412659   0.0000000), wk =   0.0468750

     Dense  grid:   478405 G-vectors     FFT dimensions: (  50,  50, 480)

     Smooth grid:   168563 G-vectors     FFT dimensions: (  36,  36, 324)

     Estimated max dynamical RAM per process >       2.35 GB

     Initial potential from superposition of free atoms

     starting charge     103.9962, renormalised to     104.0000

     negative rho (up, down):  1.119E-05 0.000E+00


     %%%%%%%%%%%%%%%%%%%%%%%%%%%%%%%%%%%%%%%%%%%%%%%%%%%%%%%%%%%%%%%%%%%%%%%%
     %                                                                      %
     % You are using vdW-DF, which was implemented by the Thonhauser group. %
     % Please cite the following two papers that made this development      %
     % possible and the two reviews that describe the various versions:     %
     %                                                                      %
     %   T. Thonhauser et al., PRL 115, 136402 (2015).                      %
     %   T. Thonhauser et al., PRB 76, 125112 (2007).                       %
     %   K. Berland et al., Rep. Prog. Phys. 78, 066501 (2015).             %
     %   D.C. Langreth et al., J. Phys.: Condens. Matter 21, 084203 (2009). %
     %                                                                      %
     % If you are calculating stress with vdW-DF, please also cite:         %
     %                                                                      %
     %   R. Sabatini et al., J. Phys.: Condens. Matter 24, 424209 (2012).   %
     %                                                                      %
     %%%%%%%%%%%%%%%%%%%%%%%%%%%%%%%%%%%%%%%%%%%%%%%%%%%%%%%%%%%%%%%%%%%%%%%%

     %%%%%%%%%%%%%%%%%%%%%%%%%%%%%%%%%%%%%%%%%%%%%%%%%%%%%%%%%%%%%%%%%%%%%%%%
     %                                                                      %
     %  vdW-DF NEWS:                                                        %
     %                                                                      %
     %  * vdW-DF3 is now available. DOI: 10.1021/acs.jctc.0c00471           %
     %    use with input_dft = 'vdW-DF3-opt1' or 'vdW-DF3-opt2'             %
     %                                                                      %
     %  * Unscreened and range-separated hybrid vdW-DF-cx functionals       %
     %    DOI: 10.1063/1.4986522 and 10.1088/1361-648X/ac2ad2               %
     %    use with input_dft = 'vdW-DF-cx0'    and 'vdW-DF-ahcx'            %
     %  * Unscreened and range-separated hybrid vdW-DF2-b86r functionals    %
     %    DOI: 10.1063/1.4986522 and DOI: 10.1103/PhysRevX.12.041003        %
     %    use with input_dft = 'vdW-DF2-br0' and 'vdW-DF2-ahbr'             %
     %                                                                      %
     %%%%%%%%%%%%%%%%%%%%%%%%%%%%%%%%%%%%%%%%%%%%%%%%%%%%%%%%%%%%%%%%%%%%%%%%


     Starting wfcs are   72 randomized atomic wfcs
     Checking if some PAW data can be deallocated... 

     total cpu time spent up to now is       88.3 secs

     Self-consistent Calculation

     iteration #  1     ecut=    80.00 Ry     beta= 0.20
     Davidson diagonalization with overlap
     ethr =  1.00E-02,  avg # of iterations =  4.4

     Threshold (ethr) on eigenvalues was too large:
     Diagonalizing with lowered threshold

     Davidson diagonalization with overlap
     ethr =  8.48E-04,  avg # of iterations =  2.7

     total cpu time spent up to now is      347.0 secs

     total energy              =   -1975.61065596 Ry
     estimated scf accuracy    <       0.97780921 Ry

     iteration #  2     ecut=    80.00 Ry     beta= 0.20
     Davidson diagonalization with overlap
     ethr =  9.40E-04,  avg # of iterations =  1.0

     total cpu time spent up to now is      452.0 secs

     total energy              =   -1975.25542647 Ry
     estimated scf accuracy    <       0.72110005 Ry

     iteration #  3     ecut=    80.00 Ry     beta= 0.20
     Davidson diagonalization with overlap
     ethr =  6.93E-04,  avg # of iterations =  3.1

     total cpu time spent up to now is      576.2 secs

     total energy              =   -1975.39389361 Ry
     estimated scf accuracy    <       0.05955072 Ry

     iteration #  4     ecut=    80.00 Ry     beta= 0.20
     Davidson diagonalization with overlap
     ethr =  5.73E-05,  avg # of iterations =  5.2

     total cpu time spent up to now is      698.3 secs

     total energy              =   -1975.38671129 Ry
     estimated scf accuracy    <       0.03885075 Ry

     iteration #  5     ecut=    80.00 Ry     beta= 0.20
     Davidson diagonalization with overlap
     ethr =  3.74E-05,  avg # of iterations =  4.5

     total cpu time spent up to now is      824.5 secs

     total energy              =   -1975.38853624 Ry
     estimated scf accuracy    <       0.01688125 Ry

     iteration #  6     ecut=    80.00 Ry     beta= 0.20
     Davidson diagonalization with overlap
     ethr =  1.62E-05,  avg # of iterations =  4.7

     total cpu time spent up to now is      948.7 secs

     total energy              =   -1975.39005050 Ry
     estimated scf accuracy    <       0.00566690 Ry

     iteration #  7     ecut=    80.00 Ry     beta= 0.20
     Davidson diagonalization with overlap
     ethr =  5.45E-06,  avg # of iterations =  5.7

     total cpu time spent up to now is     1069.1 secs

     total energy              =   -1975.38923616 Ry
     estimated scf accuracy    <       0.00487818 Ry

     iteration #  8     ecut=    80.00 Ry     beta= 0.20
     Davidson diagonalization with overlap
     ethr =  4.69E-06,  avg # of iterations =  2.7

     total cpu time spent up to now is     1186.0 secs

     total energy              =   -1975.38931190 Ry
     estimated scf accuracy    <       0.00325518 Ry

     iteration #  9     ecut=    80.00 Ry     beta= 0.20
     Davidson diagonalization with overlap
     ethr =  3.13E-06,  avg # of iterations =  4.9

     total cpu time spent up to now is     1302.2 secs

     total energy              =   -1975.38917849 Ry
     estimated scf accuracy    <       0.00175662 Ry

     iteration # 10     ecut=    80.00 Ry     beta= 0.20
     Davidson diagonalization with overlap
     ethr =  1.69E-06,  avg # of iterations =  2.2

     total cpu time spent up to now is     1417.7 secs

     total energy              =   -1975.38924153 Ry
     estimated scf accuracy    <       0.00068139 Ry

     iteration # 11     ecut=    80.00 Ry     beta= 0.20
     Davidson diagonalization with overlap
     ethr =  6.55E-07,  avg # of iterations =  3.4

     negative rho (up, down):  1.652E-07 0.000E+00

     total cpu time spent up to now is     1537.3 secs

     total energy              =   -1975.38925049 Ry
     estimated scf accuracy    <       0.00058009 Ry

     iteration # 12     ecut=    80.00 Ry     beta= 0.20
     Davidson diagonalization with overlap
     ethr =  5.58E-07,  avg # of iterations =  2.0

     negative rho (up, down):  1.828E-07 0.000E+00

     total cpu time spent up to now is     1655.3 secs

     total energy              =   -1975.38929399 Ry
     estimated scf accuracy    <       0.00018407 Ry

     iteration # 13     ecut=    80.00 Ry     beta= 0.20
     Davidson diagonalization with overlap
     ethr =  1.77E-07,  avg # of iterations =  1.5

     negative rho (up, down):  3.309E-04 0.000E+00

     total cpu time spent up to now is     1760.6 secs

     total energy              =   -1975.38927597 Ry
     estimated scf accuracy    <       0.00016503 Ry

     iteration # 14     ecut=    80.00 Ry     beta= 0.20
     Davidson diagonalization with overlap
     ethr =  1.59E-07,  avg # of iterations =  3.8

     negative rho (up, down):  6.293E-04 0.000E+00

     total cpu time spent up to now is     1882.8 secs

     total energy              =   -1975.38928981 Ry
     estimated scf accuracy    <       0.00014109 Ry

     iteration # 15     ecut=    80.00 Ry     beta= 0.20
     Davidson diagonalization with overlap
     ethr =  1.36E-07,  avg # of iterations =  1.1

     negative rho (up, down):  3.955E-04 0.000E+00

     total cpu time spent up to now is     1982.6 secs

     total energy              =   -1975.38928930 Ry
     estimated scf accuracy    <       0.00011251 Ry

     iteration # 16     ecut=    80.00 Ry     beta= 0.20
     Davidson diagonalization with overlap
     ethr =  1.08E-07,  avg # of iterations =  1.6

     negative rho (up, down):  1.538E-04 0.000E+00

     total cpu time spent up to now is     2088.1 secs

     total energy              =   -1975.38927989 Ry
     estimated scf accuracy    <       0.00009764 Ry

     iteration # 17     ecut=    80.00 Ry     beta= 0.20
     Davidson diagonalization with overlap
     ethr =  9.39E-08,  avg # of iterations =  1.3

     negative rho (up, down):  3.861E-04 0.000E+00

     total cpu time spent up to now is     2195.6 secs

     total energy              =   -1975.38927704 Ry
     estimated scf accuracy    <       0.00008085 Ry

     iteration # 18     ecut=    80.00 Ry     beta= 0.20
     Davidson diagonalization with overlap
     ethr =  7.77E-08,  avg # of iterations =  1.2

     negative rho (up, down):  8.449E-04 0.000E+00

     total cpu time spent up to now is     2305.2 secs

     total energy              =   -1975.38926545 Ry
     estimated scf accuracy    <       0.00007096 Ry

     iteration # 19     ecut=    80.00 Ry     beta= 0.20
     Davidson diagonalization with overlap
     ethr =  6.82E-08,  avg # of iterations =  2.5

     negative rho (up, down):  1.517E-06 0.000E+00

     total cpu time spent up to now is     2425.3 secs

     total energy              =   -1975.38926559 Ry
     estimated scf accuracy    <       0.00004907 Ry

     iteration # 20     ecut=    80.00 Ry     beta= 0.20
     Davidson diagonalization with overlap
     ethr =  4.72E-08,  avg # of iterations =  2.0

     negative rho (up, down):  5.772E-08 0.000E+00

     total cpu time spent up to now is     2551.4 secs

     total energy              =   -1975.38926558 Ry
     estimated scf accuracy    <       0.00003877 Ry

     iteration # 21     ecut=    80.00 Ry     beta= 0.20
     Davidson diagonalization with overlap
     ethr =  3.73E-08,  avg # of iterations =  1.0

     negative rho (up, down):  1.971E-05 0.000E+00

     total cpu time spent up to now is     2662.6 secs

     total energy              =   -1975.38926430 Ry
     estimated scf accuracy    <       0.00003511 Ry

     iteration # 22     ecut=    80.00 Ry     beta= 0.20
     Davidson diagonalization with overlap
     ethr =  3.38E-08,  avg # of iterations =  3.7

     negative rho (up, down):  5.689E-08 0.000E+00

     total cpu time spent up to now is     2788.6 secs

     total energy              =   -1975.38926381 Ry
     estimated scf accuracy    <       0.00002673 Ry

     iteration # 23     ecut=    80.00 Ry     beta= 0.20
     Davidson diagonalization with overlap
     ethr =  2.57E-08,  avg # of iterations =  1.3

     negative rho (up, down):  2.278E-08 0.000E+00

     total cpu time spent up to now is     2897.6 secs

     total energy              =   -1975.38926418 Ry
     estimated scf accuracy    <       0.00002225 Ry

     iteration # 24     ecut=    80.00 Ry     beta= 0.20
     Davidson diagonalization with overlap
     ethr =  2.14E-08,  avg # of iterations =  1.1

     negative rho (up, down):  6.056E-08 0.000E+00

     total cpu time spent up to now is     3005.2 secs

     total energy              =   -1975.38926428 Ry
     estimated scf accuracy    <       0.00002146 Ry

     iteration # 25     ecut=    80.00 Ry     beta= 0.20
     Davidson diagonalization with overlap
     ethr =  2.06E-08,  avg # of iterations =  1.4

     negative rho (up, down):  4.538E-06 0.000E+00

     total cpu time spent up to now is     3108.5 secs

     total energy              =   -1975.38925977 Ry
     estimated scf accuracy    <       0.00002017 Ry

     iteration # 26     ecut=    80.00 Ry     beta= 0.20
     Davidson diagonalization with overlap
     ethr =  1.94E-08,  avg # of iterations =  1.9

     negative rho (up, down):  6.971E-06 0.000E+00

     total cpu time spent up to now is     3221.8 secs

     total energy              =   -1975.38926138 Ry
     estimated scf accuracy    <       0.00001746 Ry

     iteration # 27     ecut=    80.00 Ry     beta= 0.20
     Davidson diagonalization with overlap
     ethr =  1.68E-08,  avg # of iterations =  1.1

     negative rho (up, down):  3.737E-06 0.000E+00

     total cpu time spent up to now is     3323.4 secs

     total energy              =   -1975.38926257 Ry
     estimated scf accuracy    <       0.00001585 Ry

     iteration # 28     ecut=    80.00 Ry     beta= 0.20
     Davidson diagonalization with overlap
     ethr =  1.52E-08,  avg # of iterations =  2.7

     negative rho (up, down):  2.074E-04 0.000E+00

     total cpu time spent up to now is     3437.4 secs

     total energy              =   -1975.38925309 Ry
     estimated scf accuracy    <       0.00001516 Ry

     iteration # 29     ecut=    80.00 Ry     beta= 0.20
     Davidson diagonalization with overlap
     ethr =  1.46E-08,  avg # of iterations =  5.5

     negative rho (up, down):  3.736E-05 0.000E+00

     total cpu time spent up to now is     3569.8 secs

     total energy              =   -1975.38925729 Ry
     estimated scf accuracy    <       0.00002684 Ry

     iteration # 30     ecut=    80.00 Ry     beta= 0.20
     Davidson diagonalization with overlap
     ethr =  1.46E-08,  avg # of iterations =  2.4

     negative rho (up, down):  1.070E-08 0.000E+00

     total cpu time spent up to now is     3679.0 secs

     total energy              =   -1975.38925628 Ry
     estimated scf accuracy    <       0.00001259 Ry

     iteration # 31     ecut=    80.00 Ry     beta= 0.20
     Davidson diagonalization with overlap
     ethr =  1.21E-08,  avg # of iterations =  4.8

     negative rho (up, down):  1.453E-05 0.000E+00

     total cpu time spent up to now is     3800.7 secs

     total energy              =   -1975.38925697 Ry
     estimated scf accuracy    <       0.00000537 Ry

     iteration # 32     ecut=    80.00 Ry     beta= 0.20
     Davidson diagonalization with overlap
     ethr =  5.17E-09,  avg # of iterations =  3.2

     negative rho (up, down):  3.332E-06 0.000E+00

     total cpu time spent up to now is     3920.0 secs

     total energy              =   -1975.38925853 Ry
     estimated scf accuracy    <       0.00000165 Ry

     iteration # 33     ecut=    80.00 Ry     beta= 0.20
     Davidson diagonalization with overlap
     ethr =  1.59E-09,  avg # of iterations =  2.0

     negative rho (up, down):  1.256E-06 0.000E+00

     total cpu time spent up to now is     4030.1 secs

     total energy              =   -1975.38925892 Ry
     estimated scf accuracy    <       0.00000118 Ry

     iteration # 34     ecut=    80.00 Ry     beta= 0.20
     Davidson diagonalization with overlap
     ethr =  1.13E-09,  avg # of iterations =  2.0

     negative rho (up, down):  8.247E-06 0.000E+00

     total cpu time spent up to now is     4152.4 secs

     total energy              =   -1975.38925787 Ry
     estimated scf accuracy    <       0.00000060 Ry

     iteration # 35     ecut=    80.00 Ry     beta= 0.20
     Davidson diagonalization with overlap
     ethr =  5.74E-10,  avg # of iterations =  2.2

     negative rho (up, down):  4.433E-06 0.000E+00

     total cpu time spent up to now is     4269.6 secs

     total energy              =   -1975.38925848 Ry
     estimated scf accuracy    <       0.00000045 Ry

     iteration # 36     ecut=    80.00 Ry     beta= 0.20
     Davidson diagonalization with overlap
     ethr =  4.36E-10,  avg # of iterations =  1.3

     negative rho (up, down):  1.356E-06 0.000E+00

     total cpu time spent up to now is     4370.8 secs

     total energy              =   -1975.38925889 Ry
     estimated scf accuracy    <       0.00000036 Ry

     iteration # 37     ecut=    80.00 Ry     beta= 0.20
     Davidson diagonalization with overlap
     ethr =  3.45E-10,  avg # of iterations =  2.2

     negative rho (up, down):  2.805E-06 0.000E+00

     total cpu time spent up to now is     4482.7 secs

     total energy              =   -1975.38925872 Ry
     estimated scf accuracy    <       0.00000029 Ry

     iteration # 38     ecut=    80.00 Ry     beta= 0.20
     Davidson diagonalization with overlap
     ethr =  2.78E-10,  avg # of iterations =  2.2

     negative rho (up, down):  2.361E-05 0.000E+00

     total cpu time spent up to now is     4594.8 secs

     total energy              =   -1975.38925621 Ry
     estimated scf accuracy    <       0.00000025 Ry

     iteration # 39     ecut=    80.00 Ry     beta= 0.20
     Davidson diagonalization with overlap
     ethr =  2.37E-10,  avg # of iterations =  2.5

     negative rho (up, down):  3.020E-05 0.000E+00

     total cpu time spent up to now is     4718.3 secs

     total energy              =   -1975.38925580 Ry
     estimated scf accuracy    <       0.00000010 Ry

     iteration # 40     ecut=    80.00 Ry     beta= 0.20
     Davidson diagonalization with overlap
     ethr =  9.67E-11,  avg # of iterations =  2.0

     negative rho (up, down):  1.408E-05 0.000E+00

     total cpu time spent up to now is     4835.5 secs

     total energy              =   -1975.38925697 Ry
     estimated scf accuracy    <       0.00000007 Ry

     iteration # 41     ecut=    80.00 Ry     beta= 0.20
     Davidson diagonalization with overlap
     ethr =  6.44E-11,  avg # of iterations =  2.1

     negative rho (up, down):  1.562E-05 0.000E+00

     total cpu time spent up to now is     4956.3 secs

     total energy              =   -1975.38925679 Ry
     estimated scf accuracy    <       0.00000002 Ry

     iteration # 42     ecut=    80.00 Ry     beta= 0.20
     Davidson diagonalization with overlap
     ethr =  1.69E-11,  avg # of iterations =  2.7

     negative rho (up, down):  1.103E-05 0.000E+00

     total cpu time spent up to now is     5074.1 secs

     total energy              =   -1975.38925737 Ry
     estimated scf accuracy    <       0.00000001 Ry

     iteration # 43     ecut=    80.00 Ry     beta= 0.20
     Davidson diagonalization with overlap
     ethr =  1.04E-11,  avg # of iterations =  3.1

     negative rho (up, down):  1.217E-05 0.000E+00

     total cpu time spent up to now is     5198.8 secs

     End of self-consistent calculation

          k = 0.0000 0.0000 0.0000 ( 21311 PWs)   bands (ev):

   -53.4235 -53.3802 -52.9371 -52.9325 -27.5974 -27.5549 -27.3601 -27.3601
   -27.3167 -27.3167 -27.2034 -27.1852 -26.9277 -26.9276 -26.9235 -26.9235
   -15.1186  -6.7647  -6.6441  -6.3445  -6.0726  -5.5073  -5.3089  -4.1399
    -1.4347  -1.4347  -0.5988   1.4870   1.9578   3.1054   3.7196   4.8540
     4.8540   4.8946   4.8946   4.9969   4.9969   5.0265   5.2965   5.2965
     5.8860   5.9682   5.9682   6.0095   6.0095   6.2359   6.2359   6.5744
     6.8669   7.2101   7.2101   7.4498   7.8816   9.8997   9.8997  10.1993
    10.1994  10.2535  10.2546  10.3792  10.3856  10.4236

          k = 0.0000 0.0722 0.0000 ( 21283 PWs)   bands (ev):

   -53.4219 -53.3786 -52.9355 -52.9309 -27.5944 -27.5519 -27.3756 -27.3636
   -27.3323 -27.3203 -27.1998 -27.1819 -26.9441 -26.9399 -26.9313 -26.9272
   -15.0898  -6.7052  -6.5851  -6.2871  -6.0271  -5.4801  -5.2850  -4.1210
    -1.6244  -1.4692  -0.5336   1.5548   2.0238   3.1378   3.7193   4.7186
     4.7589   4.8601   4.8888   4.9162   4.9569   5.0651   5.1872   5.3246
     5.5223   5.8710   5.9131   6.0580   6.1255   6.1421   6.2262   6.6261
     6.9096   7.2183   7.2537   7.4532   7.8099   9.6813   9.9356  10.1249
    10.1692  10.2570  10.2786  10.2845  10.3226  10.3611

          k = 0.0000 0.1443 0.0000 ( 21263 PWs)   bands (ev):

   -53.4175 -53.3742 -52.9309 -52.9263 -27.5858 -27.5432 -27.4197 -27.3763
   -27.3736 -27.3303 -27.1895 -27.1725 -26.9907 -26.9865 -26.9419 -26.9377
   -15.0062  -6.5315  -6.4130  -6.1212  -5.8953  -5.4007  -5.2154  -4.0665
    -2.0953  -1.5656  -0.3938   1.7429   2.2035   3.2112   3.6803   4.3691
     4.4073   4.5179   4.5808   4.9235   5.0518   5.0953   5.1364   5.2614
     5.3898   5.6196   5.6638   5.8895   5.9010   6.1349   6.3682   6.6958
     6.9341   7.2618   7.2786   7.4128   7.5733   9.3422   9.8531   9.9638
    10.0098  10.0353  10.1319  10.1467  10.1500  10.2394

          k = 0.0000 0.2165 0.0000 ( 21233 PWs)   bands (ev):

   -53.4108 -53.3675 -52.9239 -52.9194 -27.5728 -27.5302 -27.4850 -27.4417
   -27.3886 -27.3453 -27.1742 -27.1585 -27.0598 -27.0554 -26.9575 -26.9534
   -14.8770  -6.2585  -6.1438  -5.8649  -5.6911  -5.2763  -5.1071  -3.9822
    -2.7060  -1.7045  -0.2358   1.9955   2.4267   3.2304   3.5410   3.9362
     3.9740   4.1089   4.2352   4.5102   4.6922   5.2929   5.3360   5.3707
     5.4089   5.4449   5.4916   5.6198   5.6669   6.0641   6.3596   6.6341
     6.8318   7.0423   7.1513   7.3980   7.4596   9.2230   9.5093   9.7613
     9.9217   9.9698  10.0168  10.1499  10.2029  10.2861

          k = 0.0000 0.2887 0.0000 ( 21197 PWs)   bands (ev):

   -53.4030 -53.3597 -52.9158 -52.9112 -27.5613 -27.5574 -27.5180 -27.5149
   -27.4062 -27.3629 -27.1575 -27.1428 -27.1392 -27.1347 -26.9760 -26.9718
   -14.7172  -5.9118  -5.8042  -5.5488  -5.4386  -5.1196  -4.9719  -3.8772
    -3.3460  -1.8610  -0.0987   2.1823   2.5209   3.0420   3.2795   3.5457
     3.6509   3.7268   3.9436   4.0568   4.5036   4.9648   5.0120   5.2321
     5.3701   5.4305   5.6931   5.7415   5.8589   5.9928   6.1588   6.3745
     6.6021   6.6991   6.7581   7.6572   7.6840   9.2894   9.4688   9.7201
     9.7346   9.8303  10.0274  10.3385  10.3432  10.3614

          k = 0.0000 0.3608 0.0000 ( 21187 PWs)   bands (ev):

   -53.3951 -53.3518 -52.9076 -52.9030 -27.6367 -27.5934 -27.5420 -27.4995
   -27.4238 -27.3805 -27.2207 -27.2154 -27.1371 -27.1251 -26.9943 -26.9901
   -14.5483  -5.5298  -5.4343  -5.2165  -5.1758  -4.9498  -4.8284  -3.9238
    -3.7626  -2.0103  -0.0129   2.1296   2.3241   2.7037   2.9750   3.1912
     3.3670   3.5123   3.6679   3.8052   4.3373   4.6764   4.7250   4.9506
     5.2057   5.3625   5.6264   5.9060   6.0123   6.0708   6.1268   6.3941
     6.4095   6.4803   6.5376   7.9922   8.1117   9.4413   9.6306   9.6620
     9.7131   9.8254  10.0958  10.2264  10.4233  10.6473

          k = 0.0000 0.4330 0.0000 ( 21140 PWs)   bands (ev):

   -53.3884 -53.3451 -52.9006 -52.8960 -27.6999 -27.6567 -27.5290 -27.4864
   -27.4386 -27.3953 -27.2873 -27.2818 -27.1218 -27.1110 -27.0098 -27.0056
   -14.3967  -5.1672  -5.0917  -4.9772  -4.9175  -4.7936  -4.7014  -4.3406
    -3.6527  -2.1318   0.0157   1.8879   1.9954   2.3857   2.7180   2.8464
     2.9786   3.4103   3.5090   3.5909   4.1111   4.4556   4.5051   4.7325
     5.0911   5.2769   5.4533   5.7360   6.0386   6.2671   6.3411   6.3997
     6.4680   6.5599   6.7885   8.3843   8.6028   9.6241   9.6872   9.7028
     9.8700  10.0064  10.1264  10.2136  10.4327  10.9352

          k = 0.0000 0.5052 0.0000 ( 21078 PWs)   bands (ev):

   -53.3840 -53.3407 -52.8959 -52.8913 -27.7418 -27.6986 -27.5202 -27.4776
   -27.4485 -27.4052 -27.3315 -27.3259 -27.1115 -27.1014 -27.0202 -27.0160
   -14.2905  -4.9778  -4.8935  -4.8292  -4.7188  -4.6775  -4.6163  -4.4716
    -3.5682  -2.2105   0.0094   1.6569   1.7301   2.1663   2.5508   2.6038
     2.6952   3.2794   3.3278   3.4652   3.9050   4.3179   4.3679   4.5959
     4.9882   5.2113   5.3571   5.6333   6.0836   6.4220   6.4758   6.5105
     6.6218   6.7375   7.0534   8.7662   9.0301   9.6728   9.7215   9.9621
    10.0297  10.0786  10.1778  10.3813  10.3964  11.1134

          k = 0.0000-0.5774 0.0000 ( 21006 PWs)   bands (ev):

   -53.3824 -53.3391 -52.8943 -52.8897 -27.7565 -27.7133 -27.5171 -27.4745
   -27.4520 -27.4086 -27.3469 -27.3413 -27.1079 -27.0981 -27.0238 -27.0196
   -14.2521  -5.0246  -4.7906  -4.7377  -4.6550  -4.6275  -4.5848  -4.4624
    -3.5354  -2.2377   0.0018   1.5646   1.6301   2.0876   2.4916   2.5198
     2.5920   3.2037   3.2732   3.4120   3.8243   4.2712   4.3214   4.5495
     4.9434   5.1871   5.3279   5.5978   6.1188   6.4724   6.5104   6.5668
     6.7284   6.8217   7.1483   8.9496   9.2138   9.7015   9.7464  10.0300
    10.0676  10.1526  10.2438  10.3396  10.4998  11.2105

          k = 0.0625 0.1083 0.0000 ( 21269 PWs)   bands (ev):

   -53.4189 -53.3756 -52.9324 -52.9278 -27.5886 -27.5460 -27.4050 -27.3708
   -27.3616 -27.3275 -27.1928 -27.1756 -26.9752 -26.9709 -26.9389 -26.9347
   -15.0336  -6.5886  -6.4695  -6.1755  -5.9384  -5.4268  -5.2382  -4.0843
    -1.9441  -1.5420  -0.4341   1.6832   2.1474   3.1922   3.7002   4.4788
     4.5175   4.6251   4.6763   5.0048   5.0350   5.0758   5.1911   5.2027
     5.3658   5.6561   5.6972   5.9192   6.0081   6.1663   6.3614   6.6957
     6.9426   7.2122   7.3101   7.4460   7.6557   9.4242   9.9639   9.9857
     9.9983  10.0585  10.1087  10.1654  10.2121  10.2828

          k = 0.0625 0.1804 0.0000 ( 21194 PWs)   bands (ev):

   -53.4134 -53.3701 -52.9266 -52.9220 -27.5777 -27.5352 -27.4585 -27.4151
   -27.3846 -27.3412 -27.1801 -27.1639 -27.0317 -27.0274 -26.9533 -26.9491
   -14.9271  -6.3651  -6.2487  -5.9642  -5.7701  -5.3247  -5.1491  -4.0146
    -2.4628  -1.6779  -0.2882   1.9078   2.3552   3.2495   3.6156   4.0963
     4.1315   4.2685   4.3721   4.7068   4.8103   5.2506   5.2809   5.3020
     5.3288   5.4175   5.4198   5.5545   5.8700   6.2250   6.4482   6.7155
     6.9027   7.1604   7.2419   7.3244   7.5448   9.2282   9.5990   9.7869
     9.9022   9.9769  10.0303  10.0826  10.1463  10.1594

          k = 0.0625 0.2526 0.0000 ( 21202 PWs)   bands (ev):

   -53.4061 -53.3628 -52.9190 -52.9145 -27.5636 -27.5276 -27.5210 -27.4843
   -27.4025 -27.3592 -27.1636 -27.1487 -27.1046 -27.1002 -26.9721 -26.9679
   -14.7824  -6.0546  -5.9436  -5.6774  -5.5406  -5.1835  -5.0266  -3.9193
    -3.0668  -1.8477  -0.1401   2.1415   2.5328   3.1714   3.4165   3.7078
     3.7637   3.9038   4.0897   4.2655   4.5583   4.9122   4.9668   5.1009
     5.4265   5.5186   5.5610   5.6186   5.8745   6.1302   6.3527   6.5392
     6.7282   6.8598   6.9109   7.3865   7.7499   9.2372   9.4001   9.6334
     9.8200   9.8789   9.9493  10.1449  10.2581  10.3298

          k = 0.0625 0.3248 0.0000 ( 21194 PWs)   bands (ev):

   -53.3983 -53.3550 -52.9108 -52.9063 -27.6017 -27.5584 -27.5482 -27.5056
   -27.4219 -27.3785 -27.1840 -27.1787 -27.1440 -27.1317 -26.9924 -26.9882
   -14.6174  -5.6887  -5.5873  -5.3517  -5.2796  -5.0187  -4.8858  -3.8080
    -3.6604  -2.0219  -0.0266   2.2154   2.4753   2.8862   3.1238   3.3819
     3.5382   3.6036   3.7713   3.9415   4.4060   4.6096   4.6837   4.7591
     5.3738   5.5185   5.7537   5.8012   5.9106   6.0923   6.1493   6.2727
     6.5225   6.5888   6.6655   7.6783   8.1015   9.2739   9.5054   9.6342
     9.7738   9.7985  10.0246  10.2948  10.3561  10.4343

          k = 0.0625 0.3969 0.0000 ( 21151 PWs)   bands (ev):

   -53.3910 -53.3477 -52.9033 -52.8987 -27.6693 -27.6261 -27.5340 -27.4914
   -27.4397 -27.3964 -27.2550 -27.2497 -27.1277 -27.1164 -27.0110 -27.0068
   -14.4562  -5.3132  -5.2273  -5.0444  -5.0270  -4.8531  -4.7479  -4.1554
    -3.6932  -2.1755   0.0317   2.0485   2.1911   2.5568   2.8395   3.0126
     3.1525   3.4833   3.6175   3.6881   4.2358   4.4101   4.4811   4.5690
     5.2686   5.3871   5.6631   5.8554   5.8977   5.9726   6.0651   6.2843
     6.5366   6.5938   6.7525   8.0771   8.5249   9.4114   9.5981   9.7867
     9.8453   9.8563  10.0797  10.3093  10.4126  10.7080

          k = 0.0625 0.4691 0.0000 ( 21105 PWs)   bands (ev):

   -53.3854 -53.3421 -52.8974 -52.8929 -27.7206 -27.6774 -27.5231 -27.4805
   -27.4533 -27.4100 -27.3091 -27.3036 -27.1149 -27.1045 -27.0253 -27.0211
   -14.3261  -4.9920  -4.9442  -4.8955  -4.7832  -4.7152  -4.6402  -4.4327
    -3.5923  -2.2892   0.0422   1.8058   1.8926   2.2951   2.6242   2.6917
     2.7861   3.3594   3.3997   3.5428   4.0339   4.3005   4.3549   4.4285
     5.1524   5.2762   5.4794   5.7115   6.0163   6.0523   6.1124   6.3181
     6.7101   6.7753   7.0027   8.5067   8.9336   9.5961   9.6973   9.9079
     9.9729  10.0324  10.1702  10.3762  10.4014  11.0005

          k = 0.0625 0.5413 0.0000 ( 21084 PWs)   bands (ev):

   -53.3824 -53.3391 -52.8943 -52.8897 -27.7482 -27.7050 -27.5171 -27.4746
   -27.4606 -27.4173 -27.3382 -27.3326 -27.1079 -27.0981 -27.0330 -27.0288
   -14.2530  -4.9742  -4.7964  -4.7413  -4.6548  -4.6261  -4.5804  -4.4567
    -3.5303  -2.3498   0.0339   1.6446   1.7115   2.1507   2.4921   2.5298
     2.5824   3.2045   3.3012   3.4465   3.8955   4.2572   4.2911   4.3377
     5.0840   5.2160   5.3782   5.6170   6.1088   6.1313   6.2016   6.3541
     6.8639   6.9365   7.1642   8.8473   9.1913   9.7017   9.7448  10.0005
    10.1266  10.1694  10.2638  10.3610  10.4587  11.2029

          k = 0.1250 0.2165 0.0000 ( 21179 PWs)   bands (ev):

   -53.4072 -53.3639 -52.9202 -52.9156 -27.5657 -27.5232 -27.5136 -27.4703
   -27.4034 -27.3600 -27.1660 -27.1510 -27.0899 -27.0855 -26.9730 -26.9688
   -14.8049  -6.1037  -5.9916  -5.7220  -5.5757  -5.2053  -5.0453  -3.9334
    -2.9435  -1.8749  -0.1526   2.1246   2.5339   3.2256   3.4775   3.7772
     3.8170   3.9971   4.1688   4.4188   4.5878   4.7740   4.8272   5.0224
     5.4143   5.4394   5.4812   5.6107   5.9287   6.3058   6.4575   6.6368
     6.7851   6.9430   6.9740   7.3015   7.8039   9.2098   9.3670   9.5862
     9.8027   9.8506   9.8947  10.0506  10.1803  10.2324

          k = 0.1250 0.2887 0.0000 ( 21199 PWs)   bands (ev):

   -53.4000 -53.3567 -52.9126 -52.9080 -27.5769 -27.5516 -27.5337 -27.5090
   -27.4267 -27.3833 -27.1597 -27.1532 -27.1458 -27.1351 -26.9975 -26.9933
   -14.6543  -5.7724  -5.6681  -5.4241  -5.3341  -5.0544  -4.9154  -3.8300
    -3.4618  -2.1075  -0.0252   2.2689   2.5785   3.0281   3.2373   3.5250
     3.6410   3.7361   3.9376   4.0788   4.3278   4.4071   4.4959   4.5586
     5.3707   5.5417   5.5818   5.6599   6.0741   6.1950   6.2641   6.4691
     6.6181   6.6633   6.7689   7.4914   8.1558   9.1452   9.3974   9.5440
     9.7254   9.8471   9.9430  10.1228  10.3146  10.3494

          k = 0.1250 0.3608 0.0000 ( 21195 PWs)   bands (ev):

   -53.3927 -53.3494 -52.9050 -52.9005 -27.6392 -27.5959 -27.5373 -27.4948
   -27.4503 -27.4070 -27.2233 -27.2180 -27.1316 -27.1200 -27.0223 -27.0181
   -14.4957  -5.4088  -5.3174  -5.1132  -5.0791  -4.8902  -4.7766  -3.9449
    -3.7150  -2.3304   0.0638   2.2084   2.3939   2.7406   2.9610   3.2075
     3.3203   3.5752   3.7047   3.8087   4.1142   4.2861   4.3033   4.4506
     5.2707   5.4826   5.5280   5.5838   5.9460   6.0347   6.1196   6.2108
     6.5883   6.6303   6.8098   7.8244   8.5393   9.1906   9.4816   9.7160
     9.7985   9.9170  10.0513  10.3068  10.4272  10.4789

          k = 0.1250 0.4330 0.0000 ( 21113 PWs)   bands (ev):

   -53.3865 -53.3432 -52.8986 -52.8940 -27.6913 -27.6481 -27.5252 -27.4827
   -27.4705 -27.4272 -27.2782 -27.2728 -27.1174 -27.1069 -27.0435 -27.0393
   -14.3540  -5.0660  -4.9940  -4.8774  -4.8335  -4.7381  -4.6528  -4.3078
    -3.6034  -2.5123   0.1046   2.0207   2.1338   2.4841   2.7213   2.7918
     2.8626   3.4261   3.5120   3.6646   4.0667   4.1981   4.2435   4.3729
     5.0702   5.4284   5.4768   5.5240   5.7383   5.8749   6.0187   6.0848
     6.7273   6.7727   7.0159   8.2329   8.8813   9.3918   9.6327   9.7964
    10.0239  10.0308  10.1677  10.4312  10.5330  10.6630

          k = 0.1250 0.5052 0.0000 ( 21081 PWs)   bands (ev):

   -53.3824 -53.3391 -52.8943 -52.8897 -27.7259 -27.6826 -27.5172 -27.4840
   -27.4746 -27.4407 -27.3146 -27.3091 -27.1079 -27.0981 -27.0577 -27.0534
   -14.2551  -4.8478  -4.8089  -4.7479  -4.6546  -4.6220  -4.5693  -4.4323
    -3.5179  -2.6319   0.1108   1.8547   1.9305   2.3107   2.4837   2.5339
     2.5991   3.1792   3.3942   3.5483   4.0218   4.1197   4.2028   4.3194
     4.8871   5.4309   5.4918   5.5409   5.5825   5.6865   6.0035   6.1331
     6.9140   6.9741   7.2083   8.6312   9.1014   9.5988   9.7257   9.8343
    10.1731  10.2399  10.3296  10.4216  10.6304  10.9082

          k = 0.1250 0.5774 0.0000 ( 21108 PWs)   bands (ev):

   -53.3809 -53.3377 -52.8928 -52.8882 -27.7379 -27.6947 -27.5143 -27.4888
   -27.4717 -27.4454 -27.3273 -27.3218 -27.1046 -27.0950 -27.0626 -27.0584
   -14.2195  -4.8809  -4.7135  -4.6638  -4.6005  -4.5703  -4.5376  -4.4229
    -3.4850  -2.6740   0.1085   1.7907   1.8537   2.2492   2.3789   2.4290
     2.5429   3.0963   3.3341   3.4879   3.9803   4.0694   4.2243   4.3050
     4.8198   5.3801   5.5009   5.5425   5.6079   5.6284   5.9508   6.1985
     7.0063   7.0766   7.2867   8.8414   9.1458   9.6682   9.7076   9.8930
    10.2713  10.3363  10.3704  10.4158  10.7139  11.0241

          k = 0.1875 0.3248 0.0000 ( 21195 PWs)   bands (ev):

   -53.3933 -53.3500 -52.9057 -52.9011 -27.6256 -27.5823 -27.5385 -27.4959
   -27.4571 -27.4138 -27.2090 -27.2038 -27.1329 -27.1213 -27.0295 -27.0253
   -14.5095  -5.4421  -5.3488  -5.1396  -5.0956  -4.9028  -4.7863  -3.8424
    -3.7216  -2.4209   0.0793   2.2767   2.4842   2.8262   3.0156   3.3311
     3.4111   3.6162   3.7371   3.8905   3.9283   4.1930   4.2597   4.4247
     5.2833   5.3210   5.3676   5.5376   5.9573   6.1358   6.1854   6.3091
     6.5940   6.6418   6.8376   7.7396   8.5419   9.1069   9.4253   9.6730
     9.7824   9.9414  10.0155  10.2045  10.4035  10.4647

          k = 0.1875 0.3969 0.0000 ( 21153 PWs)   bands (ev):

   -53.3871 -53.3438 -52.8992 -52.8946 -27.6675 -27.6243 -27.5264 -27.4879
   -27.4839 -27.4446 -27.2531 -27.2478 -27.1188 -27.1082 -27.0619 -27.0576
   -14.3693  -5.1071  -5.0300  -4.8753  -4.8547  -4.7485  -4.6581  -4.1658
    -3.6067  -2.7189   0.1521   2.1841   2.3258   2.6349   2.8000   2.8770
     2.9135   3.4105   3.6451   3.7851   3.9209   4.1871   4.2502   4.4020
     4.9809   5.0347   5.1710   5.2802   5.8678   5.9491   6.0204   6.1465
     6.6970   6.7531   7.0394   8.0873   8.8221   9.2560   9.5325   9.7843
    10.0443  10.0765  10.1270  10.3699  10.4626  10.5633

          k = 0.1875 0.4691 0.0000 ( 21101 PWs)   bands (ev):

   -53.3824 -53.3391 -52.8943 -52.8897 -27.6980 -27.6548 -27.5172 -27.5129
   -27.4746 -27.4696 -27.2853 -27.2799 -27.1080 -27.0982 -27.0881 -27.0838
   -14.2571  -4.8244  -4.7696  -4.7059  -4.6525  -4.6165  -4.5561  -4.3655
    -3.5052  -2.9499   0.1879   2.0942   2.1952   2.4630   2.4841   2.5171
     2.6666   3.1115   3.5663   3.7195   3.9821   4.1338   4.2090   4.3583
     4.7878   4.8570   4.9583   5.2090   5.6473   5.7285   6.0388   6.0557
     6.8982   6.9474   7.2704   8.4500   8.9842   9.4480   9.5924   9.7669
    10.2156  10.2769  10.3881  10.4166  10.5667  10.7011

          k = 0.1875 0.5413 0.0000 ( 21112 PWs)   bands (ev):

   -53.3798 -53.3366 -52.8916 -52.8870 -27.7140 -27.6708 -27.5268 -27.5122
   -27.4835 -27.4696 -27.3021 -27.2967 -27.1033 -27.1015 -27.0984 -27.0927
   -14.1946  -4.7062  -4.6563  -4.6075  -4.5581  -4.5256  -4.4974  -4.3853
    -3.4438  -3.0781   0.1981   2.0548   2.1222   2.2595   2.2918   2.3867
     2.5955   3.0059   3.4229   3.5842   3.9849   4.0517   4.2213   4.3370
     4.6698   4.7794   4.9254   5.3325   5.4391   5.5311   5.8974   6.2183
     7.0824   7.1418   7.4301   8.7260   9.0306   9.5206   9.5846   9.6960
    10.2303  10.4091  10.4737  10.5829  10.6737  10.8044

          k = 0.2500 0.4330 0.0000 ( 21125 PWs)   bands (ev):

   -53.3824 -53.3391 -52.8943 -52.8897 -27.6835 -27.6403 -27.5278 -27.5172
   -27.4845 -27.4746 -27.2700 -27.2647 -27.1080 -27.1038 -27.0995 -27.0981
   -14.2580  -4.8295  -4.7701  -4.6745  -4.6450  -4.6129  -4.5493  -4.3044
    -3.4998  -3.1044   0.2201   2.2041   2.3250   2.4718   2.4825   2.5683
     2.7027   3.0723   3.7378   3.8342   3.9640   4.1060   4.2653   4.4605
     4.5046   4.5708   4.8203   4.9533   5.7149   5.7540   5.9842   6.1223
     6.8816   6.9315   7.3038   8.3861   8.9310   9.3794   9.5276   9.7483
    10.2253  10.2877  10.4016  10.4099  10.4545  10.5718

          k = 0.2500 0.5052 0.0000 ( 21117 PWs)   bands (ev):

   -53.3792 -53.3360 -52.8910 -52.8864 -27.6882 -27.6450 -27.5603 -27.5171
   -27.5110 -27.4684 -27.2751 -27.2697 -27.1380 -27.1336 -27.1007 -27.0914
   -14.1814  -4.6287  -4.5858  -4.5445  -4.5228  -4.4990  -4.4718  -4.3398
    -3.4191  -3.4065   0.2588   2.1679   2.1958   2.3153   2.3946   2.4431
     2.6595   3.0235   3.5972   3.7357   3.9076   4.0876   4.1607   4.2589
     4.3526   4.4074   4.7336   4.8057   5.4366   5.5053   6.0461   6.1871
     7.1224   7.1695   7.5563   8.6120   8.9675   9.3846   9.4488   9.5261
    10.1970  10.3721  10.4564  10.5112  10.6382  10.7724

          k = 0.2500 0.5774 0.0000 ( 21116 PWs)   bands (ev):

   -53.3781 -53.3348 -52.8898 -52.8853 -27.6881 -27.6448 -27.5736 -27.5303
   -27.5088 -27.4663 -27.2750 -27.2697 -27.1519 -27.1475 -27.0981 -27.0891
   -14.1540  -4.5532  -4.5215  -4.5062  -4.4925  -4.4627  -4.4367  -4.3138
    -3.5300  -3.3888   0.2705   2.0685   2.0939   2.3473   2.4063   2.4596
     2.6558   3.0802   3.4416   3.5890   3.8376   4.0082   4.1155   4.2318
     4.3562   4.4200   4.6948   4.8567   5.3192   5.3700   6.0038   6.2880
     7.2488   7.3006   7.6647   8.7011   8.9675   9.3171   9.3579   9.4963
    10.0358  10.3985  10.4621  10.6045  10.7643  10.8869

          k = 0.3125 0.5413 0.0000 ( 21100 PWs)   bands (ev):

   -53.3775 -53.3342 -52.8892 -52.8846 -27.6670 -27.6238 -27.6020 -27.5587
   -27.5077 -27.4651 -27.2535 -27.2480 -27.1812 -27.1769 -27.0968 -27.0878
   -14.1397  -4.5164  -4.4820  -4.4725  -4.4463  -4.4186  -4.4088  -4.1987
    -3.8037  -3.3684   0.2984   2.0008   2.0258   2.3146   2.6281   2.6921
     2.7078   3.2086   3.4370   3.4527   3.7274   3.8774   3.9415   4.0586
     4.2916   4.4654   4.6125   4.7892   5.2295   5.3032   6.0502   6.3148
     7.3311   7.3763   7.7824   8.6773   8.9342   9.2010   9.2440   9.3754
     9.9648  10.3285  10.3659  10.6705  10.8608  10.9756

     the Fermi energy is     8.4183 ev

!    total energy              =   -1975.38925720 Ry
     total all-electron energy =    -38768.710102 Ry
     estimated scf accuracy    <          6.4E-09 Ry
     smearing contrib. (-TS)   =       0.00036147 Ry
     internal energy E=F+TS    =   -1975.38961867 Ry

     The total energy is F=E-TS. E is the sum of the following terms:
     one-electron contribution =   -3114.69666392 Ry
     hartree contribution      =    1599.60644993 Ry
     xc contribution           =    -120.75895915 Ry
     ewald contribution        =     930.83393893 Ry
     one-center paw contrib.   =   -1270.37438446 Ry

     convergence has been achieved in  43 iterations

     Writing all to output data dir ./tmp/cleave/cleave_dz026_dz7p0/mos2_cleave.save/ :
     XML data file, charge density, pseudopotentials, collected wavefunctions

     init_run     :     87.20s CPU     88.19s WALL (       1 calls)
     electrons    :   5025.68s CPU   5110.53s WALL (       1 calls)

     Called by init_run:
     wfcinit      :     42.39s CPU     42.52s WALL (       1 calls)
     potinit      :     42.57s CPU     42.84s WALL (       1 calls)
     hinit0       :      0.31s CPU      0.33s WALL (       1 calls)

     Called by electrons:
     c_bands      :   4186.53s CPU   4212.31s WALL (      44 calls)
     sum_band     :    636.70s CPU    664.10s WALL (      44 calls)
     v_of_rho     :    119.40s CPU    127.93s WALL (      44 calls)
     newd         :     79.88s CPU    103.46s WALL (      44 calls)
     PAW_pot      :     17.72s CPU     17.73s WALL (      44 calls)
     mix_rho      :     28.83s CPU     29.20s WALL (      44 calls)
     vdW_kernel   :     40.34s CPU     40.38s WALL (       1 calls)

     Called by c_bands:
     init_us_2    :     19.59s CPU     19.61s WALL (    2670 calls)
     init_us_2:cp :     19.58s CPU     19.61s WALL (    2670 calls)
     cegterg      :   3993.39s CPU   4018.93s WALL (    1320 calls)

     Called by *egterg:
     cdiaghg      :     11.38s CPU     11.39s WALL (    4775 calls)
     h_psi        :   2162.62s CPU   2172.45s WALL (    4835 calls)
     s_psi        :    655.93s CPU    656.21s WALL (    4835 calls)
     g_psi        :      9.71s CPU      9.72s WALL (    3485 calls)

     Called by h_psi:
     h_psi:calbec :    852.19s CPU    852.42s WALL (    4835 calls)
     vloc_psi     :    649.42s CPU    650.08s WALL (    4835 calls)
     add_vuspsi   :    656.48s CPU    656.66s WALL (    4835 calls)

     General routines
     calbec       :   1237.24s CPU   1237.56s WALL (    6155 calls)
     fft          :     32.72s CPU     32.74s WALL (    2771 calls)
     ffts         :     13.86s CPU     13.86s WALL (    4650 calls)
     fftw         :    599.45s CPU    600.01s WALL (  443966 calls)
     interpolate  :      0.71s CPU      0.71s WALL (      44 calls)

     Parallel routines

     PWSCF        :      1h25m CPU      1h26m WALL


   This run was terminated on:  16:48:14   9Jun2026            

=------------------------------------------------------------------------------=
   JOB DONE.
=------------------------------------------------------------------------------=
Note: The following floating-point exceptions are signalling: IEEE_UNDERFLOW_FLAG IEEE_DENORMAL
