Authorization required, but no authorization protocol specified

Authorization required, but no authorization protocol specified

Authorization required, but no authorization protocol specified

Authorization required, but no authorization protocol specified

Authorization required, but no authorization protocol specified

Authorization required, but no authorization protocol specified

Authorization required, but no authorization protocol specified

Authorization required, but no authorization protocol specified


     Program PWSCF v.7.3 starts on  8Jun2026 at  4:59:50 

     This program is part of the open-source Quantum ESPRESSO suite
     for quantum simulation of materials; please cite
         "P. Giannozzi et al., J. Phys.:Condens. Matter 21 395502 (2009);
         "P. Giannozzi et al., J. Phys.:Condens. Matter 29 465901 (2017);
         "P. Giannozzi et al., J. Chem. Phys. 152 154105 (2020);
          URL http://www.quantum-espresso.org", 
     in publications or presentations arising from this work. More details at
     http://www.quantum-espresso.org/quote

     Parallel version (MPI), running on     1 processors

     MPI processes distributed on     1 nodes
     15405 MiB available memory on the printing compute node when the environment starts

     Waiting for input...
     Reading input from standard input

     Current dimensions of program PWSCF are:
     Max number of different atomic species (ntypx) = 10
     Max number of k-points (npk) =  40000
     Max angular momentum in pseudopotentials (lmaxx) =  4
     file Mo.pbe-spn-kjpaw_psl.1.0.0.UPF: wavefunction(s)  4S 4D renormalized
     file S.pbe-n-kjpaw_psl.1.0.0.UPF: wavefunction(s)  3S 3P renormalized

     IMPORTANT: XC functional enforced from input :
     Exchange-correlation= VDW-DF2-B86R
                           (   1   4  26   0   2   0   0)
     Any further DFT definition will be discarded
     Please, verify this is what you really want


     Subspace diagonalization in iterative solution of the eigenvalue problem:
     a serial algorithm will be used


     G-vector sticks info
     --------------------
     sticks:   dense  smooth     PW     G-vecs:    dense   smooth      PW
     Sum        1573     769    223               478405   168563   26075

     Using Slab Decomposition



     bravais-lattice index     =            4
     lattice parameter (alat)  =       5.9715  a.u.
     unit-cell volume          =    1750.7440 (a.u.)^3
     number of atoms/cell      =           12
     number of atomic types    =            2
     number of electrons       =       104.00
     number of Kohn-Sham states=           62
     kinetic-energy cutoff     =      80.0000  Ry
     charge density cutoff     =     640.0000  Ry
     scf convergence threshold =      1.0E-08
     mixing beta               =       0.2000
     number of iterations used =            8  local-TF  mixing
     Exchange-correlation= VDW-DF2-B86R
                           (   1   4  26   0   2   0   0)

     celldm(1)=   5.971535  celldm(2)=   0.000000  celldm(3)=   9.493671
     celldm(4)=   0.000000  celldm(5)=   0.000000  celldm(6)=   0.000000

     crystal axes: (cart. coord. in units of alat)
               a(1) = (   1.000000   0.000000   0.000000 )  
               a(2) = (  -0.500000   0.866025   0.000000 )  
               a(3) = (   0.000000   0.000000   9.493671 )  

     reciprocal axes: (cart. coord. in units 2 pi/alat)
               b(1) = (  1.000000  0.577350 -0.000000 )  
               b(2) = (  0.000000  1.154701  0.000000 )  
               b(3) = (  0.000000 -0.000000  0.105333 )  


     PseudoPot. # 1 for Mo read from file:
     ./pseudo/Mo.pbe-spn-kjpaw_psl.1.0.0.UPF
     MD5 check sum: 4396e0c640fcce5c25f020efccf1ab12
     Pseudo is Projector augmented-wave + core cor, Zval = 14.0
     Generated using &quot;atomic&quot; code by A. Dal Corso  v.6.3
     Shape of augmentation charge: PSQ
     Using radial grid of 1229 points,  6 beta functions with: 
                l(1) =   0
                l(2) =   0
                l(3) =   1
                l(4) =   1
                l(5) =   2
                l(6) =   2
     Q(r) pseudized with 0 coefficients 


     PseudoPot. # 2 for S  read from file:
     ./pseudo/S.pbe-n-kjpaw_psl.1.0.0.UPF
     MD5 check sum: fb45dfebcf3e72a4e1bd4a866ec2e262
     Pseudo is Projector augmented-wave + core cor, Zval =  6.0
     Generated using &quot;atomic&quot; code by A. Dal Corso  v.6.3
     Shape of augmentation charge: PSQ
     Using radial grid of 1151 points,  6 beta functions with: 
                l(1) =   0
                l(2) =   0
                l(3) =   1
                l(4) =   1
                l(5) =   2
                l(6) =   2
     Q(r) pseudized with 0 coefficients 


     atomic species   valence    mass     pseudopotential
     Mo               14.00    95.96000     Mo( 1.00)
     S                 6.00    32.06000     S ( 1.00)

      6 Sym. Ops. (no inversion) found



   Cartesian axes

     site n.     atom                  positions (alat units)
         1        S      tau(   1) = (  -0.0000005   0.5773503  -0.9967195  )
         2        Mo     tau(   2) = (   0.0000000   0.0000000  -0.4993332  )
         3        S      tau(   3) = (  -0.0000005   0.5773503  -0.0017175  )
         4        S      tau(   4) = (   0.5000003   0.2886747   0.9835827  )
         5        Mo     tau(   5) = (  -0.0000005   0.5773503   1.4818950  )
         6        S      tau(   6) = (   0.5000003   0.2886747   1.9798512  )
         7        S      tau(   7) = (   0.0000000   0.0000000   2.9586848  )
         8        Mo     tau(   8) = (   0.5000003   0.2886747   3.4569999  )
         9        S      tau(   9) = (   0.0000000   0.0000000   3.9548385  )
        10        S      tau(  10) = (  -0.0000005   0.5773503   5.4903819  )
        11        Mo     tau(  11) = (   0.0000000   0.0000000   5.9880184  )
        12        S      tau(  12) = (  -0.0000005   0.5773503   6.4851526  )

     number of k points=    30  Methfessel-Paxton smearing, width (Ry)=  0.0200
                       cart. coord. in units 2pi/alat
        k(    1) = (   0.0000000   0.0000000   0.0000000), wk =   0.0078125
        k(    2) = (   0.0000000   0.0721688   0.0000000), wk =   0.0468750
        k(    3) = (   0.0000000   0.1443376   0.0000000), wk =   0.0468750
        k(    4) = (   0.0000000   0.2165064   0.0000000), wk =   0.0468750
        k(    5) = (   0.0000000   0.2886751   0.0000000), wk =   0.0468750
        k(    6) = (   0.0000000   0.3608439   0.0000000), wk =   0.0468750
        k(    7) = (   0.0000000   0.4330127   0.0000000), wk =   0.0468750
        k(    8) = (   0.0000000   0.5051815   0.0000000), wk =   0.0468750
        k(    9) = (   0.0000000  -0.5773503   0.0000000), wk =   0.0234375
        k(   10) = (   0.0625000   0.1082532   0.0000000), wk =   0.0468750
        k(   11) = (   0.0625000   0.1804220   0.0000000), wk =   0.0937500
        k(   12) = (   0.0625000   0.2525907   0.0000000), wk =   0.0937500
        k(   13) = (   0.0625000   0.3247595   0.0000000), wk =   0.0937500
        k(   14) = (   0.0625000   0.3969283   0.0000000), wk =   0.0937500
        k(   15) = (   0.0625000   0.4690971   0.0000000), wk =   0.0937500
        k(   16) = (   0.0625000   0.5412659   0.0000000), wk =   0.0937500
        k(   17) = (   0.1250000   0.2165064   0.0000000), wk =   0.0468750
        k(   18) = (   0.1250000   0.2886751   0.0000000), wk =   0.0937500
        k(   19) = (   0.1250000   0.3608439   0.0000000), wk =   0.0937500
        k(   20) = (   0.1250000   0.4330127   0.0000000), wk =   0.0937500
        k(   21) = (   0.1250000   0.5051815   0.0000000), wk =   0.0937500
        k(   22) = (   0.1250000   0.5773503   0.0000000), wk =   0.0468750
        k(   23) = (   0.1875000   0.3247595   0.0000000), wk =   0.0468750
        k(   24) = (   0.1875000   0.3969283   0.0000000), wk =   0.0937500
        k(   25) = (   0.1875000   0.4690971   0.0000000), wk =   0.0937500
        k(   26) = (   0.1875000   0.5412659   0.0000000), wk =   0.0937500
        k(   27) = (   0.2500000   0.4330127   0.0000000), wk =   0.0468750
        k(   28) = (   0.2500000   0.5051815   0.0000000), wk =   0.0937500
        k(   29) = (   0.2500000   0.5773503   0.0000000), wk =   0.0468750
        k(   30) = (   0.3125000   0.5412659   0.0000000), wk =   0.0468750

     Dense  grid:   478405 G-vectors     FFT dimensions: (  50,  50, 480)

     Smooth grid:   168563 G-vectors     FFT dimensions: (  36,  36, 324)

     Estimated max dynamical RAM per process >       2.35 GB

     Initial potential from superposition of free atoms

     starting charge     103.9962, renormalised to     104.0000


     %%%%%%%%%%%%%%%%%%%%%%%%%%%%%%%%%%%%%%%%%%%%%%%%%%%%%%%%%%%%%%%%%%%%%%%%
     %                                                                      %
     % You are using vdW-DF, which was implemented by the Thonhauser group. %
     % Please cite the following two papers that made this development      %
     % possible and the two reviews that describe the various versions:     %
     %                                                                      %
     %   T. Thonhauser et al., PRL 115, 136402 (2015).                      %
     %   T. Thonhauser et al., PRB 76, 125112 (2007).                       %
     %   K. Berland et al., Rep. Prog. Phys. 78, 066501 (2015).             %
     %   D.C. Langreth et al., J. Phys.: Condens. Matter 21, 084203 (2009). %
     %                                                                      %
     % If you are calculating stress with vdW-DF, please also cite:         %
     %                                                                      %
     %   R. Sabatini et al., J. Phys.: Condens. Matter 24, 424209 (2012).   %
     %                                                                      %
     %%%%%%%%%%%%%%%%%%%%%%%%%%%%%%%%%%%%%%%%%%%%%%%%%%%%%%%%%%%%%%%%%%%%%%%%

     %%%%%%%%%%%%%%%%%%%%%%%%%%%%%%%%%%%%%%%%%%%%%%%%%%%%%%%%%%%%%%%%%%%%%%%%
     %                                                                      %
     %  vdW-DF NEWS:                                                        %
     %                                                                      %
     %  * vdW-DF3 is now available. DOI: 10.1021/acs.jctc.0c00471           %
     %    use with input_dft = 'vdW-DF3-opt1' or 'vdW-DF3-opt2'             %
     %                                                                      %
     %  * Unscreened and range-separated hybrid vdW-DF-cx functionals       %
     %    DOI: 10.1063/1.4986522 and 10.1088/1361-648X/ac2ad2               %
     %    use with input_dft = 'vdW-DF-cx0'    and 'vdW-DF-ahcx'            %
     %  * Unscreened and range-separated hybrid vdW-DF2-b86r functionals    %
     %    DOI: 10.1063/1.4986522 and DOI: 10.1103/PhysRevX.12.041003        %
     %    use with input_dft = 'vdW-DF2-br0' and 'vdW-DF2-ahbr'             %
     %                                                                      %
     %%%%%%%%%%%%%%%%%%%%%%%%%%%%%%%%%%%%%%%%%%%%%%%%%%%%%%%%%%%%%%%%%%%%%%%%


     Starting wfcs are   72 randomized atomic wfcs
     Checking if some PAW data can be deallocated... 

     total cpu time spent up to now is       85.9 secs

     Self-consistent Calculation

     iteration #  1     ecut=    80.00 Ry     beta= 0.20
     Davidson diagonalization with overlap
     ethr =  1.00E-02,  avg # of iterations =  2.2

     Threshold (ethr) on eigenvalues was too large:
     Diagonalizing with lowered threshold

     Davidson diagonalization with overlap
     ethr =  3.07E-04,  avg # of iterations =  3.1

     total cpu time spent up to now is      339.3 secs

     total energy              =   -1978.45906690 Ry
     estimated scf accuracy    <       0.43703672 Ry

     iteration #  2     ecut=    80.00 Ry     beta= 0.20
     Davidson diagonalization with overlap
     ethr =  4.20E-04,  avg # of iterations =  1.0

     total cpu time spent up to now is      437.3 secs

     total energy              =   -1978.28044826 Ry
     estimated scf accuracy    <       0.36516067 Ry

     iteration #  3     ecut=    80.00 Ry     beta= 0.20
     Davidson diagonalization with overlap
     ethr =  3.51E-04,  avg # of iterations =  2.0

     total cpu time spent up to now is      567.4 secs

     total energy              =   -1978.36041418 Ry
     estimated scf accuracy    <       0.04915906 Ry

     iteration #  4     ecut=    80.00 Ry     beta= 0.20
     Davidson diagonalization with overlap
     ethr =  4.73E-05,  avg # of iterations =  2.5

     total cpu time spent up to now is      694.2 secs

     total energy              =   -1978.36383719 Ry
     estimated scf accuracy    <       0.01615918 Ry

     iteration #  5     ecut=    80.00 Ry     beta= 0.20
     Davidson diagonalization with overlap
     ethr =  1.55E-05,  avg # of iterations =  3.7

     total cpu time spent up to now is      813.5 secs

     total energy              =   -1978.36481799 Ry
     estimated scf accuracy    <       0.00400428 Ry

     iteration #  6     ecut=    80.00 Ry     beta= 0.20
     Davidson diagonalization with overlap
     c_bands:  1 eigenvalues not converged
     c_bands:  1 eigenvalues not converged
     ethr =  3.85E-06,  avg # of iterations =  7.0

     total cpu time spent up to now is      932.6 secs

     total energy              =   -1978.36370819 Ry
     estimated scf accuracy    <       0.00274017 Ry

     iteration #  7     ecut=    80.00 Ry     beta= 0.20
     Davidson diagonalization with overlap
     ethr =  2.63E-06,  avg # of iterations =  5.8

     total cpu time spent up to now is     1090.3 secs

     total energy              =   -1978.36327179 Ry
     estimated scf accuracy    <       0.00780386 Ry

     iteration #  8     ecut=    80.00 Ry     beta= 0.20
     Davidson diagonalization with overlap
     ethr =  2.63E-06,  avg # of iterations =  2.9

     total cpu time spent up to now is     1212.8 secs

     total energy              =   -1978.36374764 Ry
     estimated scf accuracy    <       0.00072129 Ry

     iteration #  9     ecut=    80.00 Ry     beta= 0.20
     Davidson diagonalization with overlap
     ethr =  6.94E-07,  avg # of iterations =  7.2

     total cpu time spent up to now is     1359.8 secs

     total energy              =   -1978.36394784 Ry
     estimated scf accuracy    <       0.00141320 Ry

     iteration # 10     ecut=    80.00 Ry     beta= 0.20
     Davidson diagonalization with overlap
     ethr =  6.94E-07,  avg # of iterations =  1.9

     total cpu time spent up to now is     1467.8 secs

     total energy              =   -1978.36397188 Ry
     estimated scf accuracy    <       0.00087540 Ry

     iteration # 11     ecut=    80.00 Ry     beta= 0.20
     Davidson diagonalization with overlap
     ethr =  6.94E-07,  avg # of iterations =  1.0

     total cpu time spent up to now is     1566.2 secs

     total energy              =   -1978.36384901 Ry
     estimated scf accuracy    <       0.00079321 Ry

     iteration # 12     ecut=    80.00 Ry     beta= 0.20
     Davidson diagonalization with overlap
     ethr =  6.94E-07,  avg # of iterations =  2.0

     total cpu time spent up to now is     1675.4 secs

     total energy              =   -1978.36384559 Ry
     estimated scf accuracy    <       0.00015577 Ry

     iteration # 13     ecut=    80.00 Ry     beta= 0.20
     Davidson diagonalization with overlap
     ethr =  1.50E-07,  avg # of iterations =  4.7

     total cpu time spent up to now is     1804.6 secs

     total energy              =   -1978.36387124 Ry
     estimated scf accuracy    <       0.00008978 Ry

     iteration # 14     ecut=    80.00 Ry     beta= 0.20
     Davidson diagonalization with overlap
     ethr =  8.63E-08,  avg # of iterations =  2.4

     total cpu time spent up to now is     1918.2 secs

     total energy              =   -1978.36388540 Ry
     estimated scf accuracy    <       0.00003997 Ry

     iteration # 15     ecut=    80.00 Ry     beta= 0.20
     Davidson diagonalization with overlap
     ethr =  3.84E-08,  avg # of iterations =  1.6

     total cpu time spent up to now is     2022.1 secs

     total energy              =   -1978.36388279 Ry
     estimated scf accuracy    <       0.00004279 Ry

     iteration # 16     ecut=    80.00 Ry     beta= 0.20
     Davidson diagonalization with overlap
     ethr =  3.84E-08,  avg # of iterations =  1.0

     total cpu time spent up to now is     2120.2 secs

     total energy              =   -1978.36387640 Ry
     estimated scf accuracy    <       0.00003388 Ry

     iteration # 17     ecut=    80.00 Ry     beta= 0.20
     Davidson diagonalization with overlap
     ethr =  3.26E-08,  avg # of iterations =  2.0

     total cpu time spent up to now is     2232.1 secs

     total energy              =   -1978.36387817 Ry
     estimated scf accuracy    <       0.00002122 Ry

     iteration # 18     ecut=    80.00 Ry     beta= 0.20
     Davidson diagonalization with overlap
     ethr =  2.04E-08,  avg # of iterations =  1.0

     total cpu time spent up to now is     2330.5 secs

     total energy              =   -1978.36387700 Ry
     estimated scf accuracy    <       0.00001971 Ry

     iteration # 19     ecut=    80.00 Ry     beta= 0.20
     Davidson diagonalization with overlap
     ethr =  1.90E-08,  avg # of iterations =  1.7

     total cpu time spent up to now is     2435.8 secs

     total energy              =   -1978.36387705 Ry
     estimated scf accuracy    <       0.00001670 Ry

     iteration # 20     ecut=    80.00 Ry     beta= 0.20
     Davidson diagonalization with overlap
     ethr =  1.61E-08,  avg # of iterations =  1.0

     total cpu time spent up to now is     2533.7 secs

     total energy              =   -1978.36387575 Ry
     estimated scf accuracy    <       0.00001395 Ry

     iteration # 21     ecut=    80.00 Ry     beta= 0.20
     Davidson diagonalization with overlap
     ethr =  1.34E-08,  avg # of iterations =  2.0

     total cpu time spent up to now is     2645.0 secs

     total energy              =   -1978.36387537 Ry
     estimated scf accuracy    <       0.00001363 Ry

     iteration # 22     ecut=    80.00 Ry     beta= 0.20
     Davidson diagonalization with overlap
     ethr =  1.31E-08,  avg # of iterations =  2.0

     total cpu time spent up to now is     2768.0 secs

     total energy              =   -1978.36387415 Ry
     estimated scf accuracy    <       0.00001062 Ry

     iteration # 23     ecut=    80.00 Ry     beta= 0.20
     Davidson diagonalization with overlap
     ethr =  1.02E-08,  avg # of iterations =  2.0

     total cpu time spent up to now is     2893.3 secs

     total energy              =   -1978.36387585 Ry
     estimated scf accuracy    <       0.00000705 Ry

     iteration # 24     ecut=    80.00 Ry     beta= 0.20
     Davidson diagonalization with overlap
     ethr =  6.78E-09,  avg # of iterations =  1.0

     total cpu time spent up to now is     2991.6 secs

     total energy              =   -1978.36387439 Ry
     estimated scf accuracy    <       0.00000671 Ry

     iteration # 25     ecut=    80.00 Ry     beta= 0.20
     Davidson diagonalization with overlap
     ethr =  6.45E-09,  avg # of iterations =  2.0

     total cpu time spent up to now is     3103.3 secs

     total energy              =   -1978.36387465 Ry
     estimated scf accuracy    <       0.00000415 Ry

     iteration # 26     ecut=    80.00 Ry     beta= 0.20
     Davidson diagonalization with overlap
     ethr =  3.99E-09,  avg # of iterations =  1.0

     total cpu time spent up to now is     3201.3 secs

     total energy              =   -1978.36387403 Ry
     estimated scf accuracy    <       0.00000378 Ry

     iteration # 27     ecut=    80.00 Ry     beta= 0.20
     Davidson diagonalization with overlap
     ethr =  3.64E-09,  avg # of iterations =  1.2

     total cpu time spent up to now is     3301.4 secs

     total energy              =   -1978.36387376 Ry
     estimated scf accuracy    <       0.00000315 Ry

     iteration # 28     ecut=    80.00 Ry     beta= 0.20
     Davidson diagonalization with overlap
     ethr =  3.02E-09,  avg # of iterations =  1.8

     total cpu time spent up to now is     3407.5 secs

     total energy              =   -1978.36387339 Ry
     estimated scf accuracy    <       0.00000259 Ry

     iteration # 29     ecut=    80.00 Ry     beta= 0.20
     Davidson diagonalization with overlap
     ethr =  2.49E-09,  avg # of iterations =  2.0

     total cpu time spent up to now is     3515.3 secs

     total energy              =   -1978.36387309 Ry
     estimated scf accuracy    <       0.00000192 Ry

     iteration # 30     ecut=    80.00 Ry     beta= 0.20
     Davidson diagonalization with overlap
     ethr =  1.85E-09,  avg # of iterations =  1.4

     total cpu time spent up to now is     3617.7 secs

     total energy              =   -1978.36387275 Ry
     estimated scf accuracy    <       0.00000144 Ry

     iteration # 31     ecut=    80.00 Ry     beta= 0.20
     Davidson diagonalization with overlap
     ethr =  1.38E-09,  avg # of iterations =  1.7

     total cpu time spent up to now is     3722.9 secs

     total energy              =   -1978.36387265 Ry
     estimated scf accuracy    <       0.00000083 Ry

     iteration # 32     ecut=    80.00 Ry     beta= 0.20
     Davidson diagonalization with overlap
     ethr =  7.95E-10,  avg # of iterations =  1.5

     total cpu time spent up to now is     3827.0 secs

     total energy              =   -1978.36387254 Ry
     estimated scf accuracy    <       0.00000061 Ry

     iteration # 33     ecut=    80.00 Ry     beta= 0.20
     Davidson diagonalization with overlap
     ethr =  5.90E-10,  avg # of iterations =  1.9

     total cpu time spent up to now is     3935.0 secs

     total energy              =   -1978.36387249 Ry
     estimated scf accuracy    <       0.00000038 Ry

     iteration # 34     ecut=    80.00 Ry     beta= 0.20
     Davidson diagonalization with overlap
     ethr =  3.61E-10,  avg # of iterations =  2.0

     total cpu time spent up to now is     4049.3 secs

     total energy              =   -1978.36387244 Ry
     estimated scf accuracy    <       0.00000025 Ry

     iteration # 35     ecut=    80.00 Ry     beta= 0.20
     Davidson diagonalization with overlap
     ethr =  2.43E-10,  avg # of iterations =  2.0

     total cpu time spent up to now is     4160.3 secs

     total energy              =   -1978.36387245 Ry
     estimated scf accuracy    <       0.00000008 Ry

     iteration # 36     ecut=    80.00 Ry     beta= 0.20
     Davidson diagonalization with overlap
     ethr =  7.84E-11,  avg # of iterations =  1.2

     total cpu time spent up to now is     4260.0 secs

     total energy              =   -1978.36387246 Ry
     estimated scf accuracy    <       0.00000007 Ry

     iteration # 37     ecut=    80.00 Ry     beta= 0.20
     Davidson diagonalization with overlap
     ethr =  6.91E-11,  avg # of iterations =  1.3

     total cpu time spent up to now is     4360.7 secs

     total energy              =   -1978.36387246 Ry
     estimated scf accuracy    <       0.00000006 Ry

     iteration # 38     ecut=    80.00 Ry     beta= 0.20
     Davidson diagonalization with overlap
     ethr =  5.50E-11,  avg # of iterations =  1.4

     total cpu time spent up to now is     4463.0 secs

     total energy              =   -1978.36387246 Ry
     estimated scf accuracy    <       0.00000005 Ry

     iteration # 39     ecut=    80.00 Ry     beta= 0.20
     Davidson diagonalization with overlap
     ethr =  4.60E-11,  avg # of iterations =  1.0

     total cpu time spent up to now is     4561.8 secs

     total energy              =   -1978.36387246 Ry
     estimated scf accuracy    <       0.00000005 Ry

     iteration # 40     ecut=    80.00 Ry     beta= 0.20
     Davidson diagonalization with overlap
     ethr =  4.42E-11,  avg # of iterations =  1.0

     total cpu time spent up to now is     4659.8 secs

     total energy              =   -1978.36387245 Ry
     estimated scf accuracy    <       0.00000004 Ry

     iteration # 41     ecut=    80.00 Ry     beta= 0.20
     Davidson diagonalization with overlap
     ethr =  4.22E-11,  avg # of iterations =  1.0

     total cpu time spent up to now is     4758.3 secs

     total energy              =   -1978.36387245 Ry
     estimated scf accuracy    <       0.00000004 Ry

     iteration # 42     ecut=    80.00 Ry     beta= 0.20
     Davidson diagonalization with overlap
     ethr =  3.75E-11,  avg # of iterations =  2.0

     total cpu time spent up to now is     4866.9 secs

     total energy              =   -1978.36387245 Ry
     estimated scf accuracy    <       0.00000004 Ry

     iteration # 43     ecut=    80.00 Ry     beta= 0.20
     Davidson diagonalization with overlap
     ethr =  3.56E-11,  avg # of iterations =  1.0

     total cpu time spent up to now is     4964.9 secs

     total energy              =   -1978.36387244 Ry
     estimated scf accuracy    <       0.00000003 Ry

     iteration # 44     ecut=    80.00 Ry     beta= 0.20
     Davidson diagonalization with overlap
     ethr =  2.95E-11,  avg # of iterations =  2.0

     total cpu time spent up to now is     5076.4 secs

     total energy              =   -1978.36387244 Ry
     estimated scf accuracy    <       0.00000002 Ry

     iteration # 45     ecut=    80.00 Ry     beta= 0.20
     Davidson diagonalization with overlap
     ethr =  2.18E-11,  avg # of iterations =  2.1

     total cpu time spent up to now is     5197.2 secs

     total energy              =   -1978.36387244 Ry
     estimated scf accuracy    <       0.00000002 Ry

     iteration # 46     ecut=    80.00 Ry     beta= 0.20
     Davidson diagonalization with overlap
     ethr =  1.56E-11,  avg # of iterations =  1.5

     total cpu time spent up to now is     5300.0 secs

     End of self-consistent calculation

          k = 0.0000 0.0000 0.0000 ( 21311 PWs)   bands (ev):

   -53.4965 -53.4632 -53.4560 -53.4137 -27.6704 -27.6369 -27.6305 -27.5881
   -27.4330 -27.4330 -27.4010 -27.4010 -27.3925 -27.3925 -27.3513 -27.3513
    -6.8444  -6.7490  -6.7374  -6.6553  -5.6105  -5.4550  -5.4493  -5.3231
     1.3549   1.6851   1.7380   2.0399   4.7812   4.7812   4.7891   4.8050
     4.8050   4.8192   4.8192   4.8532   4.8532   5.4124   5.5149   5.8956
     5.8957   5.9244   5.9245   5.9335   5.9335   5.9719   5.9719   6.2195
     6.9815   7.2601   7.5296   7.8546  10.1254  10.1254  10.1726  10.1726
    10.1845  10.1845  10.2240  10.2240  10.3488  10.3491

          k = 0.0000 0.0722 0.0000 ( 21283 PWs)   bands (ev):

   -53.4949 -53.4616 -53.4544 -53.4121 -27.6674 -27.6338 -27.6275 -27.5850
   -27.4486 -27.4366 -27.4166 -27.4080 -27.4045 -27.3960 -27.3669 -27.3548
    -6.7848  -6.6897  -6.6780  -6.5961  -5.5828  -5.4297  -5.4244  -5.3000
     1.4237   1.7527   1.8071   2.1078   4.6423   4.6554   4.6707   4.6837
     4.7192   4.8434   4.8675   4.8814   4.9157   5.1666   5.2288   5.5724
     5.7984   5.8278   5.8367   5.8756   5.9949   6.0910   6.1270   6.4599
     6.9842   7.2408   7.4948   7.7745  10.0516  10.0900  10.0946  10.1388
    10.1822  10.2140  10.2147  10.2407  10.2559  10.2801

          k = 0.0000 0.1443 0.0000 ( 21263 PWs)   bands (ev):

   -53.4905 -53.4572 -53.4500 -53.4077 -27.6587 -27.6252 -27.6188 -27.5764
   -27.4926 -27.4607 -27.4521 -27.4466 -27.4146 -27.4110 -27.4060 -27.3649
    -6.6108  -6.5169  -6.5048  -6.4239  -5.5022  -5.3562  -5.3518  -5.2328
     1.6155   1.9388   1.9975   2.2930   4.2917   4.3242   4.3284   4.3414
     4.3796   4.7332   4.7763   5.0224   5.0477   5.0566   5.0606   5.0959
     5.5469   5.5778   5.5864   5.6264   6.0537   6.2258   6.2874   6.6105
     6.9555   7.1497   7.3404   7.5166   9.7512   9.8239   9.8574   9.9246
     9.9665   9.9863  10.0637  10.0672  10.1119  10.1403

          k = 0.0000 0.2165 0.0000 ( 21233 PWs)   bands (ev):

   -53.4838 -53.4505 -53.4433 -53.4011 -27.6457 -27.6122 -27.6059 -27.5634
   -27.5580 -27.5261 -27.5175 -27.4764 -27.4616 -27.4296 -27.4210 -27.3799
    -6.3372  -6.2458  -6.2335  -6.1546  -5.3757  -5.2415  -5.2381  -5.1281
     1.8754   2.1803   2.2444   2.5195   3.8539   3.8955   3.9023   3.9229
     3.9974   4.2572   4.3036   4.5112   5.2199   5.2543   5.2591   5.2939
     5.3049   5.3228   5.3378   5.3727   5.9664   6.1785   6.2352   6.5277
     6.8122   6.9250   7.0188   7.1061   9.3729   9.5210   9.5815   9.8164
     9.8455   9.9257   9.9368   9.9522  10.0050  10.0319

          k = 0.0000 0.2887 0.0000 ( 21197 PWs)   bands (ev):

   -53.4760 -53.4427 -53.4355 -53.3932 -27.6343 -27.6304 -27.6025 -27.5968
   -27.5938 -27.5905 -27.5528 -27.5480 -27.4792 -27.4472 -27.4386 -27.3975
    -5.9896  -5.9029  -5.8903  -5.8152  -5.2158  -5.0981  -5.0952  -4.9976
     2.0754   2.3236   2.3815   2.5844   3.4517   3.5219   3.5805   3.5957
     3.6790   3.7707   3.8583   3.9716   4.8919   4.9264   4.9335   4.9762
     5.6198   5.6523   5.6618   5.7031   5.7514   5.9819   6.0253   6.2834
     6.5390   6.6031   6.6352   6.6943   9.2402   9.4448   9.5101   9.6574
     9.7354   9.7438   9.8119   9.8124  10.1688  10.2955

          k = 0.0000 0.3608 0.0000 ( 21187 PWs)   bands (ev):

   -53.4681 -53.4348 -53.4276 -53.3853 -27.7097 -27.6779 -27.6692 -27.6283
   -27.6150 -27.5814 -27.5751 -27.5326 -27.4967 -27.4648 -27.4562 -27.4151
    -5.6062  -5.5276  -5.5149  -5.4462  -5.0418  -4.9444  -4.9411  -4.8587
     2.0392   2.1916   2.2261   2.3321   3.0867   3.2077   3.3019   3.3732
     3.4454   3.5082   3.5728   3.6653   4.6033   4.6390   4.6459   4.6894
     5.5168   5.7478   5.7843   5.9381   5.9806   5.9869   6.0079   6.0354
     6.3203   6.3817   6.4060   6.4635   9.3583   9.5545   9.5673   9.6205
     9.6221   9.6273   9.6909   9.9027  10.5004  10.6534

          k = 0.0000 0.4330 0.0000 ( 21140 PWs)   bands (ev):

   -53.4614 -53.4281 -53.4209 -53.3786 -27.7729 -27.7412 -27.7324 -27.6916
   -27.6019 -27.5683 -27.5620 -27.5195 -27.5116 -27.4796 -27.4710 -27.4299
    -5.2417  -5.1749  -5.1625  -5.1034  -4.8795  -4.8043  -4.8008  -4.7340
     1.8073   1.8973   1.9224   1.9815   2.7495   2.8588   2.9077   2.9781
     3.3355   3.4527   3.4608   3.5836   4.3825   4.4189   4.4256   4.4696
     5.3421   5.5631   5.5968   5.7925   6.1911   6.2478   6.2512   6.3091
     6.3387   6.4218   6.4419   6.5178   9.5498   9.6030   9.6043   9.6209
     9.6601   9.7936   9.8290  10.0411  10.8126  10.9767

          k = 0.0000 0.5052 0.0000 ( 21078 PWs)   bands (ev):

   -53.4570 -53.4237 -53.4165 -53.3742 -27.8148 -27.7832 -27.7743 -27.7336
   -27.5932 -27.5595 -27.5533 -27.5214 -27.5107 -27.4895 -27.4809 -27.4398
    -4.9686  -4.9153  -4.9037  -4.8556  -4.7604  -4.7045  -4.7029  -4.6477
     1.5799   1.6442   1.6708   1.7132   2.5130   2.5960   2.6403   2.6967
     3.2322   3.3495   3.3594   3.4707   4.2447   4.2815   4.2882   4.3325
     5.2472   5.4574   5.4871   5.6616   6.3442   6.4137   6.4152   6.4816
     6.5269   6.6186   6.6282   6.7059   9.5996   9.6398   9.6429   9.6904
     9.9138  10.0296  10.0479  10.1740  11.0078  11.1635

          k = 0.0000-0.5774 0.0000 ( 21006 PWs)   bands (ev):

   -53.4554 -53.4221 -53.4149 -53.3726 -27.8295 -27.7979 -27.7890 -27.7482
   -27.5901 -27.5564 -27.5502 -27.5249 -27.5076 -27.4930 -27.4844 -27.4433
    -4.8644  -4.8181  -4.8073  -4.7649  -4.7158  -4.6687  -4.6680  -4.6172
     1.4882   1.5468   1.5748   1.6136   2.4283   2.4999   2.5455   2.5974
     3.1841   3.3006   3.3103   3.4182   4.1980   4.2349   4.2415   4.2860
     5.2187   5.4240   5.4516   5.6175   6.3938   6.4683   6.4695   6.5392
     6.6438   6.7205   6.7302   6.7924   9.6285   9.6643   9.6693   9.7135
    10.0703  10.1451  10.1513  10.2176  11.0686  11.2133

          k = 0.0625 0.1083 0.0000 ( 21269 PWs)   bands (ev):

   -53.4919 -53.4586 -53.4514 -53.4091 -27.6615 -27.6280 -27.6216 -27.5792
   -27.4779 -27.4459 -27.4438 -27.4374 -27.4118 -27.4032 -27.3962 -27.3621
    -6.6679  -6.5736  -6.5617  -6.4804  -5.5287  -5.3803  -5.3756  -5.2549
     1.5545   1.8802   1.9375   2.2352   4.4026   4.4322   4.4364   4.4456
     4.4833   4.8673   4.9140   4.9622   4.9869   5.0003   5.0348   5.2215
     5.5835   5.6133   5.6214   5.6606   6.0907   6.2389   6.2967   6.6144
     6.9725   7.1859   7.4018   7.6053   9.8767   9.9082   9.9407   9.9590
     9.9774  10.0125  10.0362  10.1045  10.1402  10.2015

          k = 0.0625 0.1804 0.0000 ( 21194 PWs)   bands (ev):

   -53.4864 -53.4531 -53.4459 -53.4036 -27.6507 -27.6171 -27.6108 -27.5683
   -27.5314 -27.4995 -27.4909 -27.4575 -27.4498 -27.4255 -27.4169 -27.3758
    -6.4440  -6.3515  -6.3393  -6.2595  -5.4249  -5.2860  -5.2823  -5.1687
     1.7845   2.0993   2.1619   2.4487   4.0186   4.0537   4.0555   4.0861
     4.1470   4.4704   4.5139   4.7627   5.1777   5.2045   5.2070   5.2271
     5.2443   5.2479   5.2650   5.2952   6.1415   6.3175   6.3791   6.6546
     6.8894   7.0267   7.1629   7.2675   9.4827   9.6003   9.6468   9.8070
     9.8482   9.9057   9.9233   9.9780  10.0177  10.0826

          k = 0.0625 0.2526 0.0000 ( 21202 PWs)   bands (ev):

   -53.4791 -53.4458 -53.4386 -53.3963 -27.6365 -27.6030 -27.6006 -27.5967
   -27.5687 -27.5601 -27.5541 -27.5191 -27.4755 -27.4435 -27.4349 -27.3938
    -6.1328  -6.0439  -6.0314  -5.9545  -5.2811  -5.1563  -5.1533  -5.0504
     2.0281   2.3088   2.3730   2.6176   3.6236   3.6723   3.6927   3.7094
     3.8177   4.0214   4.0797   4.2389   4.8391   4.8736   4.8836   4.9283
     5.4457   5.4766   5.4853   5.5254   6.0395   6.2230   6.2703   6.5013
     6.6789   6.7469   6.7986   6.8543   9.2192   9.4009   9.4572   9.6495
     9.7774   9.8174   9.8458   9.8798   9.9699  10.0507

          k = 0.0625 0.3248 0.0000 ( 21194 PWs)   bands (ev):

   -53.4712 -53.4380 -53.4308 -53.3885 -27.6746 -27.6429 -27.6341 -27.6212
   -27.5932 -27.5876 -27.5813 -27.5387 -27.4948 -27.4628 -27.4543 -27.4132
    -5.7658  -5.6832  -5.6705  -5.5987  -5.1128  -5.0065  -5.0033  -4.9143
     2.1177   2.3153   2.3605   2.5069   3.2829   3.3736   3.4962   3.5388
     3.5424   3.5712   3.7032   3.7382   4.5323   4.5811   4.5922   4.6480
     5.6787   5.7189   5.7200   5.7648   5.8284   6.0017   6.0353   6.2333
     6.4513   6.4979   6.5137   6.5640   9.1835   9.3800   9.4233   9.5637
     9.7082   9.7522   9.7804   9.9006  10.2308  10.3589

          k = 0.0625 0.3969 0.0000 ( 21151 PWs)   bands (ev):

   -53.4640 -53.4307 -53.4235 -53.3812 -27.7423 -27.7106 -27.7018 -27.6609
   -27.6069 -27.5733 -27.5670 -27.5245 -27.5126 -27.4807 -27.4721 -27.4310
    -5.3886  -5.3161  -5.3035  -5.2398  -4.9423  -4.8574  -4.8538  -4.7803
     1.9641   2.0797   2.1071   2.1846   2.9145   3.0257   3.0791   3.1473
     3.4073   3.5162   3.5263   3.6526   4.3329   4.3872   4.3957   4.4520
     5.5652   5.7399   5.7774   5.8255   5.8675   5.8766   5.8962   5.9894
     6.4618   6.5026   6.5132   6.5600   9.3181   9.4749   9.5007   9.5938
     9.7516   9.8078   9.8278   9.9867  10.5732  10.7127

          k = 0.0625 0.4691 0.0000 ( 21105 PWs)   bands (ev):

   -53.4584 -53.4251 -53.4179 -53.3756 -27.7936 -27.7620 -27.7531 -27.7123
   -27.5960 -27.5624 -27.5561 -27.5262 -27.5135 -27.4943 -27.4857 -27.4446
    -5.0646  -5.0054  -4.9933  -4.9404  -4.7984  -4.7348  -4.7320  -4.6725
     1.7275   1.8022   1.8277   1.8766   2.5992   2.6835   2.7228   2.7781
     3.3043   3.4221   3.4359   3.5489   4.2264   4.2744   4.2767   4.3278
     5.3738   5.5555   5.5838   5.7354   5.9461   6.0035   6.0086   6.0736
     6.6348   6.6828   6.6903   6.7434   9.5119   9.5998   9.6112   9.6697
     9.8876   9.9659   9.9825  10.1156  10.8897  11.0442

          k = 0.0625 0.5413 0.0000 ( 21084 PWs)   bands (ev):

   -53.4554 -53.4221 -53.4149 -53.3726 -27.8212 -27.7896 -27.7807 -27.7400
   -27.5901 -27.5564 -27.5502 -27.5336 -27.5076 -27.5017 -27.4930 -27.4520
    -4.8704  -4.8227  -4.8117  -4.7685  -4.7135  -4.6650  -4.6645  -4.6129
     1.5682   1.6277   1.6559   1.6954   2.4214   2.4878   2.5278   2.5770
     3.2149   3.3332   3.3457   3.4527   4.1847   4.2212   4.2238   4.2684
     5.2690   5.4547   5.4792   5.6287   6.0354   6.1031   6.1107   6.1718
     6.7882   6.8466   6.8518   6.9096   9.6274   9.6656   9.6675   9.7105
    10.0644  10.1426  10.1511  10.2299  11.1154  11.2358

          k = 0.1250 0.2165 0.0000 ( 21179 PWs)   bands (ev):

   -53.4802 -53.4469 -53.4397 -53.3975 -27.6387 -27.6051 -27.5988 -27.5866
   -27.5563 -27.5547 -27.5461 -27.5050 -27.4763 -27.4443 -27.4358 -27.3946
    -6.1820  -6.0924  -6.0799  -6.0024  -5.3034  -5.1762  -5.1732  -5.0685
     2.0089   2.3005   2.3663   2.6254   3.6976   3.7313   3.7454   3.7727
     3.9147   4.1819   4.2358   4.4261   4.7012   4.7303   4.7458   4.7874
     5.3665   5.3969   5.4044   5.4442   6.2249   6.3824   6.4352   6.6344
     6.7428   6.8058   6.8754   6.9232   9.2073   9.3774   9.4275   9.6092
     9.7659   9.7992   9.8459   9.8542   9.8937   9.9141

          k = 0.1250 0.2887 0.0000 ( 21199 PWs)   bands (ev):

   -53.4730 -53.4397 -53.4325 -53.3902 -27.6499 -27.6245 -27.6181 -27.6094
   -27.5909 -27.5846 -27.5685 -27.5421 -27.4996 -27.4676 -27.4591 -27.4180
    -5.8497  -5.7654  -5.7526  -5.6794  -5.1496  -5.0386  -5.0355  -4.9429
     2.1660   2.3966   2.4501   2.6311   3.4419   3.4930   3.5714   3.5948
     3.6869   3.7818   3.8609   3.9206   4.2663   4.3356   4.3607   4.4693
     5.4688   5.5092   5.5095   5.5560   6.1525   6.2886   6.3227   6.4714
     6.5573   6.5842   6.5930   6.6376   9.0491   9.2528   9.2996   9.4839
     9.7682   9.7970   9.8198   9.8850   9.9809  10.0574

          k = 0.1250 0.3608 0.0000 ( 21195 PWs)   bands (ev):

   -53.4657 -53.4324 -53.4252 -53.3829 -27.7121 -27.6804 -27.6716 -27.6308
   -27.6103 -27.5767 -27.5704 -27.5278 -27.5233 -27.4913 -27.4827 -27.4417
    -5.4848  -5.4089  -5.3962  -5.3297  -4.9815  -4.8903  -4.8866  -4.8085
     2.1194   2.2660   2.2977   2.3995   3.1145   3.2044   3.2588   3.3001
     3.4993   3.5897   3.6009   3.7174   4.0697   4.1846   4.2212   4.3376
     5.4098   5.4567   5.4618   5.5084   5.9328   6.0491   6.0737   6.1899
     6.5156   6.5520   6.5549   6.6003   9.0863   9.3069   9.3504   9.5521
     9.8395   9.8772   9.8905   9.9733  10.2287  10.3501

          k = 0.1250 0.4330 0.0000 ( 21113 PWs)   bands (ev):

   -53.4595 -53.4262 -53.4190 -53.3767 -27.7643 -27.7326 -27.7238 -27.6830
   -27.5982 -27.5646 -27.5583 -27.5435 -27.5157 -27.5115 -27.5029 -27.4619
    -5.1404  -5.0765  -5.0641  -5.0074  -4.8242  -4.7542  -4.7506  -4.6871
     1.9398   2.0341   2.0589   2.1216   2.7036   2.7669   2.7967   2.8386
     3.4282   3.5395   3.5718   3.6714   4.0403   4.1576   4.1789   4.2805
     5.3533   5.4211   5.4322   5.4916   5.6581   5.7699   5.7898   5.8967
     6.6544   6.6917   6.6965   6.7421   9.2944   9.4995   9.5354   9.7218
     9.9494   9.9844  10.0001  10.0581  10.5442  10.6970

          k = 0.1250 0.5052 0.0000 ( 21081 PWs)   bands (ev):

   -53.4554 -53.4221 -53.4149 -53.3726 -27.7988 -27.7672 -27.7583 -27.7176
   -27.5901 -27.5570 -27.5565 -27.5502 -27.5251 -27.5164 -27.5076 -27.4754
    -4.8844  -4.8337  -4.8222  -4.7770  -4.7080  -4.6568  -4.6554  -4.6025
     1.7776   1.8438   1.8720   1.9156   2.4094   2.4588   2.4878   2.5295
     3.3095   3.4315   3.4522   3.5518   4.0895   4.1835   4.1879   4.2608
     5.3476   5.4367   5.4816   5.4837   5.5278   5.5599   5.5723   5.6853
     6.8400   6.8880   6.8936   6.9461   9.5157   9.6258   9.6393   9.7234
    10.0981  10.1644  10.1744  10.2598  10.8230  10.9337

          k = 0.1250 0.5774 0.0000 ( 21108 PWs)   bands (ev):

   -53.4539 -53.4206 -53.4134 -53.3712 -27.8109 -27.7793 -27.7704 -27.7297
   -27.5873 -27.5617 -27.5536 -27.5474 -27.5298 -27.5212 -27.5048 -27.4801
    -4.7872  -4.7432  -4.7326  -4.6942  -4.6636  -4.6220  -4.6212  -4.5724
     1.7148   1.7708   1.8021   1.8399   2.3045   2.3499   2.3795   2.4216
     3.2494   3.3726   3.3894   3.4906   4.1384   4.1928   4.2053   4.2534
     5.2917   5.4252   5.4568   5.4750   5.5070   5.5118   5.5543   5.6292
     6.9317   6.9883   6.9938   7.0519   9.5948   9.6312   9.6362   9.6793
    10.2089  10.2901  10.2997  10.3587  10.9364  11.0505

          k = 0.1875 0.3248 0.0000 ( 21195 PWs)   bands (ev):

   -53.4663 -53.4330 -53.4258 -53.3835 -27.6986 -27.6668 -27.6581 -27.6172
   -27.6115 -27.5778 -27.5716 -27.5301 -27.5290 -27.4981 -27.4895 -27.4484
    -5.5183  -5.4412  -5.4284  -5.3611  -4.9948  -4.9013  -4.8977  -4.8180
     2.1854   2.3479   2.3818   2.4967   3.2432   3.3121   3.3622   3.3720
     3.5425   3.6217   3.6402   3.7168   3.9253   4.0550   4.1229   4.2686
     5.2361   5.2811   5.2883   5.3345   6.0980   6.1882   6.2133   6.2989
     6.5210   6.5625   6.5638   6.6128   8.9979   9.2390   9.2876   9.5261
     9.8639   9.8899   9.9106   9.9588  10.0813  10.1782

          k = 0.1875 0.3969 0.0000 ( 21153 PWs)   bands (ev):

   -53.4601 -53.4268 -53.4196 -53.3773 -27.7405 -27.7088 -27.7000 -27.6591
   -27.5994 -27.5657 -27.5609 -27.5595 -27.5290 -27.5203 -27.5169 -27.4793
    -5.1819  -5.1155  -5.1029  -5.0443  -4.8370  -4.7633  -4.7595  -4.6935
     2.1004   2.2155   2.2399   2.3185   2.7984   2.8271   2.8526   2.8807
     3.5634   3.6376   3.7252   3.7640   3.9262   4.0419   4.1112   4.2428
     4.9167   4.9733   4.9806   5.0336   5.8717   5.9343   5.9614   6.0171
     6.6238   6.6664   6.6724   6.7237   9.1528   9.4126   9.4641   9.7555
     9.9776  10.0109  10.0137  10.0575  10.2701  10.3847

          k = 0.1875 0.4691 0.0000 ( 21101 PWs)   bands (ev):

   -53.4554 -53.4221 -53.4149 -53.3726 -27.7710 -27.7393 -27.7305 -27.6897
   -27.5901 -27.5858 -27.5565 -27.5539 -27.5502 -27.5453 -27.5077 -27.5043
    -4.8979  -4.8444  -4.8325  -4.7854  -4.7025  -4.6488  -4.6463  -4.5921
     2.0150   2.1000   2.1266   2.1820   2.4029   2.4310   2.4509   2.4859
     3.4784   3.6010   3.6358   3.6974   3.9879   4.1331   4.1531   4.2747
     4.7305   4.8213   4.8327   4.9179   5.5708   5.6522   5.6689   5.7307
     6.8252   6.8633   6.8706   6.9171   9.3722   9.5474   9.5751   9.7234
    10.1401  10.1965  10.2117  10.2945  10.4842  10.5986

          k = 0.1875 0.5413 0.0000 ( 21112 PWs)   bands (ev):

   -53.4528 -53.4195 -53.4123 -53.3700 -27.7870 -27.7553 -27.7465 -27.7057
   -27.5997 -27.5851 -27.5679 -27.5592 -27.5515 -27.5452 -27.5182 -27.5026
    -4.7301  -4.6872  -4.6769  -4.6431  -4.6199  -4.5833  -4.5829  -4.5354
     1.9787   2.0354   2.0744   2.1133   2.1874   2.2180   2.2337   2.2747
     3.3355   3.4656   3.4845   3.5740   4.1178   4.2195   4.2350   4.3081
     4.6856   4.8032   4.8142   4.9078   5.3624   5.4492   5.4585   5.5303
     7.0085   7.0548   7.0611   7.1136   9.4454   9.5032   9.5075   9.5632
    10.3254  10.4180  10.4677  10.5367  10.6004  10.6970

          k = 0.2500 0.4330 0.0000 ( 21125 PWs)   bands (ev):

   -53.4554 -53.4221 -53.4149 -53.3726 -27.7565 -27.7248 -27.7160 -27.6752
   -27.6007 -27.5901 -27.5689 -27.5602 -27.5565 -27.5503 -27.5192 -27.5077
    -4.9033  -4.8489  -4.8368  -4.7888  -4.7003  -4.6454  -4.6426  -4.5878
     2.1232   2.2224   2.2476   2.3080   2.4024   2.4248   2.4365   2.4679
     3.6608   3.7021   3.7900   3.8073   3.9942   4.1100   4.1619   4.2921
     4.4171   4.4676   4.4683   4.5130   5.6431   5.6874   5.7186   5.7653
     6.8086   6.8455   6.8546   6.9005   9.3118   9.5082   9.5436   9.7149
    10.1513  10.1995  10.2265  10.3023  10.3545  10.4988

          k = 0.2500 0.5052 0.0000 ( 21117 PWs)   bands (ev):

   -53.4522 -53.4189 -53.4117 -53.3694 -27.7612 -27.7296 -27.7207 -27.6799
   -27.6333 -27.6015 -27.5928 -27.5840 -27.5518 -27.5503 -27.5441 -27.5015
    -4.7020  -4.6591  -4.6486  -4.6177  -4.5942  -4.5603  -4.5597  -4.5130
     2.0946   2.1191   2.1442   2.1689   2.2430   2.3188   2.3348   2.3920
     3.5058   3.6334   3.6510   3.6880   4.0541   4.1204   4.1915   4.2083
     4.2460   4.2671   4.3374   4.4073   5.3650   5.4272   5.4464   5.5050
     7.0493   7.0855   7.0934   7.1383   9.3122   9.3871   9.3943   9.4636
    10.2929  10.3589  10.3846  10.4611  10.5612  10.5925

          k = 0.2500 0.5774 0.0000 ( 21116 PWs)   bands (ev):

   -53.4511 -53.4178 -53.4106 -53.3683 -27.7610 -27.7294 -27.7206 -27.6798
   -27.6465 -27.6147 -27.6060 -27.5818 -27.5650 -27.5481 -27.5419 -27.4993
    -4.6264  -4.5894  -4.5804  -4.5688  -4.5468  -4.5290  -4.5275  -4.4859
     1.9955   2.0183   2.0402   2.0688   2.3289   2.3766   2.4049   2.4410
     3.3514   3.4758   3.4878   3.5604   4.0168   4.1220   4.1776   4.2181
     4.2943   4.3600   4.3841   4.4401   5.2466   5.2983   5.3108   5.3677
     7.1755   7.2157   7.2223   7.2706   9.2438   9.2776   9.2816   9.3240
    10.3174  10.3829  10.4162  10.4663  10.7306  10.7659

          k = 0.3125 0.5413 0.0000 ( 21100 PWs)   bands (ev):

   -53.4505 -53.4172 -53.4100 -53.3677 -27.7400 -27.7084 -27.6995 -27.6750
   -27.6587 -27.6431 -27.6345 -27.5935 -27.5806 -27.5469 -27.5407 -27.4981
    -4.5895  -4.5556  -4.5467  -4.5450  -4.5221  -4.5091  -4.5037  -4.4671
     1.9281   1.9505   1.9686   2.0002   2.5524   2.6151   2.6422   2.6851
     3.3598   3.3734   3.4262   3.4298   3.8393   3.8720   3.8907   3.8941
     4.3453   4.4306   4.4342   4.4953   5.1580   5.2241   5.2323   5.2979
     7.2581   7.2941   7.3007   7.3455   9.1277   9.1603   9.1668   9.2084
    10.2543  10.2895  10.3368  10.3764  10.8252  10.8936

     the Fermi energy is     8.3628 ev

!    total energy              =   -1978.36387243 Ry
     total all-electron energy =    -38771.684717 Ry
     estimated scf accuracy    <          9.2E-09 Ry
     smearing contrib. (-TS)   =       0.00003361 Ry
     internal energy E=F+TS    =   -1978.36390605 Ry

     The total energy is F=E-TS. E is the sum of the following terms:
     one-electron contribution =   -1118.34529370 Ry
     hartree contribution      =     601.41554072 Ry
     xc contribution           =    -119.22683468 Ry
     ewald contribution        =     -72.35521184 Ry
     one-center paw contrib.   =   -1269.85210655 Ry

     convergence has been achieved in  46 iterations

     Writing all to output data dir ./tmp/cleave/cleave_dz009_dz1p8/mos2_cleave.save/ :
     XML data file, charge density, pseudopotentials, collected wavefunctions

     init_run     :     84.83s CPU     85.77s WALL (       1 calls)
     electrons    :   5126.66s CPU   5214.16s WALL (       1 calls)

     Called by init_run:
     wfcinit      :     40.92s CPU     41.05s WALL (       1 calls)
     potinit      :     41.72s CPU     41.95s WALL (       1 calls)
     hinit0       :      0.32s CPU      0.33s WALL (       1 calls)

     Called by electrons:
     c_bands      :   4274.75s CPU   4301.86s WALL (      47 calls)
     sum_band     :    657.53s CPU    685.58s WALL (      47 calls)
     v_of_rho     :    121.69s CPU    130.39s WALL (      47 calls)
     newd         :     82.82s CPU    106.85s WALL (      47 calls)
     PAW_pot      :     18.51s CPU     18.52s WALL (      47 calls)
     mix_rho      :     13.81s CPU     14.18s WALL (      47 calls)
     vdW_kernel   :     39.56s CPU     39.57s WALL (       1 calls)

     Called by c_bands:
     init_us_2    :     20.43s CPU     20.45s WALL (    2850 calls)
     init_us_2:cp :     20.42s CPU     20.45s WALL (    2850 calls)
     cegterg      :   4071.08s CPU   4097.93s WALL (    1410 calls)

     Called by *egterg:
     cdiaghg      :     10.73s CPU     10.73s WALL (    4342 calls)
     h_psi        :   2230.47s CPU   2240.86s WALL (    4402 calls)
     s_psi        :    680.20s CPU    680.51s WALL (    4402 calls)
     g_psi        :     10.13s CPU     10.13s WALL (    2962 calls)

     Called by h_psi:
     h_psi:calbec :    878.51s CPU    878.77s WALL (    4402 calls)
     vloc_psi     :    667.02s CPU    667.75s WALL (    4402 calls)
     add_vuspsi   :    680.33s CPU    680.53s WALL (    4402 calls)

     General routines
     calbec       :   1277.04s CPU   1277.43s WALL (    5812 calls)
     fft          :     34.28s CPU     34.30s WALL (    2960 calls)
     ffts         :      6.44s CPU      6.44s WALL (    2209 calls)
     fftw         :    624.88s CPU    625.48s WALL (  472556 calls)
     interpolate  :      0.73s CPU      0.73s WALL (      47 calls)

     Parallel routines

     PWSCF        :      1h26m CPU      1h28m WALL


   This run was terminated on:   6:28:10   8Jun2026            

=------------------------------------------------------------------------------=
   JOB DONE.
=------------------------------------------------------------------------------=
Note: The following floating-point exceptions are signalling: IEEE_UNDERFLOW_FLAG IEEE_DENORMAL
