Authorization required, but no authorization protocol specified

Authorization required, but no authorization protocol specified

Authorization required, but no authorization protocol specified

Authorization required, but no authorization protocol specified


     Program PWSCF v.7.3 starts on  9Jun2026 at 10:28:27 

     This program is part of the open-source Quantum ESPRESSO suite
     for quantum simulation of materials; please cite
         "P. Giannozzi et al., J. Phys.:Condens. Matter 21 395502 (2009);
         "P. Giannozzi et al., J. Phys.:Condens. Matter 29 465901 (2017);
         "P. Giannozzi et al., J. Chem. Phys. 152 154105 (2020);
          URL http://www.quantum-espresso.org", 
     in publications or presentations arising from this work. More details at
     http://www.quantum-espresso.org/quote

     Parallel version (MPI), running on     1 processors

     MPI processes distributed on     1 nodes
     82035 MiB available memory on the printing compute node when the environment starts

     Waiting for input...
     Reading input from standard input

     Current dimensions of program PWSCF are:
     Max number of different atomic species (ntypx) = 10
     Max number of k-points (npk) =  40000
     Max angular momentum in pseudopotentials (lmaxx) =  4
     file Mo.pbe-spn-kjpaw_psl.1.0.0.UPF: wavefunction(s)  4S 4D renormalized
     file S.pbe-n-kjpaw_psl.1.0.0.UPF: wavefunction(s)  3S 3P renormalized

     IMPORTANT: XC functional enforced from input :
     Exchange-correlation= VDW-DF2-B86R
                           (   1   4  26   0   2   0   0)
     Any further DFT definition will be discarded
     Please, verify this is what you really want


     Subspace diagonalization in iterative solution of the eigenvalue problem:
     a serial algorithm will be used


     G-vector sticks info
     --------------------
     sticks:   dense  smooth     PW     G-vecs:    dense   smooth      PW
     Sum        1573     769    223               478405   168563   26075

     Using Slab Decomposition



     bravais-lattice index     =            4
     lattice parameter (alat)  =       5.9715  a.u.
     unit-cell volume          =    1750.7440 (a.u.)^3
     number of atoms/cell      =           12
     number of atomic types    =            2
     number of electrons       =       104.00
     number of Kohn-Sham states=           62
     kinetic-energy cutoff     =      80.0000  Ry
     charge density cutoff     =     640.0000  Ry
     scf convergence threshold =      1.0E-08
     mixing beta               =       0.2000
     number of iterations used =            8  local-TF  mixing
     Exchange-correlation= VDW-DF2-B86R
                           (   1   4  26   0   2   0   0)

     celldm(1)=   5.971535  celldm(2)=   0.000000  celldm(3)=   9.493671
     celldm(4)=   0.000000  celldm(5)=   0.000000  celldm(6)=   0.000000

     crystal axes: (cart. coord. in units of alat)
               a(1) = (   1.000000   0.000000   0.000000 )  
               a(2) = (  -0.500000   0.866025   0.000000 )  
               a(3) = (   0.000000   0.000000   9.493671 )  

     reciprocal axes: (cart. coord. in units 2 pi/alat)
               b(1) = (  1.000000  0.577350 -0.000000 )  
               b(2) = (  0.000000  1.154701  0.000000 )  
               b(3) = (  0.000000 -0.000000  0.105333 )  


     PseudoPot. # 1 for Mo read from file:
     ./pseudo/Mo.pbe-spn-kjpaw_psl.1.0.0.UPF
     MD5 check sum: 4396e0c640fcce5c25f020efccf1ab12
     Pseudo is Projector augmented-wave + core cor, Zval = 14.0
     Generated using &quot;atomic&quot; code by A. Dal Corso  v.6.3
     Shape of augmentation charge: PSQ
     Using radial grid of 1229 points,  6 beta functions with: 
                l(1) =   0
                l(2) =   0
                l(3) =   1
                l(4) =   1
                l(5) =   2
                l(6) =   2
     Q(r) pseudized with 0 coefficients 


     PseudoPot. # 2 for S  read from file:
     ./pseudo/S.pbe-n-kjpaw_psl.1.0.0.UPF
     MD5 check sum: fb45dfebcf3e72a4e1bd4a866ec2e262
     Pseudo is Projector augmented-wave + core cor, Zval =  6.0
     Generated using &quot;atomic&quot; code by A. Dal Corso  v.6.3
     Shape of augmentation charge: PSQ
     Using radial grid of 1151 points,  6 beta functions with: 
                l(1) =   0
                l(2) =   0
                l(3) =   1
                l(4) =   1
                l(5) =   2
                l(6) =   2
     Q(r) pseudized with 0 coefficients 


     atomic species   valence    mass     pseudopotential
     Mo               14.00    95.96000     Mo( 1.00)
     S                 6.00    32.06000     S ( 1.00)

      6 Sym. Ops. (no inversion) found



   Cartesian axes

     site n.     atom                  positions (alat units)
         1        S      tau(   1) = (  -0.0000005   0.5773503  -0.9967195  )
         2        Mo     tau(   2) = (   0.0000000   0.0000000  -0.4993332  )
         3        S      tau(   3) = (  -0.0000005   0.5773503  -0.0017175  )
         4        S      tau(   4) = (   0.5000003   0.2886747   0.9835827  )
         5        Mo     tau(   5) = (  -0.0000005   0.5773503   1.4818950  )
         6        S      tau(   6) = (   0.5000003   0.2886747   1.9798512  )
         7        S      tau(   7) = (   0.0000000   0.0000000   2.9586848  )
         8        Mo     tau(   8) = (   0.5000003   0.2886747   3.4569999  )
         9        S      tau(   9) = (   0.0000000   0.0000000   3.9548385  )
        10        S      tau(  10) = (  -0.0000005   0.5773503   6.6612679  )
        11        Mo     tau(  11) = (   0.0000000   0.0000000   7.1589045  )
        12        S      tau(  12) = (  -0.0000005   0.5773503   7.6560387  )

     number of k points=    30  Methfessel-Paxton smearing, width (Ry)=  0.0200
                       cart. coord. in units 2pi/alat
        k(    1) = (   0.0000000   0.0000000   0.0000000), wk =   0.0078125
        k(    2) = (   0.0000000   0.0721688   0.0000000), wk =   0.0468750
        k(    3) = (   0.0000000   0.1443376   0.0000000), wk =   0.0468750
        k(    4) = (   0.0000000   0.2165064   0.0000000), wk =   0.0468750
        k(    5) = (   0.0000000   0.2886751   0.0000000), wk =   0.0468750
        k(    6) = (   0.0000000   0.3608439   0.0000000), wk =   0.0468750
        k(    7) = (   0.0000000   0.4330127   0.0000000), wk =   0.0468750
        k(    8) = (   0.0000000   0.5051815   0.0000000), wk =   0.0468750
        k(    9) = (   0.0000000  -0.5773503   0.0000000), wk =   0.0234375
        k(   10) = (   0.0625000   0.1082532   0.0000000), wk =   0.0468750
        k(   11) = (   0.0625000   0.1804220   0.0000000), wk =   0.0937500
        k(   12) = (   0.0625000   0.2525907   0.0000000), wk =   0.0937500
        k(   13) = (   0.0625000   0.3247595   0.0000000), wk =   0.0937500
        k(   14) = (   0.0625000   0.3969283   0.0000000), wk =   0.0937500
        k(   15) = (   0.0625000   0.4690971   0.0000000), wk =   0.0937500
        k(   16) = (   0.0625000   0.5412659   0.0000000), wk =   0.0937500
        k(   17) = (   0.1250000   0.2165064   0.0000000), wk =   0.0468750
        k(   18) = (   0.1250000   0.2886751   0.0000000), wk =   0.0937500
        k(   19) = (   0.1250000   0.3608439   0.0000000), wk =   0.0937500
        k(   20) = (   0.1250000   0.4330127   0.0000000), wk =   0.0937500
        k(   21) = (   0.1250000   0.5051815   0.0000000), wk =   0.0937500
        k(   22) = (   0.1250000   0.5773503   0.0000000), wk =   0.0468750
        k(   23) = (   0.1875000   0.3247595   0.0000000), wk =   0.0468750
        k(   24) = (   0.1875000   0.3969283   0.0000000), wk =   0.0937500
        k(   25) = (   0.1875000   0.4690971   0.0000000), wk =   0.0937500
        k(   26) = (   0.1875000   0.5412659   0.0000000), wk =   0.0937500
        k(   27) = (   0.2500000   0.4330127   0.0000000), wk =   0.0468750
        k(   28) = (   0.2500000   0.5051815   0.0000000), wk =   0.0937500
        k(   29) = (   0.2500000   0.5773503   0.0000000), wk =   0.0468750
        k(   30) = (   0.3125000   0.5412659   0.0000000), wk =   0.0468750

     Dense  grid:   478405 G-vectors     FFT dimensions: (  50,  50, 480)

     Smooth grid:   168563 G-vectors     FFT dimensions: (  36,  36, 324)

     Estimated max dynamical RAM per process >       2.35 GB

     Initial potential from superposition of free atoms

     starting charge     103.9962, renormalised to     104.0000

     negative rho (up, down):  2.252E-08 0.000E+00


     %%%%%%%%%%%%%%%%%%%%%%%%%%%%%%%%%%%%%%%%%%%%%%%%%%%%%%%%%%%%%%%%%%%%%%%%
     %                                                                      %
     % You are using vdW-DF, which was implemented by the Thonhauser group. %
     % Please cite the following two papers that made this development      %
     % possible and the two reviews that describe the various versions:     %
     %                                                                      %
     %   T. Thonhauser et al., PRL 115, 136402 (2015).                      %
     %   T. Thonhauser et al., PRB 76, 125112 (2007).                       %
     %   K. Berland et al., Rep. Prog. Phys. 78, 066501 (2015).             %
     %   D.C. Langreth et al., J. Phys.: Condens. Matter 21, 084203 (2009). %
     %                                                                      %
     % If you are calculating stress with vdW-DF, please also cite:         %
     %                                                                      %
     %   R. Sabatini et al., J. Phys.: Condens. Matter 24, 424209 (2012).   %
     %                                                                      %
     %%%%%%%%%%%%%%%%%%%%%%%%%%%%%%%%%%%%%%%%%%%%%%%%%%%%%%%%%%%%%%%%%%%%%%%%

     %%%%%%%%%%%%%%%%%%%%%%%%%%%%%%%%%%%%%%%%%%%%%%%%%%%%%%%%%%%%%%%%%%%%%%%%
     %                                                                      %
     %  vdW-DF NEWS:                                                        %
     %                                                                      %
     %  * vdW-DF3 is now available. DOI: 10.1021/acs.jctc.0c00471           %
     %    use with input_dft = 'vdW-DF3-opt1' or 'vdW-DF3-opt2'             %
     %                                                                      %
     %  * Unscreened and range-separated hybrid vdW-DF-cx functionals       %
     %    DOI: 10.1063/1.4986522 and 10.1088/1361-648X/ac2ad2               %
     %    use with input_dft = 'vdW-DF-cx0'    and 'vdW-DF-ahcx'            %
     %  * Unscreened and range-separated hybrid vdW-DF2-b86r functionals    %
     %    DOI: 10.1063/1.4986522 and DOI: 10.1103/PhysRevX.12.041003        %
     %    use with input_dft = 'vdW-DF2-br0' and 'vdW-DF2-ahbr'             %
     %                                                                      %
     %%%%%%%%%%%%%%%%%%%%%%%%%%%%%%%%%%%%%%%%%%%%%%%%%%%%%%%%%%%%%%%%%%%%%%%%


     Starting wfcs are   72 randomized atomic wfcs
     Checking if some PAW data can be deallocated... 

     total cpu time spent up to now is       85.6 secs

     Self-consistent Calculation

     iteration #  1     ecut=    80.00 Ry     beta= 0.20
     Davidson diagonalization with overlap
     ethr =  1.00E-02,  avg # of iterations =  2.3
     Minimization algorithm failed to find Fermi energy: reverting to bisection
     Possible cause: smearing is larger than the electronic band-gap.

     Threshold (ethr) on eigenvalues was too large:
     Diagonalizing with lowered threshold

     Davidson diagonalization with overlap
     ethr =  3.17E-04,  avg # of iterations =  3.6
     Minimization algorithm failed to find Fermi energy: reverting to bisection
     Possible cause: smearing is larger than the electronic band-gap.

     total cpu time spent up to now is      340.3 secs

     total energy              =   -1978.42419634 Ry
     estimated scf accuracy    <       0.45033467 Ry

     iteration #  2     ecut=    80.00 Ry     beta= 0.20
     Davidson diagonalization with overlap
     ethr =  4.33E-04,  avg # of iterations =  1.0
     Minimization algorithm failed to find Fermi energy: reverting to bisection
     Possible cause: smearing is larger than the electronic band-gap.

     total cpu time spent up to now is      438.0 secs

     total energy              =   -1978.23989085 Ry
     estimated scf accuracy    <       0.37104870 Ry

     iteration #  3     ecut=    80.00 Ry     beta= 0.20
     Davidson diagonalization with overlap
     ethr =  3.57E-04,  avg # of iterations =  2.0
     Minimization algorithm failed to find Fermi energy: reverting to bisection
     Possible cause: smearing is larger than the electronic band-gap.

     total cpu time spent up to now is      567.1 secs

     total energy              =   -1978.32447763 Ry
     estimated scf accuracy    <       0.04336953 Ry

     iteration #  4     ecut=    80.00 Ry     beta= 0.20
     Davidson diagonalization with overlap
     ethr =  4.17E-05,  avg # of iterations =  2.3
     Minimization algorithm failed to find Fermi energy: reverting to bisection
     Possible cause: smearing is larger than the electronic band-gap.

     total cpu time spent up to now is      692.9 secs

     total energy              =   -1978.32938947 Ry
     estimated scf accuracy    <       0.01268888 Ry

     iteration #  5     ecut=    80.00 Ry     beta= 0.20
     Davidson diagonalization with overlap
     ethr =  1.22E-05,  avg # of iterations =  4.9
     Minimization algorithm failed to find Fermi energy: reverting to bisection
     Possible cause: smearing is larger than the electronic band-gap.

     total cpu time spent up to now is      809.5 secs

     total energy              =   -1978.32767178 Ry
     estimated scf accuracy    <       0.00983870 Ry

     iteration #  6     ecut=    80.00 Ry     beta= 0.20
     Davidson diagonalization with overlap
     ethr =  9.46E-06,  avg # of iterations =  2.3
     Minimization algorithm failed to find Fermi energy: reverting to bisection
     Possible cause: smearing is larger than the electronic band-gap.

     total cpu time spent up to now is      924.8 secs

     total energy              =   -1978.32787384 Ry
     estimated scf accuracy    <       0.00373811 Ry

     iteration #  7     ecut=    80.00 Ry     beta= 0.20
     Davidson diagonalization with overlap
     ethr =  3.59E-06,  avg # of iterations =  5.8
     Minimization algorithm failed to find Fermi energy: reverting to bisection
     Possible cause: smearing is larger than the electronic band-gap.

     total cpu time spent up to now is     1040.8 secs

     total energy              =   -1978.32793948 Ry
     estimated scf accuracy    <       0.00237696 Ry

     iteration #  8     ecut=    80.00 Ry     beta= 0.20
     Davidson diagonalization with overlap
     c_bands:  1 eigenvalues not converged
     c_bands:  1 eigenvalues not converged
     ethr =  2.29E-06,  avg # of iterations =  3.0
     Minimization algorithm failed to find Fermi energy: reverting to bisection
     Possible cause: smearing is larger than the electronic band-gap.

     total cpu time spent up to now is     1144.3 secs

     total energy              =   -1978.32768354 Ry
     estimated scf accuracy    <       0.00206397 Ry

     iteration #  9     ecut=    80.00 Ry     beta= 0.20
     Davidson diagonalization with overlap
     ethr =  1.98E-06,  avg # of iterations =  2.4
     Minimization algorithm failed to find Fermi energy: reverting to bisection
     Possible cause: smearing is larger than the electronic band-gap.

     total cpu time spent up to now is     1250.0 secs

     total energy              =   -1978.32754920 Ry
     estimated scf accuracy    <       0.00148024 Ry

     iteration # 10     ecut=    80.00 Ry     beta= 0.20
     Davidson diagonalization with overlap
     ethr =  1.42E-06,  avg # of iterations =  2.8
     Minimization algorithm failed to find Fermi energy: reverting to bisection
     Possible cause: smearing is larger than the electronic band-gap.

     negative rho (up, down):  4.954E-04 0.000E+00

     total cpu time spent up to now is     1361.0 secs

     total energy              =   -1978.32760827 Ry
     estimated scf accuracy    <       0.00085618 Ry

     iteration # 11     ecut=    80.00 Ry     beta= 0.20
     Davidson diagonalization with overlap
     ethr =  8.23E-07,  avg # of iterations =  1.5
     Minimization algorithm failed to find Fermi energy: reverting to bisection
     Possible cause: smearing is larger than the electronic band-gap.

     negative rho (up, down):  2.720E-03 0.000E+00

     total cpu time spent up to now is     1463.4 secs

     total energy              =   -1978.32756932 Ry
     estimated scf accuracy    <       0.00074007 Ry

     iteration # 12     ecut=    80.00 Ry     beta= 0.20
     Davidson diagonalization with overlap
     ethr =  7.12E-07,  avg # of iterations =  3.3
     Minimization algorithm failed to find Fermi energy: reverting to bisection
     Possible cause: smearing is larger than the electronic band-gap.

     negative rho (up, down):  2.875E-03 0.000E+00

     total cpu time spent up to now is     1572.5 secs

     total energy              =   -1978.32748362 Ry
     estimated scf accuracy    <       0.00064381 Ry

     iteration # 13     ecut=    80.00 Ry     beta= 0.20
     Davidson diagonalization with overlap
     ethr =  6.19E-07,  avg # of iterations =  3.6
     Minimization algorithm failed to find Fermi energy: reverting to bisection
     Possible cause: smearing is larger than the electronic band-gap.

     negative rho (up, down):  7.533E-04 0.000E+00

     total cpu time spent up to now is     1698.4 secs

     total energy              =   -1978.32751074 Ry
     estimated scf accuracy    <       0.00040047 Ry

     iteration # 14     ecut=    80.00 Ry     beta= 0.20
     Davidson diagonalization with overlap
     ethr =  3.85E-07,  avg # of iterations = 10.1
     Minimization algorithm failed to find Fermi energy: reverting to bisection
     Possible cause: smearing is larger than the electronic band-gap.

     negative rho (up, down):  4.937E-04 0.000E+00

     total cpu time spent up to now is     1829.8 secs

     total energy              =   -1978.32747713 Ry
     estimated scf accuracy    <       0.00032452 Ry

     iteration # 15     ecut=    80.00 Ry     beta= 0.20
     Davidson diagonalization with overlap
     ethr =  3.12E-07,  avg # of iterations =  2.2
     Minimization algorithm failed to find Fermi energy: reverting to bisection
     Possible cause: smearing is larger than the electronic band-gap.

     negative rho (up, down):  1.736E-04 0.000E+00

     total cpu time spent up to now is     1942.8 secs

     total energy              =   -1978.32750674 Ry
     estimated scf accuracy    <       0.00009132 Ry

     iteration # 16     ecut=    80.00 Ry     beta= 0.20
     Davidson diagonalization with overlap
     ethr =  8.78E-08,  avg # of iterations =  2.9
     Minimization algorithm failed to find Fermi energy: reverting to bisection
     Possible cause: smearing is larger than the electronic band-gap.

     negative rho (up, down):  1.775E-06 0.000E+00

     total cpu time spent up to now is     2052.1 secs

     total energy              =   -1978.32751649 Ry
     estimated scf accuracy    <       0.00003811 Ry

     iteration # 17     ecut=    80.00 Ry     beta= 0.20
     Davidson diagonalization with overlap
     ethr =  3.66E-08,  avg # of iterations =  2.4
     Minimization algorithm failed to find Fermi energy: reverting to bisection
     Possible cause: smearing is larger than the electronic band-gap.

     total cpu time spent up to now is     2162.9 secs

     total energy              =   -1978.32751980 Ry
     estimated scf accuracy    <       0.00002054 Ry

     iteration # 18     ecut=    80.00 Ry     beta= 0.20
     Davidson diagonalization with overlap
     ethr =  1.97E-08,  avg # of iterations =  1.9
     Minimization algorithm failed to find Fermi energy: reverting to bisection
     Possible cause: smearing is larger than the electronic band-gap.

     total cpu time spent up to now is     2270.6 secs

     total energy              =   -1978.32751921 Ry
     estimated scf accuracy    <       0.00001127 Ry

     iteration # 19     ecut=    80.00 Ry     beta= 0.20
     Davidson diagonalization with overlap
     ethr =  1.08E-08,  avg # of iterations =  2.1
     Minimization algorithm failed to find Fermi energy: reverting to bisection
     Possible cause: smearing is larger than the electronic band-gap.

     negative rho (up, down):  2.335E-08 0.000E+00

     total cpu time spent up to now is     2382.1 secs

     total energy              =   -1978.32751905 Ry
     estimated scf accuracy    <       0.00000879 Ry

     iteration # 20     ecut=    80.00 Ry     beta= 0.20
     Davidson diagonalization with overlap
     ethr =  8.45E-09,  avg # of iterations =  1.8
     Minimization algorithm failed to find Fermi energy: reverting to bisection
     Possible cause: smearing is larger than the electronic band-gap.

     total cpu time spent up to now is     2488.5 secs

     total energy              =   -1978.32751866 Ry
     estimated scf accuracy    <       0.00000582 Ry

     iteration # 21     ecut=    80.00 Ry     beta= 0.20
     Davidson diagonalization with overlap
     ethr =  5.60E-09,  avg # of iterations =  2.3
     Minimization algorithm failed to find Fermi energy: reverting to bisection
     Possible cause: smearing is larger than the electronic band-gap.

     negative rho (up, down):  4.326E-06 0.000E+00

     total cpu time spent up to now is     2599.9 secs

     total energy              =   -1978.32751492 Ry
     estimated scf accuracy    <       0.00000518 Ry

     iteration # 22     ecut=    80.00 Ry     beta= 0.20
     Davidson diagonalization with overlap
     ethr =  4.98E-09,  avg # of iterations =  3.1
     Minimization algorithm failed to find Fermi energy: reverting to bisection
     Possible cause: smearing is larger than the electronic band-gap.

     negative rho (up, down):  8.126E-07 0.000E+00

     total cpu time spent up to now is     2726.0 secs

     total energy              =   -1978.32751754 Ry
     estimated scf accuracy    <       0.00000464 Ry

     iteration # 23     ecut=    80.00 Ry     beta= 0.20
     Davidson diagonalization with overlap
     ethr =  4.46E-09,  avg # of iterations =  1.5
     Minimization algorithm failed to find Fermi energy: reverting to bisection
     Possible cause: smearing is larger than the electronic band-gap.

     negative rho (up, down):  1.244E-08 0.000E+00

     total cpu time spent up to now is     2828.5 secs

     total energy              =   -1978.32751817 Ry
     estimated scf accuracy    <       0.00000262 Ry

     iteration # 24     ecut=    80.00 Ry     beta= 0.20
     Davidson diagonalization with overlap
     ethr =  2.52E-09,  avg # of iterations =  3.2
     Minimization algorithm failed to find Fermi energy: reverting to bisection
     Possible cause: smearing is larger than the electronic band-gap.

     negative rho (up, down):  3.830E-08 0.000E+00

     total cpu time spent up to now is     2949.3 secs

     total energy              =   -1978.32751817 Ry
     estimated scf accuracy    <       0.00000271 Ry

     iteration # 25     ecut=    80.00 Ry     beta= 0.20
     Davidson diagonalization with overlap
     ethr =  2.52E-09,  avg # of iterations =  3.2
     Minimization algorithm failed to find Fermi energy: reverting to bisection
     Possible cause: smearing is larger than the electronic band-gap.

     negative rho (up, down):  2.491E-08 0.000E+00

     total cpu time spent up to now is     3072.9 secs

     total energy              =   -1978.32751869 Ry
     estimated scf accuracy    <       0.00000080 Ry

     iteration # 26     ecut=    80.00 Ry     beta= 0.20
     Davidson diagonalization with overlap
     ethr =  7.68E-10,  avg # of iterations =  1.3
     Minimization algorithm failed to find Fermi energy: reverting to bisection
     Possible cause: smearing is larger than the electronic band-gap.

     negative rho (up, down):  9.772E-08 0.000E+00

     total cpu time spent up to now is     3172.7 secs

     total energy              =   -1978.32751859 Ry
     estimated scf accuracy    <       0.00000040 Ry

     iteration # 27     ecut=    80.00 Ry     beta= 0.20
     Davidson diagonalization with overlap
     ethr =  3.80E-10,  avg # of iterations =  3.0
     Minimization algorithm failed to find Fermi energy: reverting to bisection
     Possible cause: smearing is larger than the electronic band-gap.

     negative rho (up, down):  9.891E-08 0.000E+00

     total cpu time spent up to now is     3298.1 secs

     total energy              =   -1978.32751866 Ry
     estimated scf accuracy    <       0.00000019 Ry

     iteration # 28     ecut=    80.00 Ry     beta= 0.20
     Davidson diagonalization with overlap
     ethr =  1.85E-10,  avg # of iterations =  1.8
     Minimization algorithm failed to find Fermi energy: reverting to bisection
     Possible cause: smearing is larger than the electronic band-gap.

     negative rho (up, down):  4.715E-08 0.000E+00

     total cpu time spent up to now is     3404.1 secs

     total energy              =   -1978.32751877 Ry
     estimated scf accuracy    <       0.00000011 Ry

     iteration # 29     ecut=    80.00 Ry     beta= 0.20
     Davidson diagonalization with overlap
     ethr =  1.07E-10,  avg # of iterations =  2.4
     Minimization algorithm failed to find Fermi energy: reverting to bisection
     Possible cause: smearing is larger than the electronic band-gap.

     negative rho (up, down):  4.427E-08 0.000E+00

     total cpu time spent up to now is     3517.3 secs

     total energy              =   -1978.32751877 Ry
     estimated scf accuracy    <       0.00000010 Ry

     iteration # 30     ecut=    80.00 Ry     beta= 0.20
     Davidson diagonalization with overlap
     ethr =  9.62E-11,  avg # of iterations =  1.3
     Minimization algorithm failed to find Fermi energy: reverting to bisection
     Possible cause: smearing is larger than the electronic band-gap.

     negative rho (up, down):  3.870E-08 0.000E+00

     total cpu time spent up to now is     3617.4 secs

     total energy              =   -1978.32751877 Ry
     estimated scf accuracy    <       0.00000006 Ry

     iteration # 31     ecut=    80.00 Ry     beta= 0.20
     Davidson diagonalization with overlap
     ethr =  5.73E-11,  avg # of iterations =  2.8
     Minimization algorithm failed to find Fermi energy: reverting to bisection
     Possible cause: smearing is larger than the electronic band-gap.

     negative rho (up, down):  3.147E-08 0.000E+00

     total cpu time spent up to now is     3732.7 secs

     total energy              =   -1978.32751881 Ry
     estimated scf accuracy    <       0.00000007 Ry

     iteration # 32     ecut=    80.00 Ry     beta= 0.20
     Davidson diagonalization with overlap
     ethr =  5.73E-11,  avg # of iterations =  1.9
     Minimization algorithm failed to find Fermi energy: reverting to bisection
     Possible cause: smearing is larger than the electronic band-gap.

     negative rho (up, down):  2.401E-08 0.000E+00

     total cpu time spent up to now is     3840.2 secs

     total energy              =   -1978.32751882 Ry
     estimated scf accuracy    <       0.00000004 Ry

     iteration # 33     ecut=    80.00 Ry     beta= 0.20
     Davidson diagonalization with overlap
     ethr =  3.74E-11,  avg # of iterations =  1.7
     Minimization algorithm failed to find Fermi energy: reverting to bisection
     Possible cause: smearing is larger than the electronic band-gap.

     negative rho (up, down):  2.426E-08 0.000E+00

     total cpu time spent up to now is     3944.1 secs

     total energy              =   -1978.32751883 Ry
     estimated scf accuracy    <       0.00000003 Ry

     iteration # 34     ecut=    80.00 Ry     beta= 0.20
     Davidson diagonalization with overlap
     ethr =  3.01E-11,  avg # of iterations =  1.7
     Minimization algorithm failed to find Fermi energy: reverting to bisection
     Possible cause: smearing is larger than the electronic band-gap.

     negative rho (up, down):  3.550E-08 0.000E+00

     total cpu time spent up to now is     4045.9 secs

     total energy              =   -1978.32751880 Ry
     estimated scf accuracy    <       0.00000002 Ry

     iteration # 35     ecut=    80.00 Ry     beta= 0.20
     Davidson diagonalization with overlap
     ethr =  2.16E-11,  avg # of iterations =  2.8
     Minimization algorithm failed to find Fermi energy: reverting to bisection
     Possible cause: smearing is larger than the electronic band-gap.

     negative rho (up, down):  3.697E-08 0.000E+00

     total cpu time spent up to now is     4162.1 secs

     total energy              =   -1978.32751882 Ry
     estimated scf accuracy    <       0.00000002 Ry

     iteration # 36     ecut=    80.00 Ry     beta= 0.20
     Davidson diagonalization with overlap
     ethr =  2.07E-11,  avg # of iterations =  1.2
     Minimization algorithm failed to find Fermi energy: reverting to bisection
     Possible cause: smearing is larger than the electronic band-gap.

     negative rho (up, down):  3.580E-08 0.000E+00

     total cpu time spent up to now is     4262.3 secs

     total energy              =   -1978.32751881 Ry
     estimated scf accuracy    <       0.00000001 Ry

     iteration # 37     ecut=    80.00 Ry     beta= 0.20
     Davidson diagonalization with overlap
     ethr =  1.34E-11,  avg # of iterations =  2.1
     Minimization algorithm failed to find Fermi energy: reverting to bisection
     Possible cause: smearing is larger than the electronic band-gap.

     negative rho (up, down):  4.110E-08 0.000E+00

     total cpu time spent up to now is     4370.4 secs

     End of self-consistent calculation

          k = 0.0000 0.0000 0.0000 ( 21311 PWs)   bands (ev):

   -53.5717 -53.4415 -53.3350 -53.3320 -27.7451 -27.6175 -27.5241 -27.5221
   -27.5081 -27.5081 -27.3771 -27.3771 -27.2680 -27.2680 -27.2647 -27.2647
    -6.9723  -6.8801  -6.7226  -6.5246  -5.6989  -5.6028  -5.3939  -5.1314
     1.0834   1.4048   1.8455   2.2800   4.5314   4.7088   4.7088   4.8354
     4.8354   4.8904   4.8904   4.9371   4.9371   5.0150   5.8097   5.8243
     5.8243   5.9486   5.9486   5.9764   5.9764   6.0576   6.0577   6.5279
     6.9376   7.4045   7.8137   8.6156  10.0093  10.0093  10.0648  10.0648
    10.1789  10.1789  10.2803  10.2804  10.3326  10.3326

          k = 0.0000 0.0722 0.0000 ( 21283 PWs)   bands (ev):

   -53.5702 -53.4399 -53.3334 -53.3305 -27.7420 -27.6145 -27.5236 -27.5210
   -27.5191 -27.5116 -27.3926 -27.3806 -27.2836 -27.2803 -27.2716 -27.2682
    -6.9151  -6.8207  -6.6635  -6.4652  -5.6690  -5.5757  -5.3695  -5.1084
     1.1474   1.4722   1.9118   2.3468   4.4289   4.5739   4.6994   4.7459
     4.7712   4.8036   4.8592   4.8976   4.9501   5.0002   5.4180   5.7274
     5.7410   5.8515   5.8793   5.9616   5.9669   5.9734   6.2074   6.6799
     6.9502   7.3901   7.7434   8.5461   9.8807   9.9843  10.0426  10.0925
    10.1342  10.1597  10.2356  10.2538  10.2836  10.2855

          k = 0.0000 0.1443 0.0000 ( 21263 PWs)   bands (ev):

   -53.5657 -53.4355 -53.3290 -53.3260 -27.7334 -27.6059 -27.5677 -27.5217
   -27.5123 -27.5104 -27.4367 -27.3906 -27.3278 -27.3244 -27.2816 -27.2783
    -6.7485  -6.6473  -6.4913  -6.2924  -5.5817  -5.4965  -5.2985  -5.0415
     1.3254   1.6591   2.0931   2.5265   4.1646   4.2275   4.3444   4.3715
     4.4637   4.5286   4.9402   4.9507   5.0767   5.1188   5.1823   5.2528
     5.4769   5.6003   5.6308   5.7129   5.8917   6.0487   6.3622   6.7786
     6.9443   7.2711   7.5046   8.2980   9.5927   9.7310   9.8428   9.9389
     9.9814  10.0176  10.0294  10.0538  10.1570  10.1616

          k = 0.0000 0.2165 0.0000 ( 21233 PWs)   bands (ev):

   -53.5591 -53.4289 -53.3223 -53.3194 -27.7204 -27.6330 -27.5929 -27.5367
   -27.5021 -27.4993 -27.4974 -27.4056 -27.3933 -27.3900 -27.2966 -27.2933
    -6.4882  -6.3750  -6.2216  -6.0222  -5.4445  -5.3715  -5.1876  -4.9367
     1.5706   1.9096   2.3199   2.7320   3.7642   3.8026   3.9003   3.9234
     4.0674   4.1485   4.4406   4.7236   5.1519   5.2224   5.2542   5.2796
     5.3489   5.3906   5.4280   5.4638   5.6797   5.9740   6.3194   6.6932
     6.8121   6.9688   7.1089   7.8720   9.2988   9.3998   9.6808   9.7942
     9.8132   9.8950   9.9480   9.9654  10.1327  10.1474

          k = 0.0000 0.2887 0.0000 ( 21197 PWs)   bands (ev):

   -53.5512 -53.4210 -53.3145 -53.3115 -27.7093 -27.7051 -27.5784 -27.5775
   -27.5543 -27.4839 -27.4820 -27.4698 -27.4665 -27.4232 -27.3143 -27.3109
    -6.1613  -6.0295  -5.8810  -5.6823  -5.2720  -5.2111  -5.0484  -4.8047
     1.7917   2.0919   2.4215   2.7442   3.2634   3.4209   3.5225   3.5497
     3.7513   3.8165   3.9699   4.2382   4.8239   4.9425   4.9600   5.0633
     5.3984   5.5518   5.6744   5.7074   5.7648   5.7991   6.1157   6.4630
     6.5455   6.6081   6.6993   7.4282   9.1853   9.3070   9.6074   9.6431
     9.6556   9.7601   9.9486   9.9971  10.1471  10.3388

          k = 0.0000 0.3608 0.0000 ( 21187 PWs)   bands (ev):

   -53.5434 -53.4131 -53.3066 -53.3036 -27.7847 -27.6897 -27.6537 -27.5718
   -27.5621 -27.5454 -27.5421 -27.4685 -27.4666 -27.4408 -27.3319 -27.3285
    -5.8090  -5.6496  -5.5089  -5.3142  -5.0887  -5.0278  -4.8982  -4.6611
     1.8583   2.0286   2.2337   2.4676   2.7898   3.0639   3.2093   3.3598
     3.4385   3.5447   3.6219   4.0359   4.5361   4.6540   4.6738   4.7768
     5.1411   5.5270   5.8606   5.8751   5.9828   6.0164   6.1388   6.2528
     6.3209   6.3880   6.4617   7.1642   9.3093   9.4214   9.5000   9.5858
     9.6479   9.7409   9.8176  10.1148  10.4630  10.6250

          k = 0.0000 0.4330 0.0000 ( 21140 PWs)   bands (ev):

   -53.5367 -53.4065 -53.2999 -53.2970 -27.8479 -27.7170 -27.6766 -27.6088
   -27.6055 -27.5866 -27.5491 -27.4556 -27.4554 -27.4534 -27.3467 -27.3434
    -5.4887  -5.2903  -5.1600  -4.9802  -4.9224  -4.8427  -4.7588  -4.5256
     1.7097   1.7735   1.9149   2.1271   2.4376   2.7184   2.8656   3.1399
     3.1595   3.2997   3.4949   3.9430   4.3157   4.4329   4.4537   4.5572
     4.9334   5.3462   5.6585   6.1348   6.1877   6.2140   6.2780   6.2971
     6.3925   6.4206   6.5005   7.1876   9.4870   9.5794   9.6082   9.6392
     9.6572   9.7748   9.9111  10.2364  10.7482  10.8794

          k = 0.0000 0.5052 0.0000 ( 21078 PWs)   bands (ev):

   -53.5322 -53.4020 -53.2954 -53.2925 -27.8898 -27.7589 -27.6679 -27.6508
   -27.6475 -27.5965 -27.5403 -27.4655 -27.4466 -27.4447 -27.3566 -27.3533
    -5.2651  -5.0238  -4.9043  -4.8181  -4.7414  -4.6945  -4.6509  -4.4207
     1.4923   1.5339   1.6557   1.8703   2.2206   2.4726   2.6036   2.8914
     2.9804   3.1946   3.3802   3.8122   4.1782   4.2949   4.3163   4.4203
     4.7945   5.2476   5.5426   6.1357   6.2930   6.3496   6.4427   6.4776
     6.5367   6.5993   6.6740   7.3980   9.5298   9.6575   9.7133   9.7931
     9.8746   9.9270  10.0871  10.3392  10.9036  11.0309

          k = 0.0000-0.5774 0.0000 ( 21006 PWs)   bands (ev):

   -53.5306 -53.4004 -53.2939 -53.2909 -27.9044 -27.7736 -27.6655 -27.6648
   -27.6622 -27.6000 -27.5372 -27.4690 -27.4435 -27.4416 -27.3601 -27.3568
    -5.1855  -4.9234  -4.8120  -4.7721  -4.6772  -4.6291  -4.6043  -4.3779
     1.3963   1.4395   1.5573   1.7747   2.1444   2.3838   2.5083   2.7958
     2.9262   3.1463   3.3289   3.7518   4.1315   4.2480   4.2697   4.3738
     4.7464   5.2179   5.5050   6.1171   6.3441   6.3932   6.4974   6.5840
     6.6197   6.6592   6.7580   7.5169   9.5565   9.6848   9.7561   9.8106
    10.0141  10.0799  10.1615  10.3816  10.9388  11.0735

          k = 0.0625 0.1083 0.0000 ( 21269 PWs)   bands (ev):

   -53.5672 -53.4370 -53.3304 -53.3275 -27.7362 -27.6087 -27.5530 -27.5189
   -27.5152 -27.5132 -27.4220 -27.3878 -27.3130 -27.3097 -27.2788 -27.2755
    -6.8032  -6.7042  -6.5478  -6.3491  -5.6104  -5.5225  -5.3218  -5.0634
     1.2687   1.5998   2.0363   2.4710   4.2532   4.3353   4.4570   4.4890
     4.5688   4.6310   4.8901   5.0162   5.0607   5.0900   5.1218   5.4134
     5.5125   5.6362   5.6532   5.7535   5.9764   6.0784   6.3647   6.7815
     6.9582   7.3265   7.5892   8.3908   9.6713   9.8453   9.8575   9.9795
    10.0185  10.0459  10.0713  10.0763  10.1463  10.2127

          k = 0.0625 0.1804 0.0000 ( 21194 PWs)   bands (ev):

   -53.5616 -53.4314 -53.3249 -53.3219 -27.7254 -27.6065 -27.5979 -27.5326
   -27.5043 -27.5024 -27.4755 -27.4015 -27.3667 -27.3633 -27.2926 -27.2892
    -6.5896  -6.4812  -6.3267  -6.1274  -5.4979  -5.4202  -5.2306  -4.9774
     1.4831   1.8229   2.2466   2.6724   3.9385   3.9704   4.0669   4.0858
     4.2069   4.3113   4.6681   4.9636   5.1067   5.1460   5.2047   5.2338
     5.2710   5.3218   5.3416   5.4111   5.9142   6.1371   6.4369   6.7715
     6.9037   7.1165   7.2712   8.0630   9.3796   9.4854   9.7001   9.7947
     9.8657   9.8796   9.9148   9.9720  10.0572  10.1101

          k = 0.0625 0.2526 0.0000 ( 21202 PWs)   bands (ev):

   -53.5544 -53.4242 -53.3176 -53.3147 -27.7112 -27.6756 -27.5837 -27.5505
   -27.5447 -27.4901 -27.4882 -27.4360 -27.4327 -27.4195 -27.3106 -27.3072
    -6.2953  -6.1717  -6.0210  -5.8217  -5.3423  -5.2771  -5.1049  -4.8583
     1.7248   2.0537   2.4300   2.8015   3.5028   3.5718   3.6786   3.7073
     3.8884   3.9678   4.1969   4.4548   4.7728   4.8381   4.9043   5.0731
     5.3761   5.4996   5.5122   5.6216   5.7458   6.0371   6.3327   6.5978
     6.7107   6.7703   6.8711   7.6359   9.1556   9.2644   9.5424   9.7078
     9.7312   9.8058   9.8574   9.9367  10.0394  10.1740

          k = 0.0625 0.3248 0.0000 ( 21194 PWs)   bands (ev):

   -53.5465 -53.4163 -53.3098 -53.3068 -27.7496 -27.6959 -27.6187 -27.5699
   -27.5683 -27.5102 -27.5069 -27.4747 -27.4728 -27.4389 -27.3300 -27.3266
    -5.9541  -5.8075  -5.6631  -5.4660  -5.1627  -5.1042  -4.9589  -4.7192
     1.8811   2.1204   2.3808   2.6438   3.0231   3.2594   3.3726   3.4410
     3.6014   3.6774   3.7781   4.0702   4.4735   4.5273   4.6230   4.8093
     5.4384   5.6144   5.7237   5.7771   5.8261   5.8749   6.1066   6.3828
     6.4813   6.5084   6.5709   7.2785   9.1289   9.2378   9.4793   9.6557
     9.6970   9.7335   9.8455  10.0751  10.2056  10.3847

          k = 0.0625 0.3969 0.0000 ( 21151 PWs)   bands (ev):

   -53.5392 -53.4090 -53.3025 -53.2995 -27.8173 -27.6864 -27.6816 -27.5877
   -27.5781 -27.5748 -27.5541 -27.4604 -27.4585 -27.4567 -27.3478 -27.3445
    -5.6151  -5.4346  -5.2996  -5.1107  -4.9872  -4.9166  -4.8120  -4.5776
     1.8383   1.9407   2.1061   2.3212   2.6196   2.8852   3.0272   3.2369
     3.3103   3.3785   3.5657   3.9911   4.2750   4.3374   4.4285   4.6131
     5.1807   5.5537   5.7553   5.7931   5.8819   5.9268   6.0337   6.3934
     6.4239   6.4960   6.5469   7.1412   9.2742   9.3557   9.5265   9.7097
     9.7584   9.7701   9.8913  10.1812  10.5253  10.6598

          k = 0.0625 0.4691 0.0000 ( 21105 PWs)   bands (ev):

   -53.5337 -53.4035 -53.2969 -53.2939 -27.8686 -27.7377 -27.6707 -27.6295
   -27.6262 -27.6013 -27.5432 -27.4703 -27.4494 -27.4475 -27.3614 -27.3581
    -5.3405  -5.1167  -4.9926  -4.8579  -4.8112  -4.7454  -4.6859  -4.4543
     1.6404   1.6865   1.8156   2.0268   2.3303   2.5592   2.6898   2.9625
     3.0188   3.2689   3.4546   3.8752   4.1636   4.2368   4.3036   4.4771
     4.9438   5.3632   5.6216   5.8901   5.9647   6.0184   6.0722   6.4757
     6.5734   6.6424   6.7200   7.2641   9.4690   9.5463   9.6301   9.8246
     9.8495   9.9163  10.0285  10.2905  10.8141  10.9195

          k = 0.0625 0.5413 0.0000 ( 21084 PWs)   bands (ev):

   -53.5306 -53.4004 -53.2939 -53.2909 -27.8962 -27.7653 -27.6648 -27.6572
   -27.6539 -27.6087 -27.5372 -27.4776 -27.4435 -27.4416 -27.3688 -27.3655
    -5.1880  -4.9286  -4.8158  -4.7702  -4.6768  -4.6297  -4.6023  -4.3754
     1.4765   1.5199   1.6383   1.8543   2.1727   2.3743   2.4961   2.7668
     2.9124   3.1796   3.3618   3.7675   4.1154   4.2076   4.2401   4.4093
     4.7970   5.2603   5.5239   5.9843   6.0277   6.0432   6.1252   6.5329
     6.7297   6.7771   6.8791   7.4508   9.5587   9.6763   9.7133   9.8432
    10.0133  10.0963  10.1727  10.4005  11.0008  11.1164

          k = 0.1250 0.2165 0.0000 ( 21179 PWs)   bands (ev):

   -53.5555 -53.4253 -53.3187 -53.3158 -27.7134 -27.6616 -27.5858 -27.5514
   -27.5306 -27.4923 -27.4903 -27.4220 -27.4204 -27.4187 -27.3114 -27.3081
    -6.3415  -6.2206  -6.0691  -5.8697  -5.3664  -5.2995  -5.1242  -4.8766
     1.7006   2.0376   2.4297   2.8191   3.6131   3.6370   3.7443   3.8003
     3.9426   4.0816   4.3646   4.6061   4.6341   4.7031   4.7657   4.9710
     5.2960   5.4202   5.4358   5.5425   5.9171   6.2147   6.4716   6.6575
     6.7983   6.8529   6.9540   7.7509   9.1351   9.2388   9.4978   9.7226
     9.7353   9.7563   9.7906   9.8459   9.9982  10.0874

          k = 0.1250 0.2887 0.0000 ( 21199 PWs)   bands (ev):

   -53.5482 -53.4180 -53.3115 -53.3085 -27.7249 -27.6992 -27.5940 -27.5747
   -27.5717 -27.4855 -27.4822 -27.4780 -27.4761 -27.4437 -27.3348 -27.3314
    -6.0313  -5.8906  -5.7445  -5.5465  -5.2017  -5.1428  -4.9901  -4.7489
     1.8961   2.1774   2.4818   2.7725   3.2194   3.4036   3.4953   3.5571
     3.7486   3.8185   3.9365   4.1087   4.2220   4.2633   4.4350   4.7175
     5.4020   5.4693   5.5240   5.6660   5.8412   6.1345   6.3606   6.4806
     6.5898   6.6283   6.6708   7.4242   8.9876   9.1024   9.3759   9.6752
     9.7145   9.7518   9.8107   9.9123  10.0365  10.2088

          k = 0.1250 0.3608 0.0000 ( 21195 PWs)   bands (ev):

   -53.5410 -53.4107 -53.3042 -53.3012 -27.7872 -27.6850 -27.6562 -27.5984
   -27.5574 -27.5479 -27.5446 -27.4673 -27.4638 -27.4618 -27.3585 -27.3552
    -5.6995  -5.5294  -5.3913  -5.1990  -5.0271  -4.9618  -4.8442  -4.6086
     1.9565   2.1068   2.3054   2.5253   2.8559   3.0822   3.1868   3.3058
     3.4375   3.4873   3.6306   3.9464   4.0449   4.1260   4.3146   4.6064
     5.3202   5.3481   5.4666   5.6347   5.7012   5.9047   6.1089   6.4455
     6.5547   6.5695   6.5850   7.1639   9.0340   9.1543   9.4382   9.7415
     9.7869   9.8522   9.9191  10.1158  10.2038  10.3640

          k = 0.1250 0.4330 0.0000 ( 21113 PWs)   bands (ev):

   -53.5348 -53.4046 -53.2980 -53.2951 -27.8393 -27.7084 -27.6729 -27.6185
   -27.6001 -27.5968 -27.5454 -27.4875 -27.4516 -27.4497 -27.3787 -27.3754
    -5.4008  -5.1902  -5.0626  -4.8960  -4.8594  -4.7797  -4.7067  -4.4746
     1.8455   1.9075   2.0530   2.2579   2.5172   2.6557   2.7714   3.0034
     3.0193   3.3984   3.5685   3.9129   4.0140   4.0818   4.2555   4.5250
     5.0990   5.3049   5.4243   5.5593   5.6199   5.6300   5.8231   6.5262
     6.5847   6.6867   6.7172   7.1178   9.2545   9.3635   9.6188   9.8738
     9.9155   9.9960  10.0330  10.2197  10.4837  10.5836

          k = 0.1250 0.5052 0.0000 ( 21081 PWs)   bands (ev):

   -53.5307 -53.4004 -53.2939 -53.2909 -27.8738 -27.7429 -27.6648 -27.6347
   -27.6320 -27.6315 -27.5373 -27.5010 -27.4435 -27.4416 -27.3922 -27.3889
    -5.1940  -4.9407  -4.8252  -4.7652  -4.6766  -4.6309  -4.5968  -4.3692
     1.6861   1.7323   1.8552   2.0656   2.2580   2.3537   2.4683   2.6992
     2.8774   3.2804   3.4586   3.8237   4.0388   4.0956   4.2307   4.4815
     4.8637   5.3223   5.3930   5.4724   5.5265   5.5913   5.6704   6.4457
     6.7759   6.8596   6.9191   7.2932   9.4797   9.5638   9.6748   9.8847
    10.0452  10.1458  10.1985  10.4495  10.7283  10.7997

          k = 0.1250 0.5774 0.0000 ( 21108 PWs)   bands (ev):

   -53.5292 -53.3990 -53.2924 -53.2895 -27.8859 -27.7550 -27.6620 -27.6469
   -27.6436 -27.6368 -27.5344 -27.5058 -27.4407 -27.4388 -27.3970 -27.3937
    -5.1206  -4.8474  -4.7474  -4.7130  -4.6239  -4.5656  -4.5486  -4.3259
     1.6151   1.6650   1.7809   1.9956   2.1635   2.2464   2.3606   2.5923
     2.8293   3.2200   3.4003   3.7622   4.0798   4.1258   4.2212   4.4742
     4.7507   5.2726   5.3813   5.4770   5.4977   5.5537   5.6704   6.4117
     6.8716   6.9465   7.0216   7.4103   9.5270   9.6421   9.6617   9.8214
    10.1584  10.2438  10.3103  10.5852  10.8146  10.9087

          k = 0.1875 0.3248 0.0000 ( 21195 PWs)   bands (ev):

   -53.5416 -53.4113 -53.3048 -53.3018 -27.7736 -27.6862 -27.6427 -27.6051
   -27.5586 -27.5343 -27.5309 -27.4741 -27.4649 -27.4630 -27.3653 -27.3619
    -5.7291  -5.5623  -5.4232  -5.2299  -5.0407  -4.9769  -4.8550  -4.6189
     2.0043   2.1779   2.3948   2.6176   2.9971   3.2078   3.2594   3.3300
     3.4966   3.5506   3.6544   3.7970   3.9610   4.0488   4.2563   4.6021
     5.1733   5.2201   5.2941   5.4572   5.7845   6.0585   6.2294   6.4537
     6.5759   6.5896   6.6263   7.1997   8.9422   9.0753   9.3884   9.7227
     9.8102   9.8789   9.8998  10.0104  10.1172  10.2682

          k = 0.1875 0.3969 0.0000 ( 21153 PWs)   bands (ev):

   -53.5354 -53.4052 -53.2986 -53.2957 -27.8155 -27.6846 -27.6741 -27.6359
   -27.5763 -27.5730 -27.5465 -27.5049 -27.4528 -27.4509 -27.3962 -27.3928
    -5.4343  -5.2306  -5.1009  -4.9251  -4.8775  -4.7969  -4.7161  -4.4838
     1.9942   2.0766   2.2423   2.4404   2.7329   2.7393   2.8372   2.9567
     3.0291   3.5383   3.6644   3.7764   3.9784   4.0624   4.2453   4.5825
     4.8609   4.8997   4.9863   5.1784   5.5659   5.8176   5.9528   6.5565
     6.6435   6.6739   6.6959   7.0179   9.1050   9.2429   9.5803   9.9018
     9.9743  10.0191  10.0431  10.1720  10.2233  10.3456

          k = 0.1875 0.4691 0.0000 ( 21101 PWs)   bands (ev):

   -53.5307 -53.4004 -53.2939 -53.2909 -27.8460 -27.7151 -27.6648 -27.6609
   -27.6068 -27.6035 -27.5373 -27.5299 -27.4435 -27.4416 -27.4212 -27.4178
    -5.2001  -4.9527  -4.8349  -4.7599  -4.6776  -4.6314  -4.5905  -4.3626
     1.9196   1.9778   2.1145   2.3090   2.3376   2.3760   2.4465   2.6367
     2.8631   3.4575   3.6153   3.8520   3.9842   4.0459   4.2455   4.5325
     4.6357   4.6922   4.8446   5.0986   5.3099   5.5233   5.6655   6.5086
     6.7550   6.8689   6.8896   7.1228   9.3388   9.4335   9.6355   9.8909
    10.0843  10.1361  10.2210  10.4135  10.4428  10.5183

          k = 0.1875 0.5413 0.0000 ( 21112 PWs)   bands (ev):

   -53.5281 -53.3979 -53.2913 -53.2884 -27.8620 -27.7311 -27.6748 -27.6598
   -27.6229 -27.6196 -27.5438 -27.5323 -27.4385 -27.4366 -27.4351 -27.4318
    -5.0714  -4.7909  -4.7031  -4.6617  -4.5831  -4.5167  -4.5034  -4.2837
     1.8538   1.9307   2.0457   2.1181   2.1857   2.2276   2.2566   2.4335
     2.7855   3.3125   3.4903   3.8077   4.0537   4.1122   4.2642   4.4383
     4.5594   4.6577   4.8315   5.0828   5.1496   5.3167   5.4657   6.3725
     6.9427   7.0444   7.0853   7.3341   9.3884   9.4975   9.5419   9.6933
    10.2447  10.2949  10.4134  10.5377  10.5725  10.7159

          k = 0.2500 0.4330 0.0000 ( 21125 PWs)   bands (ev):

   -53.5307 -53.4004 -53.2939 -53.2909 -27.8315 -27.7006 -27.6758 -27.6648
   -27.5923 -27.5890 -27.5448 -27.5373 -27.4436 -27.4416 -27.4361 -27.4328
    -5.2027  -4.9576  -4.8389  -4.7578  -4.6784  -4.6314  -4.5878  -4.3598
     2.0241   2.0919   2.2377   2.3331   2.3988   2.4295   2.4577   2.6150
     2.8992   3.6362   3.7063   3.8073   4.0034   4.1106   4.2896   4.3603
     4.4383   4.4578   4.5325   4.7805   5.3300   5.5801   5.7035   6.5615
     6.7380   6.8610   6.8734   7.0399   9.2764   9.3780   9.6083   9.8849
    10.0710  10.0972  10.2328  10.2920  10.3930  10.4851

          k = 0.2500 0.5052 0.0000 ( 21117 PWs)   bands (ev):

   -53.5275 -53.3973 -53.2907 -53.2878 -27.8362 -27.7083 -27.7053 -27.6587
   -27.5971 -27.5938 -27.5774 -27.5311 -27.4687 -27.4654 -27.4374 -27.4354
    -5.0455  -4.7626  -4.6797  -4.6338  -4.5601  -4.4903  -4.4782  -4.2595
     1.9998   2.0280   2.1312   2.1953   2.2500   2.2971   2.3439   2.5419
     2.8582   3.4867   3.6286   3.8227   3.9175   4.0363   4.0984   4.1806
     4.2583   4.3147   4.4764   4.7318   5.0796   5.3071   5.4454   6.3669
     6.9779   7.0987   7.1117   7.2762   9.2634   9.3698   9.4313   9.5896
    10.0576  10.2709  10.3249  10.4393  10.5722  10.6539

          k = 0.2500 0.5774 0.0000 ( 21116 PWs)   bands (ev):

   -53.5264 -53.3962 -53.2896 -53.2866 -27.8360 -27.7216 -27.7051 -27.6565
   -27.5969 -27.5936 -27.5906 -27.5289 -27.4820 -27.4787 -27.4352 -27.4333
    -4.9901  -4.6910  -4.6404  -4.5706  -4.5232  -4.4439  -4.4291  -4.2188
     1.9269   1.9335   2.0327   2.1901   2.2747   2.3082   2.3901   2.6021
     2.7867   3.3281   3.4907   3.7469   3.7772   4.0067   4.1217   4.1727
     4.3040   4.3132   4.5334   4.7176   4.9674   5.1816   5.3124   6.2781
     7.1061   7.2205   7.2431   7.4219   9.1721   9.2951   9.3468   9.4227
    10.0481  10.3033  10.3388  10.5823  10.6747  10.7494

          k = 0.3125 0.5413 0.0000 ( 21100 PWs)   bands (ev):

   -53.5258 -53.3956 -53.2890 -53.2860 -27.8150 -27.7500 -27.6841 -27.6553
   -27.6191 -27.5758 -27.5725 -27.5278 -27.5105 -27.5072 -27.4340 -27.4321
    -4.9616  -4.6561  -4.6187  -4.5382  -4.5011  -4.4190  -4.4017  -4.1945
     1.8579   1.9064   1.9665   2.1211   2.4915   2.5078   2.6275   2.8330
     2.8752   3.3048   3.3501   3.3818   3.6048   3.8030   3.8630   4.1700
     4.2676   4.3298   4.4925   4.7403   4.9016   5.0950   5.2396   6.2325
     7.1860   7.3067   7.3176   7.4759   9.0561   9.1808   9.2449   9.2941
     9.9523  10.2255  10.2578  10.6539  10.7124  10.8236

     the Fermi energy is     8.8935 ev

!    total energy              =   -1978.32751879 Ry
     total all-electron energy =    -38771.648364 Ry
     estimated scf accuracy    <          8.0E-09 Ry
     smearing contrib. (-TS)   =       0.00222488 Ry
     internal energy E=F+TS    =   -1978.32974367 Ry

     The total energy is F=E-TS. E is the sum of the following terms:
     one-electron contribution =   -1961.48584442 Ry
     hartree contribution      =    1023.12115601 Ry
     xc contribution           =    -119.33529550 Ry
     ewald contribution        =     349.23249114 Ry
     one-center paw contrib.   =   -1269.86225089 Ry

     convergence has been achieved in  37 iterations

     Writing all to output data dir ./tmp/cleave/cleave_dz023_dz5p5/mos2_cleave.save/ :
     XML data file, charge density, pseudopotentials, collected wavefunctions

     init_run     :     84.61s CPU     85.49s WALL (       1 calls)
     electrons    :   4216.13s CPU   4284.83s WALL (       1 calls)

     Called by init_run:
     wfcinit      :     40.85s CPU     41.00s WALL (       1 calls)
     potinit      :     41.57s CPU     41.79s WALL (       1 calls)
     hinit0       :      0.32s CPU      0.33s WALL (       1 calls)

     Called by electrons:
     c_bands      :   3518.77s CPU   3540.36s WALL (      38 calls)
     sum_band     :    529.39s CPU    551.21s WALL (      38 calls)
     v_of_rho     :    105.21s CPU    112.13s WALL (      38 calls)
     newd         :     66.45s CPU     85.21s WALL (      38 calls)
     PAW_pot      :     14.92s CPU     14.93s WALL (      38 calls)
     mix_rho      :     23.88s CPU     24.18s WALL (      38 calls)
     vdW_kernel   :     39.40s CPU     39.41s WALL (       1 calls)

     Called by c_bands:
     init_us_2    :     16.46s CPU     16.49s WALL (    2310 calls)
     init_us_2:cp :     16.46s CPU     16.49s WALL (    2310 calls)
     cegterg      :   3354.87s CPU   3376.20s WALL (    1140 calls)

     Called by *egterg:
     cdiaghg      :      9.75s CPU      9.76s WALL (    4153 calls)
     h_psi        :   1812.73s CPU   1821.11s WALL (    4213 calls)
     s_psi        :    550.66s CPU    550.89s WALL (    4213 calls)
     g_psi        :      8.24s CPU      8.25s WALL (    3043 calls)

     Called by h_psi:
     h_psi:calbec :    710.60s CPU    710.80s WALL (    4213 calls)
     vloc_psi     :    547.80s CPU    548.41s WALL (    4213 calls)
     add_vuspsi   :    550.61s CPU    550.78s WALL (    4213 calls)

     General routines
     calbec       :   1029.77s CPU   1030.07s WALL (    5353 calls)
     fft          :     27.81s CPU     27.82s WALL (    2393 calls)
     ffts         :     11.59s CPU     11.60s WALL (    3992 calls)
     fftw         :    511.28s CPU    511.74s WALL (  385064 calls)
     interpolate  :      0.59s CPU      0.59s WALL (      38 calls)

     Parallel routines

     PWSCF        :      1h11m CPU      1h12m WALL


   This run was terminated on:  11:41:18   9Jun2026            

=------------------------------------------------------------------------------=
   JOB DONE.
=------------------------------------------------------------------------------=
Note: The following floating-point exceptions are signalling: IEEE_UNDERFLOW_FLAG IEEE_DENORMAL
