Authorization required, but no authorization protocol specified

Authorization required, but no authorization protocol specified

Authorization required, but no authorization protocol specified

Authorization required, but no authorization protocol specified

Authorization required, but no authorization protocol specified

Authorization required, but no authorization protocol specified

Authorization required, but no authorization protocol specified

Authorization required, but no authorization protocol specified


     Program PWSCF v.7.3 starts on  8Jun2026 at  3:38:54 

     This program is part of the open-source Quantum ESPRESSO suite
     for quantum simulation of materials; please cite
         "P. Giannozzi et al., J. Phys.:Condens. Matter 21 395502 (2009);
         "P. Giannozzi et al., J. Phys.:Condens. Matter 29 465901 (2017);
         "P. Giannozzi et al., J. Chem. Phys. 152 154105 (2020);
          URL http://www.quantum-espresso.org", 
     in publications or presentations arising from this work. More details at
     http://www.quantum-espresso.org/quote

     Parallel version (MPI), running on     1 processors

     MPI processes distributed on     1 nodes
     15668 MiB available memory on the printing compute node when the environment starts

     Waiting for input...
     Reading input from standard input

     Current dimensions of program PWSCF are:
     Max number of different atomic species (ntypx) = 10
     Max number of k-points (npk) =  40000
     Max angular momentum in pseudopotentials (lmaxx) =  4
     file Mo.pbe-spn-kjpaw_psl.1.0.0.UPF: wavefunction(s)  4S 4D renormalized
     file S.pbe-n-kjpaw_psl.1.0.0.UPF: wavefunction(s)  3S 3P renormalized

     IMPORTANT: XC functional enforced from input :
     Exchange-correlation= VDW-DF2-B86R
                           (   1   4  26   0   2   0   0)
     Any further DFT definition will be discarded
     Please, verify this is what you really want


     Subspace diagonalization in iterative solution of the eigenvalue problem:
     a serial algorithm will be used


     G-vector sticks info
     --------------------
     sticks:   dense  smooth     PW     G-vecs:    dense   smooth      PW
     Sum        1573     769    223               478405   168563   26075

     Using Slab Decomposition



     bravais-lattice index     =            4
     lattice parameter (alat)  =       5.9715  a.u.
     unit-cell volume          =    1750.7440 (a.u.)^3
     number of atoms/cell      =           12
     number of atomic types    =            2
     number of electrons       =       104.00
     number of Kohn-Sham states=           62
     kinetic-energy cutoff     =      80.0000  Ry
     charge density cutoff     =     640.0000  Ry
     scf convergence threshold =      1.0E-08
     mixing beta               =       0.2000
     number of iterations used =            8  local-TF  mixing
     Exchange-correlation= VDW-DF2-B86R
                           (   1   4  26   0   2   0   0)

     celldm(1)=   5.971535  celldm(2)=   0.000000  celldm(3)=   9.493671
     celldm(4)=   0.000000  celldm(5)=   0.000000  celldm(6)=   0.000000

     crystal axes: (cart. coord. in units of alat)
               a(1) = (   1.000000   0.000000   0.000000 )  
               a(2) = (  -0.500000   0.866025   0.000000 )  
               a(3) = (   0.000000   0.000000   9.493671 )  

     reciprocal axes: (cart. coord. in units 2 pi/alat)
               b(1) = (  1.000000  0.577350 -0.000000 )  
               b(2) = (  0.000000  1.154701  0.000000 )  
               b(3) = (  0.000000 -0.000000  0.105333 )  


     PseudoPot. # 1 for Mo read from file:
     ./pseudo/Mo.pbe-spn-kjpaw_psl.1.0.0.UPF
     MD5 check sum: 4396e0c640fcce5c25f020efccf1ab12
     Pseudo is Projector augmented-wave + core cor, Zval = 14.0
     Generated using &quot;atomic&quot; code by A. Dal Corso  v.6.3
     Shape of augmentation charge: PSQ
     Using radial grid of 1229 points,  6 beta functions with: 
                l(1) =   0
                l(2) =   0
                l(3) =   1
                l(4) =   1
                l(5) =   2
                l(6) =   2
     Q(r) pseudized with 0 coefficients 


     PseudoPot. # 2 for S  read from file:
     ./pseudo/S.pbe-n-kjpaw_psl.1.0.0.UPF
     MD5 check sum: fb45dfebcf3e72a4e1bd4a866ec2e262
     Pseudo is Projector augmented-wave + core cor, Zval =  6.0
     Generated using &quot;atomic&quot; code by A. Dal Corso  v.6.3
     Shape of augmentation charge: PSQ
     Using radial grid of 1151 points,  6 beta functions with: 
                l(1) =   0
                l(2) =   0
                l(3) =   1
                l(4) =   1
                l(5) =   2
                l(6) =   2
     Q(r) pseudized with 0 coefficients 


     atomic species   valence    mass     pseudopotential
     Mo               14.00    95.96000     Mo( 1.00)
     S                 6.00    32.06000     S ( 1.00)

      6 Sym. Ops. (no inversion) found



   Cartesian axes

     site n.     atom                  positions (alat units)
         1        S      tau(   1) = (  -0.0000005   0.5773503  -0.9967195  )
         2        Mo     tau(   2) = (   0.0000000   0.0000000  -0.4993332  )
         3        S      tau(   3) = (  -0.0000005   0.5773503  -0.0017175  )
         4        S      tau(   4) = (   0.5000003   0.2886747   0.9835827  )
         5        Mo     tau(   5) = (  -0.0000005   0.5773503   1.4818950  )
         6        S      tau(   6) = (   0.5000003   0.2886747   1.9798512  )
         7        S      tau(   7) = (   0.0000000   0.0000000   2.9586848  )
         8        Mo     tau(   8) = (   0.5000003   0.2886747   3.4569999  )
         9        S      tau(   9) = (   0.0000000   0.0000000   3.9548385  )
        10        S      tau(  10) = (  -0.0000005   0.5773503   5.4270907  )
        11        Mo     tau(  11) = (   0.0000000   0.0000000   5.9247273  )
        12        S      tau(  12) = (  -0.0000005   0.5773503   6.4218615  )

     number of k points=    30  Methfessel-Paxton smearing, width (Ry)=  0.0200
                       cart. coord. in units 2pi/alat
        k(    1) = (   0.0000000   0.0000000   0.0000000), wk =   0.0078125
        k(    2) = (   0.0000000   0.0721688   0.0000000), wk =   0.0468750
        k(    3) = (   0.0000000   0.1443376   0.0000000), wk =   0.0468750
        k(    4) = (   0.0000000   0.2165064   0.0000000), wk =   0.0468750
        k(    5) = (   0.0000000   0.2886751   0.0000000), wk =   0.0468750
        k(    6) = (   0.0000000   0.3608439   0.0000000), wk =   0.0468750
        k(    7) = (   0.0000000   0.4330127   0.0000000), wk =   0.0468750
        k(    8) = (   0.0000000   0.5051815   0.0000000), wk =   0.0468750
        k(    9) = (   0.0000000  -0.5773503   0.0000000), wk =   0.0234375
        k(   10) = (   0.0625000   0.1082532   0.0000000), wk =   0.0468750
        k(   11) = (   0.0625000   0.1804220   0.0000000), wk =   0.0937500
        k(   12) = (   0.0625000   0.2525907   0.0000000), wk =   0.0937500
        k(   13) = (   0.0625000   0.3247595   0.0000000), wk =   0.0937500
        k(   14) = (   0.0625000   0.3969283   0.0000000), wk =   0.0937500
        k(   15) = (   0.0625000   0.4690971   0.0000000), wk =   0.0937500
        k(   16) = (   0.0625000   0.5412659   0.0000000), wk =   0.0937500
        k(   17) = (   0.1250000   0.2165064   0.0000000), wk =   0.0468750
        k(   18) = (   0.1250000   0.2886751   0.0000000), wk =   0.0937500
        k(   19) = (   0.1250000   0.3608439   0.0000000), wk =   0.0937500
        k(   20) = (   0.1250000   0.4330127   0.0000000), wk =   0.0937500
        k(   21) = (   0.1250000   0.5051815   0.0000000), wk =   0.0937500
        k(   22) = (   0.1250000   0.5773503   0.0000000), wk =   0.0468750
        k(   23) = (   0.1875000   0.3247595   0.0000000), wk =   0.0468750
        k(   24) = (   0.1875000   0.3969283   0.0000000), wk =   0.0937500
        k(   25) = (   0.1875000   0.4690971   0.0000000), wk =   0.0937500
        k(   26) = (   0.1875000   0.5412659   0.0000000), wk =   0.0937500
        k(   27) = (   0.2500000   0.4330127   0.0000000), wk =   0.0468750
        k(   28) = (   0.2500000   0.5051815   0.0000000), wk =   0.0937500
        k(   29) = (   0.2500000   0.5773503   0.0000000), wk =   0.0468750
        k(   30) = (   0.3125000   0.5412659   0.0000000), wk =   0.0468750

     Dense  grid:   478405 G-vectors     FFT dimensions: (  50,  50, 480)

     Smooth grid:   168563 G-vectors     FFT dimensions: (  36,  36, 324)

     Estimated max dynamical RAM per process >       2.35 GB

     Initial potential from superposition of free atoms

     starting charge     103.9962, renormalised to     104.0000


     %%%%%%%%%%%%%%%%%%%%%%%%%%%%%%%%%%%%%%%%%%%%%%%%%%%%%%%%%%%%%%%%%%%%%%%%
     %                                                                      %
     % You are using vdW-DF, which was implemented by the Thonhauser group. %
     % Please cite the following two papers that made this development      %
     % possible and the two reviews that describe the various versions:     %
     %                                                                      %
     %   T. Thonhauser et al., PRL 115, 136402 (2015).                      %
     %   T. Thonhauser et al., PRB 76, 125112 (2007).                       %
     %   K. Berland et al., Rep. Prog. Phys. 78, 066501 (2015).             %
     %   D.C. Langreth et al., J. Phys.: Condens. Matter 21, 084203 (2009). %
     %                                                                      %
     % If you are calculating stress with vdW-DF, please also cite:         %
     %                                                                      %
     %   R. Sabatini et al., J. Phys.: Condens. Matter 24, 424209 (2012).   %
     %                                                                      %
     %%%%%%%%%%%%%%%%%%%%%%%%%%%%%%%%%%%%%%%%%%%%%%%%%%%%%%%%%%%%%%%%%%%%%%%%

     %%%%%%%%%%%%%%%%%%%%%%%%%%%%%%%%%%%%%%%%%%%%%%%%%%%%%%%%%%%%%%%%%%%%%%%%
     %                                                                      %
     %  vdW-DF NEWS:                                                        %
     %                                                                      %
     %  * vdW-DF3 is now available. DOI: 10.1021/acs.jctc.0c00471           %
     %    use with input_dft = 'vdW-DF3-opt1' or 'vdW-DF3-opt2'             %
     %                                                                      %
     %  * Unscreened and range-separated hybrid vdW-DF-cx functionals       %
     %    DOI: 10.1063/1.4986522 and 10.1088/1361-648X/ac2ad2               %
     %    use with input_dft = 'vdW-DF-cx0'    and 'vdW-DF-ahcx'            %
     %  * Unscreened and range-separated hybrid vdW-DF2-b86r functionals    %
     %    DOI: 10.1063/1.4986522 and DOI: 10.1103/PhysRevX.12.041003        %
     %    use with input_dft = 'vdW-DF2-br0' and 'vdW-DF2-ahbr'             %
     %                                                                      %
     %%%%%%%%%%%%%%%%%%%%%%%%%%%%%%%%%%%%%%%%%%%%%%%%%%%%%%%%%%%%%%%%%%%%%%%%


     Starting wfcs are   72 randomized atomic wfcs
     Checking if some PAW data can be deallocated... 

     total cpu time spent up to now is       85.8 secs

     Self-consistent Calculation

     iteration #  1     ecut=    80.00 Ry     beta= 0.20
     Davidson diagonalization with overlap
     ethr =  1.00E-02,  avg # of iterations =  2.2

     Threshold (ethr) on eigenvalues was too large:
     Diagonalizing with lowered threshold

     Davidson diagonalization with overlap
     ethr =  3.06E-04,  avg # of iterations =  3.1

     total cpu time spent up to now is      339.9 secs

     total energy              =   -1978.45962547 Ry
     estimated scf accuracy    <       0.43676127 Ry

     iteration #  2     ecut=    80.00 Ry     beta= 0.20
     Davidson diagonalization with overlap
     ethr =  4.20E-04,  avg # of iterations =  1.0

     total cpu time spent up to now is      437.7 secs

     total energy              =   -1978.28085128 Ry
     estimated scf accuracy    <       0.36484396 Ry

     iteration #  3     ecut=    80.00 Ry     beta= 0.20
     Davidson diagonalization with overlap
     ethr =  3.51E-04,  avg # of iterations =  2.0

     total cpu time spent up to now is      568.1 secs

     total energy              =   -1978.36096606 Ry
     estimated scf accuracy    <       0.04911941 Ry

     iteration #  4     ecut=    80.00 Ry     beta= 0.20
     Davidson diagonalization with overlap
     ethr =  4.72E-05,  avg # of iterations =  2.2

     total cpu time spent up to now is      694.9 secs

     total energy              =   -1978.36447089 Ry
     estimated scf accuracy    <       0.01590559 Ry

     iteration #  5     ecut=    80.00 Ry     beta= 0.20
     Davidson diagonalization with overlap
     ethr =  1.53E-05,  avg # of iterations =  4.5

     total cpu time spent up to now is      815.6 secs

     total energy              =   -1978.36545994 Ry
     estimated scf accuracy    <       0.00399440 Ry

     iteration #  6     ecut=    80.00 Ry     beta= 0.20
     Davidson diagonalization with overlap
     c_bands:  1 eigenvalues not converged
     ethr =  3.84E-06,  avg # of iterations =  5.6

     total cpu time spent up to now is      931.4 secs

     total energy              =   -1978.36435500 Ry
     estimated scf accuracy    <       0.00273851 Ry

     iteration #  7     ecut=    80.00 Ry     beta= 0.20
     Davidson diagonalization with overlap
     c_bands:  1 eigenvalues not converged
     c_bands:  1 eigenvalues not converged
     ethr =  2.63E-06,  avg # of iterations =  7.3

     total cpu time spent up to now is     1088.9 secs

     total energy              =   -1978.36402793 Ry
     estimated scf accuracy    <       0.00697184 Ry

     iteration #  8     ecut=    80.00 Ry     beta= 0.20
     Davidson diagonalization with overlap
     ethr =  2.63E-06,  avg # of iterations =  3.4

     total cpu time spent up to now is     1209.4 secs

     total energy              =   -1978.36441316 Ry
     estimated scf accuracy    <       0.00071560 Ry

     iteration #  9     ecut=    80.00 Ry     beta= 0.20
     Davidson diagonalization with overlap
     ethr =  6.88E-07,  avg # of iterations =  6.7

     total cpu time spent up to now is     1356.1 secs

     total energy              =   -1978.36456045 Ry
     estimated scf accuracy    <       0.00174824 Ry

     iteration # 10     ecut=    80.00 Ry     beta= 0.20
     Davidson diagonalization with overlap
     ethr =  6.88E-07,  avg # of iterations =  2.0

     total cpu time spent up to now is     1468.7 secs

     total energy              =   -1978.36456569 Ry
     estimated scf accuracy    <       0.00084760 Ry

     iteration # 11     ecut=    80.00 Ry     beta= 0.20
     Davidson diagonalization with overlap
     ethr =  6.88E-07,  avg # of iterations =  1.0

     total cpu time spent up to now is     1567.5 secs

     total energy              =   -1978.36447387 Ry
     estimated scf accuracy    <       0.00051797 Ry

     iteration # 12     ecut=    80.00 Ry     beta= 0.20
     Davidson diagonalization with overlap
     ethr =  4.98E-07,  avg # of iterations =  3.0

     total cpu time spent up to now is     1682.5 secs

     total energy              =   -1978.36451378 Ry
     estimated scf accuracy    <       0.00005891 Ry

     iteration # 13     ecut=    80.00 Ry     beta= 0.20
     Davidson diagonalization with overlap
     ethr =  5.66E-08,  avg # of iterations =  5.6

     total cpu time spent up to now is     1818.9 secs

     total energy              =   -1978.36452342 Ry
     estimated scf accuracy    <       0.00007078 Ry

     iteration # 14     ecut=    80.00 Ry     beta= 0.20
     Davidson diagonalization with overlap
     ethr =  5.66E-08,  avg # of iterations =  2.0

     total cpu time spent up to now is     1928.4 secs

     total energy              =   -1978.36452647 Ry
     estimated scf accuracy    <       0.00003279 Ry

     iteration # 15     ecut=    80.00 Ry     beta= 0.20
     Davidson diagonalization with overlap
     ethr =  3.15E-08,  avg # of iterations =  3.1

     total cpu time spent up to now is     2046.7 secs

     total energy              =   -1978.36452894 Ry
     estimated scf accuracy    <       0.00004142 Ry

     iteration # 16     ecut=    80.00 Ry     beta= 0.20
     Davidson diagonalization with overlap
     ethr =  3.15E-08,  avg # of iterations =  1.0

     total cpu time spent up to now is     2144.7 secs

     total energy              =   -1978.36453111 Ry
     estimated scf accuracy    <       0.00003599 Ry

     iteration # 17     ecut=    80.00 Ry     beta= 0.20
     Davidson diagonalization with overlap
     ethr =  3.15E-08,  avg # of iterations =  1.1

     total cpu time spent up to now is     2243.5 secs

     total energy              =   -1978.36452103 Ry
     estimated scf accuracy    <       0.00005136 Ry

     iteration # 18     ecut=    80.00 Ry     beta= 0.20
     Davidson diagonalization with overlap
     ethr =  3.15E-08,  avg # of iterations =  2.8

     total cpu time spent up to now is     2362.4 secs

     total energy              =   -1978.36453511 Ry
     estimated scf accuracy    <       0.00003062 Ry

     iteration # 19     ecut=    80.00 Ry     beta= 0.20
     Davidson diagonalization with overlap
     ethr =  2.94E-08,  avg # of iterations =  5.1

     total cpu time spent up to now is     2495.5 secs

     total energy              =   -1978.36453917 Ry
     estimated scf accuracy    <       0.00015532 Ry

     iteration # 20     ecut=    80.00 Ry     beta= 0.20
     Davidson diagonalization with overlap
     ethr =  2.94E-08,  avg # of iterations =  2.0

     total cpu time spent up to now is     2603.8 secs

     total energy              =   -1978.36448691 Ry
     estimated scf accuracy    <       0.00013001 Ry

     iteration # 21     ecut=    80.00 Ry     beta= 0.20
     Davidson diagonalization with overlap
     ethr =  2.94E-08,  avg # of iterations =  4.3

     total cpu time spent up to now is     2764.0 secs

     total energy              =   -1978.36450800 Ry
     estimated scf accuracy    <       0.00006851 Ry

     iteration # 22     ecut=    80.00 Ry     beta= 0.20
     Davidson diagonalization with overlap
     ethr =  2.94E-08,  avg # of iterations =  4.5

     total cpu time spent up to now is     2894.3 secs

     total energy              =   -1978.36451997 Ry
     estimated scf accuracy    <       0.00002104 Ry

     iteration # 23     ecut=    80.00 Ry     beta= 0.20
     Davidson diagonalization with overlap
     ethr =  2.02E-08,  avg # of iterations =  2.2

     total cpu time spent up to now is     3002.4 secs

     total energy              =   -1978.36452152 Ry
     estimated scf accuracy    <       0.00000629 Ry

     iteration # 24     ecut=    80.00 Ry     beta= 0.20
     Davidson diagonalization with overlap
     ethr =  6.04E-09,  avg # of iterations =  4.8

     total cpu time spent up to now is     3129.6 secs

     total energy              =   -1978.36452089 Ry
     estimated scf accuracy    <       0.00001448 Ry

     iteration # 25     ecut=    80.00 Ry     beta= 0.20
     Davidson diagonalization with overlap
     ethr =  6.04E-09,  avg # of iterations =  2.4

     total cpu time spent up to now is     3239.3 secs

     total energy              =   -1978.36452118 Ry
     estimated scf accuracy    <       0.00000662 Ry

     iteration # 26     ecut=    80.00 Ry     beta= 0.20
     Davidson diagonalization with overlap
     ethr =  6.04E-09,  avg # of iterations =  1.2

     total cpu time spent up to now is     3339.4 secs

     total energy              =   -1978.36452087 Ry
     estimated scf accuracy    <       0.00000552 Ry

     iteration # 27     ecut=    80.00 Ry     beta= 0.20
     Davidson diagonalization with overlap
     ethr =  5.31E-09,  avg # of iterations =  1.4

     total cpu time spent up to now is     3441.9 secs

     total energy              =   -1978.36452070 Ry
     estimated scf accuracy    <       0.00000507 Ry

     iteration # 28     ecut=    80.00 Ry     beta= 0.20
     Davidson diagonalization with overlap
     ethr =  4.88E-09,  avg # of iterations =  1.0

     total cpu time spent up to now is     3540.2 secs

     total energy              =   -1978.36452049 Ry
     estimated scf accuracy    <       0.00000470 Ry

     iteration # 29     ecut=    80.00 Ry     beta= 0.20
     Davidson diagonalization with overlap
     ethr =  4.52E-09,  avg # of iterations =  1.0

     total cpu time spent up to now is     3638.5 secs

     total energy              =   -1978.36451938 Ry
     estimated scf accuracy    <       0.00000427 Ry

     iteration # 30     ecut=    80.00 Ry     beta= 0.20
     Davidson diagonalization with overlap
     ethr =  4.11E-09,  avg # of iterations =  2.0

     total cpu time spent up to now is     3749.7 secs

     total energy              =   -1978.36451898 Ry
     estimated scf accuracy    <       0.00000341 Ry

     iteration # 31     ecut=    80.00 Ry     beta= 0.20
     Davidson diagonalization with overlap
     ethr =  3.28E-09,  avg # of iterations =  1.5

     total cpu time spent up to now is     3853.2 secs

     total energy              =   -1978.36451858 Ry
     estimated scf accuracy    <       0.00000260 Ry

     iteration # 32     ecut=    80.00 Ry     beta= 0.20
     Davidson diagonalization with overlap
     ethr =  2.50E-09,  avg # of iterations =  4.6

     total cpu time spent up to now is     3985.0 secs

     total energy              =   -1978.36451646 Ry
     estimated scf accuracy    <       0.00000906 Ry

     iteration # 33     ecut=    80.00 Ry     beta= 0.20
     Davidson diagonalization with overlap
     ethr =  2.50E-09,  avg # of iterations =  5.4

     total cpu time spent up to now is     4124.7 secs

     total energy              =   -1978.36451811 Ry
     estimated scf accuracy    <       0.00000236 Ry

     iteration # 34     ecut=    80.00 Ry     beta= 0.20
     Davidson diagonalization with overlap
     ethr =  2.27E-09,  avg # of iterations =  2.4

     total cpu time spent up to now is     4235.7 secs

     total energy              =   -1978.36451829 Ry
     estimated scf accuracy    <       0.00000032 Ry

     iteration # 35     ecut=    80.00 Ry     beta= 0.20
     Davidson diagonalization with overlap
     ethr =  3.12E-10,  avg # of iterations =  6.3

     total cpu time spent up to now is     4377.2 secs

     total energy              =   -1978.36451824 Ry
     estimated scf accuracy    <       0.00000090 Ry

     iteration # 36     ecut=    80.00 Ry     beta= 0.20
     Davidson diagonalization with overlap
     ethr =  3.12E-10,  avg # of iterations =  4.4

     total cpu time spent up to now is     4506.5 secs

     total energy              =   -1978.36451835 Ry
     estimated scf accuracy    <       0.00000003 Ry

     iteration # 37     ecut=    80.00 Ry     beta= 0.20
     Davidson diagonalization with overlap
     ethr =  3.03E-11,  avg # of iterations =  4.3

     total cpu time spent up to now is     4633.7 secs

     total energy              =   -1978.36451835 Ry
     estimated scf accuracy    <       0.00000002 Ry

     iteration # 38     ecut=    80.00 Ry     beta= 0.20
     Davidson diagonalization with overlap
     ethr =  1.68E-11,  avg # of iterations =  2.1

     total cpu time spent up to now is     4739.3 secs

     total energy              =   -1978.36451835 Ry
     estimated scf accuracy    <       0.00000001 Ry

     iteration # 39     ecut=    80.00 Ry     beta= 0.20
     Davidson diagonalization with overlap
     ethr =  1.16E-11,  avg # of iterations =  2.1

     total cpu time spent up to now is     4856.0 secs

     End of self-consistent calculation

          k = 0.0000 0.0000 0.0000 ( 21311 PWs)   bands (ev):

   -53.4954 -53.4642 -53.4555 -53.4134 -27.6693 -27.6379 -27.6300 -27.5878
   -27.4320 -27.4320 -27.4020 -27.4020 -27.3920 -27.3920 -27.3510 -27.3510
    -6.8437  -6.7485  -6.7383  -6.6548  -5.6098  -5.4557  -5.4491  -5.3227
     1.3552   1.6826   1.7391   2.0406   4.7822   4.7822   4.7882   4.8040
     4.8040   4.8197   4.8197   4.8535   4.8536   5.3965   5.5284   5.8967
     5.8968   5.9234   5.9234   5.9340   5.9341   5.9722   5.9722   6.2219
     6.9804   7.2642   7.5328   7.8555  10.1263  10.1263  10.1732  10.1733
    10.1835  10.1835  10.2242  10.2242  10.3397  10.3398

          k = 0.0000 0.0722 0.0000 ( 21283 PWs)   bands (ev):

   -53.4938 -53.4627 -53.4539 -53.4118 -27.6663 -27.6349 -27.6270 -27.5847
   -27.4475 -27.4355 -27.4176 -27.4075 -27.4055 -27.3955 -27.3666 -27.3545
    -6.7841  -6.6892  -6.6789  -6.5957  -5.5822  -5.4305  -5.4241  -5.2996
     1.4241   1.7503   1.8080   2.1085   4.6430   4.6552   4.6697   4.6842
     4.7195   4.8445   4.8665   4.8819   4.9161   5.1550   5.2384   5.5732
     5.7995   5.8268   5.8372   5.8759   5.9952   6.0873   6.1301   6.4619
     6.9832   7.2449   7.4975   7.7753  10.0528  10.0899  10.0946  10.1393
    10.1831  10.2100  10.2157  10.2413  10.2557  10.2804

          k = 0.0000 0.1443 0.0000 ( 21263 PWs)   bands (ev):

   -53.4894 -53.4582 -53.4495 -53.4074 -27.6576 -27.6262 -27.6183 -27.5761
   -27.4916 -27.4617 -27.4516 -27.4455 -27.4156 -27.4107 -27.4055 -27.3646
    -6.6101  -6.5164  -6.5058  -6.4235  -5.5015  -5.3571  -5.3514  -5.2324
     1.6158   1.9367   1.9982   2.2937   4.2927   4.3229   4.3287   4.3416
     4.3798   4.7256   4.7829   5.0235   5.0467   5.0573   5.0611   5.0963
     5.5480   5.5768   5.5869   5.6267   6.0538   6.2209   6.2905   6.6123
     6.9549   7.1529   7.3422   7.5172   9.7508   9.8233   9.8616   9.9258
     9.9699   9.9859  10.0645  10.0670  10.1123  10.1406

          k = 0.0000 0.2165 0.0000 ( 21233 PWs)   bands (ev):

   -53.4828 -53.4516 -53.4428 -53.4008 -27.6447 -27.6132 -27.6054 -27.5631
   -27.5569 -27.5271 -27.5170 -27.4761 -27.4605 -27.4306 -27.4205 -27.3796
    -6.3365  -6.2453  -6.2345  -6.1541  -5.3750  -5.2426  -5.2375  -5.1277
     1.8758   2.1787   2.2445   2.5202   3.8549   3.8956   3.9014   3.9233
     3.9975   4.2536   4.3068   4.5118   5.2210   5.2532   5.2597   5.2947
     5.3055   5.3218   5.3383   5.3730   5.9664   6.1728   6.2393   6.5292
     6.8120   6.9262   7.0199   7.1065   9.3719   9.5171   9.5892   9.8183
     9.8463   9.9263   9.9359   9.9527  10.0054  10.0347

          k = 0.0000 0.2887 0.0000 ( 21197 PWs)   bands (ev):

   -53.4749 -53.4437 -53.4350 -53.3929 -27.6332 -27.6293 -27.6035 -27.5978
   -27.5933 -27.5900 -27.5525 -27.5477 -27.4781 -27.4482 -27.4381 -27.3972
    -5.9889  -5.9024  -5.8913  -5.8148  -5.2151  -5.0994  -5.0943  -4.9972
     2.0759   2.3228   2.3810   2.5850   3.4523   3.5222   3.5778   3.5972
     3.6791   3.7699   3.8593   3.9722   4.8929   4.9254   4.9341   4.9766
     5.6209   5.6513   5.6623   5.7035   5.7514   5.9761   6.0300   6.2844
     6.5394   6.6029   6.6359   6.6947   9.2391   9.4380   9.5191   9.6582
     9.7359   9.7429   9.8128   9.8138  10.1687  10.2965

          k = 0.0000 0.3608 0.0000 ( 21187 PWs)   bands (ev):

   -53.4670 -53.4358 -53.4271 -53.3850 -27.7086 -27.6790 -27.6687 -27.6280
   -27.6139 -27.5824 -27.5746 -27.5323 -27.4957 -27.4658 -27.4557 -27.4148
    -5.6054  -5.5270  -5.5159  -5.4457  -5.0410  -4.9457  -4.9402  -4.8582
     2.0397   2.1916   2.2253   2.3327   3.0872   3.2080   3.2999   3.3739
     3.4457   3.5077   3.5735   3.6657   4.6044   4.6379   4.6464   4.6897
     5.5169   5.7432   5.7878   5.9391   5.9796   5.9876   6.0087   6.0357
     6.3209   6.3811   6.4066   6.4638   9.3575   9.5553   9.5600   9.6226
     9.6264   9.6284   9.6912   9.9042  10.4997  10.6527

          k = 0.0000 0.4330 0.0000 ( 21140 PWs)   bands (ev):

   -53.4604 -53.4291 -53.4204 -53.3783 -27.7718 -27.7423 -27.7319 -27.6913
   -27.6008 -27.5693 -27.5615 -27.5192 -27.5105 -27.4806 -27.4705 -27.4296
    -5.2409  -5.1743  -5.1636  -5.1030  -4.8787  -4.8054  -4.8001  -4.7336
     1.8080   1.8978   1.9213   1.9819   2.7500   2.8592   2.9064   2.9784
     3.3361   3.4509   3.4621   3.5841   4.3835   4.4178   4.4262   4.4700
     5.3424   5.5601   5.5986   5.7931   6.1920   6.2467   6.2519   6.3095
     6.3391   6.4206   6.4430   6.5182   9.5507   9.6027   9.6041   9.6206
     9.6604   9.7880   9.8344  10.0420  10.8118  10.9689

          k = 0.0000 0.5052 0.0000 ( 21078 PWs)   bands (ev):

   -53.4559 -53.4247 -53.4160 -53.3739 -27.8137 -27.7842 -27.7738 -27.7332
   -27.5921 -27.5605 -27.5528 -27.5204 -27.5104 -27.4905 -27.4804 -27.4395
    -4.9678  -4.9147  -4.9048  -4.8552  -4.7595  -4.7056  -4.7022  -4.6474
     1.5806   1.6448   1.6696   1.7136   2.5136   2.5965   2.6390   2.6970
     3.2328   3.3489   3.3593   3.4711   4.2457   4.2805   4.2887   4.3329
     5.2475   5.4555   5.4878   5.6621   6.3450   6.4126   6.4159   6.4820
     6.5273   6.6166   6.6297   6.7064   9.6006   9.6388   9.6434   9.6907
     9.9140  10.0267  10.0503  10.1746  11.0073  11.1461

          k = 0.0000-0.5774 0.0000 ( 21006 PWs)   bands (ev):

   -53.4543 -53.4231 -53.4144 -53.3723 -27.8284 -27.7989 -27.7885 -27.7479
   -27.5890 -27.5575 -27.5497 -27.5238 -27.5073 -27.4940 -27.4839 -27.4430
    -4.8635  -4.8175  -4.8084  -4.7645  -4.7149  -4.6693  -4.6679  -4.6168
     1.4889   1.5474   1.5735   1.6139   2.4290   2.5005   2.5441   2.5978
     3.1847   3.3002   3.3101   3.4187   4.1990   4.2339   4.2421   4.2864
     5.2191   5.4225   5.4520   5.6180   6.3946   6.4673   6.4700   6.5396
     6.6443   6.7197   6.7305   6.7928   9.6295   9.6632   9.6698   9.7138
    10.0709  10.1446  10.1511  10.2179  11.0684  11.2012

          k = 0.0625 0.1083 0.0000 ( 21269 PWs)   bands (ev):

   -53.4908 -53.4597 -53.4509 -53.4088 -27.6604 -27.6290 -27.6212 -27.5789
   -27.4768 -27.4470 -27.4427 -27.4369 -27.4128 -27.4027 -27.3959 -27.3618
    -6.6672  -6.5731  -6.5627  -6.4800  -5.5280  -5.3812  -5.3752  -5.2544
     1.5549   1.8779   1.9382   2.2359   4.4035   4.4309   4.4365   4.4460
     4.4836   4.8585   4.9216   4.9633   4.9858   5.0008   5.0351   5.2223
     5.5847   5.6123   5.6220   5.6609   6.0908   6.2346   6.2994   6.6163
     6.9718   7.1897   7.4038   7.6060   9.8765   9.9086   9.9426   9.9590
     9.9814  10.0122  10.0372  10.1049  10.1408  10.2019

          k = 0.0625 0.1804 0.0000 ( 21194 PWs)   bands (ev):

   -53.4853 -53.4541 -53.4454 -53.4033 -27.6496 -27.6182 -27.6103 -27.5680
   -27.5303 -27.5005 -27.4904 -27.4564 -27.4495 -27.4265 -27.4165 -27.3755
    -6.4433  -6.3510  -6.3402  -6.2590  -5.4242  -5.2870  -5.2817  -5.1682
     1.7848   2.0975   2.1623   2.4494   4.0196   4.0527   4.0557   4.0864
     4.1470   4.4649   4.5186   4.7633   5.1788   5.2035   5.2078   5.2279
     5.2447   5.2469   5.2654   5.2955   6.1416   6.3129   6.3816   6.6562
     6.8891   7.0290   7.1641   7.2680   9.4819   9.5974   9.6530   9.8085
     9.8492   9.9080   9.9244   9.9788  10.0004  10.0184

          k = 0.0625 0.2526 0.0000 ( 21202 PWs)   bands (ev):

   -53.4780 -53.4469 -53.4381 -53.3960 -27.6355 -27.6040 -27.5995 -27.5962
   -27.5698 -27.5596 -27.5538 -27.5188 -27.4744 -27.4445 -27.4344 -27.3935
    -6.1321  -6.0434  -6.0324  -5.9540  -5.2804  -5.1576  -5.1525  -5.0500
     2.0285   2.3077   2.3727   2.6182   3.6244   3.6727   3.6911   3.7102
     3.8178   4.0194   4.0815   4.2394   4.8400   4.8726   4.8842   4.9287
     5.4468   5.4756   5.4858   5.5257   6.0395   6.2182   6.2736   6.5025
     6.6791   6.7474   6.7994   6.8547   9.2182   9.3953   9.4651   9.6503
     9.7782   9.8166   9.8469   9.8804   9.9708  10.0537

          k = 0.0625 0.3248 0.0000 ( 21194 PWs)   bands (ev):

   -53.4702 -53.4390 -53.4303 -53.3882 -27.6736 -27.6439 -27.6336 -27.6201
   -27.5929 -27.5886 -27.5808 -27.5384 -27.4938 -27.4639 -27.4538 -27.4129
    -5.7650  -5.6827  -5.6715  -5.5983  -5.1121  -5.0078  -5.0024  -4.9138
     2.1182   2.3150   2.3597   2.5075   3.2835   3.3740   3.4925   3.5378
     3.5455   3.5715   3.7039   3.7386   4.5330   4.5800   4.5930   4.6483
     5.6796   5.7189   5.7196   5.7652   5.8285   5.9973   6.0388   6.2341
     6.4519   6.4973   6.5144   6.5643   9.1828   9.3739   9.4296   9.5644
     9.7086   9.7515   9.7817   9.9021  10.2303  10.3614

          k = 0.0625 0.3969 0.0000 ( 21151 PWs)   bands (ev):

   -53.4629 -53.4317 -53.4230 -53.3809 -27.7412 -27.7116 -27.7013 -27.6606
   -27.6059 -27.5743 -27.5666 -27.5242 -27.5116 -27.4817 -27.4716 -27.4307
    -5.3878  -5.3155  -5.3046  -5.2394  -4.9415  -4.8586  -4.8530  -4.7799
     1.9647   2.0800   2.1061   2.1851   2.9151   3.0260   3.0778   3.1477
     3.4078   3.5142   3.5278   3.6530   4.3337   4.3861   4.3965   4.4523
     5.5655   5.7380   5.7776   5.8270   5.8664   5.8773   5.8967   5.9900
     6.4625   6.5018   6.5138   6.5603   9.3178   9.4710   9.5039   9.5943
     9.7518   9.8058   9.8304   9.9878  10.5723  10.7149

          k = 0.0625 0.4691 0.0000 ( 21105 PWs)   bands (ev):

   -53.4573 -53.4261 -53.4174 -53.3753 -27.7925 -27.7630 -27.7526 -27.7120
   -27.5949 -27.5634 -27.5556 -27.5252 -27.5132 -27.4953 -27.4852 -27.4443
    -5.0638  -5.0047  -4.9944  -4.9400  -4.7975  -4.7359  -4.7313  -4.6722
     1.7282   1.8027   1.8265   1.8770   2.5998   2.6840   2.7215   2.7784
     3.3049   3.4216   3.4357   3.5493   4.2273   4.2733   4.2773   4.3281
     5.3742   5.5536   5.5846   5.7360   5.9470   6.0033   6.0083   6.0740
     6.6355   6.6817   6.6910   6.7438   9.5121   9.5984   9.6121   9.6701
     9.8879   9.9631   9.9850  10.1163  10.8888  11.0236

          k = 0.0625 0.5413 0.0000 ( 21084 PWs)   bands (ev):

   -53.4543 -53.4231 -53.4144 -53.3723 -27.8201 -27.7906 -27.7802 -27.7396
   -27.5890 -27.5575 -27.5497 -27.5325 -27.5073 -27.5027 -27.4926 -27.4517
    -4.8695  -4.8221  -4.8128  -4.7681  -4.7126  -4.6659  -4.6640  -4.6125
     1.5689   1.6283   1.6546   1.6957   2.4220   2.4884   2.5265   2.5774
     3.2156   3.3329   3.3452   3.4531   4.1857   4.2217   4.2227   4.2687
     5.2694   5.4532   5.4796   5.6292   6.0362   6.1036   6.1096   6.1721
     6.7888   6.8455   6.8525   6.9100   9.6282   9.6658   9.6668   9.7109
    10.0649  10.1411  10.1519  10.2304  11.1147  11.2315

          k = 0.1250 0.2165 0.0000 ( 21179 PWs)   bands (ev):

   -53.4792 -53.4480 -53.4392 -53.3971 -27.6376 -27.6062 -27.5983 -27.5855
   -27.5560 -27.5557 -27.5456 -27.5047 -27.4752 -27.4454 -27.4353 -27.3943
    -6.1813  -6.0919  -6.0809  -6.0020  -5.3027  -5.1774  -5.1724  -5.0680
     2.0093   2.2993   2.3661   2.6261   3.6985   3.7316   3.7442   3.7731
     3.9147   4.1790   4.2383   4.4267   4.7021   4.7294   4.7463   4.7877
     5.3675   5.3958   5.4050   5.4445   6.2249   6.3787   6.4369   6.6359
     6.7430   6.8068   6.8762   6.9236   9.2063   9.3721   9.4347   9.6100
     9.7655   9.7992   9.8461   9.8544   9.8998   9.9146

          k = 0.1250 0.2887 0.0000 ( 21199 PWs)   bands (ev):

   -53.4719 -53.4407 -53.4320 -53.3899 -27.6488 -27.6234 -27.6191 -27.6089
   -27.5919 -27.5841 -27.5681 -27.5418 -27.4985 -27.4687 -27.4586 -27.4177
    -5.8490  -5.7648  -5.7537  -5.6789  -5.1489  -5.0399  -5.0346  -4.9425
     2.1665   2.3961   2.4495   2.6317   3.4427   3.4934   3.5682   3.5966
     3.6871   3.7811   3.8618   3.9210   4.2669   4.3342   4.3618   4.4699
     5.4698   5.5081   5.5101   5.5563   6.1526   6.2851   6.3252   6.4725
     6.5581   6.5837   6.5936   6.6380   9.0483   9.2463   9.3066   9.4847
     9.7685   9.7950   9.8202   9.8869   9.9821  10.0610

          k = 0.1250 0.3608 0.0000 ( 21195 PWs)   bands (ev):

   -53.4646 -53.4334 -53.4247 -53.3826 -27.7111 -27.6814 -27.6712 -27.6305
   -27.6092 -27.5777 -27.5699 -27.5275 -27.5222 -27.4924 -27.4823 -27.4414
    -5.4841  -5.4084  -5.3972  -5.3293  -4.9808  -4.8915  -4.8858  -4.8081
     2.1199   2.2661   2.2968   2.4000   3.1151   3.2048   3.2575   3.3006
     3.4998   3.5881   3.6018   3.7180   4.0701   4.1831   4.2224   4.3381
     5.4107   5.4573   5.4607   5.5087   5.9330   6.0467   6.0755   6.1905
     6.5166   6.5510   6.5554   6.6006   9.0858   9.3000   9.3569   9.5529
     9.8399   9.8757   9.8917   9.9744  10.2282  10.3480

          k = 0.1250 0.4330 0.0000 ( 21113 PWs)   bands (ev):

   -53.4585 -53.4272 -53.4185 -53.3764 -27.7632 -27.7336 -27.7233 -27.6827
   -27.5971 -27.5656 -27.5578 -27.5424 -27.5154 -27.5126 -27.5024 -27.4616
    -5.1396  -5.0759  -5.0651  -5.0070  -4.8234  -4.7553  -4.7499  -4.6867
     1.9405   2.0345   2.0579   2.1220   2.7042   2.7675   2.7955   2.8389
     3.4288   3.5396   3.5709   3.6719   4.0408   4.1560   4.1801   4.2810
     5.3540   5.4216   5.4312   5.4920   5.6585   5.7684   5.7906   5.8972
     6.6553   6.6906   6.6970   6.7424   9.2942   9.4936   9.5405   9.7226
     9.9501   9.9833  10.0008  10.0586  10.5434  10.6702

          k = 0.1250 0.5052 0.0000 ( 21081 PWs)   bands (ev):

   -53.4543 -53.4231 -53.4144 -53.3723 -27.7977 -27.7682 -27.7579 -27.7172
   -27.5890 -27.5575 -27.5559 -27.5497 -27.5261 -27.5159 -27.5073 -27.4751
    -4.8835  -4.8330  -4.8232  -4.7766  -4.7071  -4.6579  -4.6547  -4.6022
     1.7783   1.8444   1.8708   1.9160   2.4101   2.4594   2.4865   2.5298
     3.3102   3.4316   3.4514   3.5522   4.0902   4.1820   4.1889   4.2612
     5.3482   5.4374   5.4806   5.4840   5.5279   5.5586   5.5732   5.6858
     6.8408   6.8869   6.8942   6.9464   9.5160   9.6233   9.6412   9.7239
    10.0986  10.1628  10.1754  10.2603  10.8228  10.9326

          k = 0.1250 0.5774 0.0000 ( 21108 PWs)   bands (ev):

   -53.4529 -53.4217 -53.4130 -53.3708 -27.8098 -27.7803 -27.7699 -27.7294
   -27.5862 -27.5606 -27.5546 -27.5469 -27.5308 -27.5207 -27.5045 -27.4798
    -4.7863  -4.7425  -4.7337  -4.6937  -4.6627  -4.6224  -4.6213  -4.5721
     1.7155   1.7714   1.8009   1.8402   2.3052   2.3505   2.3782   2.4219
     3.2501   3.3726   3.3887   3.4910   4.1392   4.1932   4.2043   4.2537
     5.2922   5.4260   5.4557   5.4751   5.5074   5.5110   5.5547   5.6296
     6.9324   6.9871   6.9945   7.0523   9.5956   9.6312   9.6356   9.6797
    10.2093  10.2895  10.2996  10.3590  10.9365  11.0504

          k = 0.1875 0.3248 0.0000 ( 21195 PWs)   bands (ev):

   -53.4652 -53.4340 -53.4253 -53.3832 -27.6975 -27.6679 -27.6576 -27.6169
   -27.6104 -27.5789 -27.5711 -27.5290 -27.5287 -27.4991 -27.4890 -27.4481
    -5.5175  -5.4406  -5.4294  -5.3606  -4.9941  -4.9026  -4.8968  -4.8176
     2.1859   2.3478   2.3810   2.4972   3.2438   3.3126   3.3608   3.3726
     3.5430   3.6211   3.6396   3.7177   3.9256   4.0538   4.1241   4.2691
     5.2370   5.2817   5.2872   5.3348   6.0982   6.1865   6.2147   6.2994
     6.5220   6.5614   6.5644   6.6131   8.9973   9.2313   9.2949   9.5271
     9.8645   9.8883   9.9107   9.9601  10.0815  10.1809

          k = 0.1875 0.3969 0.0000 ( 21153 PWs)   bands (ev):

   -53.4591 -53.4278 -53.4191 -53.3770 -27.7394 -27.7098 -27.6995 -27.6588
   -27.5983 -27.5668 -27.5598 -27.5590 -27.5300 -27.5199 -27.5166 -27.4790
    -5.1811  -5.1149  -5.1039  -5.0439  -4.8362  -4.7645  -4.7587  -4.6931
     2.1010   2.2158   2.2389   2.3189   2.7992   2.8277   2.8515   2.8810
     3.5641   3.6380   3.7227   3.7654   3.9265   4.0408   4.1122   4.2434
     4.9176   4.9739   4.9795   5.0339   5.8722   5.9343   5.9609   6.0174
     6.6248   6.6652   6.6729   6.7240   9.1525   9.4051   9.4706   9.7568
     9.9785  10.0107  10.0134  10.0578  10.2683  10.3844

          k = 0.1875 0.4691 0.0000 ( 21101 PWs)   bands (ev):

   -53.4543 -53.4231 -53.4144 -53.3723 -27.7699 -27.7403 -27.7300 -27.6894
   -27.5891 -27.5848 -27.5575 -27.5550 -27.5498 -27.5448 -27.5073 -27.5040
    -4.8970  -4.8438  -4.8336  -4.7850  -4.7016  -4.6499  -4.6456  -4.5918
     2.0157   2.1005   2.1255   2.1824   2.4038   2.4316   2.4497   2.4862
     3.4790   3.6013   3.6346   3.6980   3.9883   4.1311   4.1545   4.2752
     4.7313   4.8217   4.8317   4.9183   5.5714   5.6524   5.6680   5.7310
     6.8261   6.8621   6.8711   6.9174   9.3723   9.5435   9.5780   9.7240
    10.1407  10.1959  10.2115  10.2950  10.4841  10.5979

          k = 0.1875 0.5413 0.0000 ( 21112 PWs)   bands (ev):

   -53.4518 -53.4205 -53.4118 -53.3697 -27.7859 -27.7564 -27.7460 -27.7054
   -27.5987 -27.5841 -27.5689 -27.5587 -27.5525 -27.5447 -27.5179 -27.5023
    -4.7291  -4.6866  -4.6779  -4.6425  -4.6190  -4.5840  -4.5826  -4.5351
     1.9794   2.0361   2.0731   2.1137   2.1883   2.2186   2.2325   2.2750
     3.3361   3.4657   3.4837   3.5745   4.1184   4.2196   4.2342   4.3085
     4.6863   4.8036   4.8133   4.9082   5.3630   5.4488   5.4580   5.5305
     7.0093   7.0536   7.0616   7.1140   9.4461   9.5022   9.5080   9.5636
    10.3257  10.4178  10.4661  10.5371  10.6015  10.6967

          k = 0.2500 0.4330 0.0000 ( 21125 PWs)   bands (ev):

   -53.4543 -53.4231 -53.4144 -53.3723 -27.7554 -27.7258 -27.7155 -27.6749
   -27.5997 -27.5891 -27.5699 -27.5597 -27.5575 -27.5498 -27.5189 -27.5074
    -4.9025  -4.8482  -4.8378  -4.7884  -4.6994  -4.6465  -4.6419  -4.5875
     2.1239   2.2228   2.2465   2.3085   2.4034   2.4253   2.4354   2.4682
     3.6615   3.7025   3.7890   3.8074   3.9944   4.1085   4.1629   4.2926
     4.4180   4.4668   4.4685   4.5133   5.6439   5.6880   5.7173   5.7655
     6.8096   6.8444   6.8551   6.9008   9.3119   9.5040   9.5465   9.7156
    10.1519  10.1997  10.2245  10.3028  10.3551  10.4982

          k = 0.2500 0.5052 0.0000 ( 21117 PWs)   bands (ev):

   -53.4512 -53.4199 -53.4112 -53.3691 -27.7601 -27.7306 -27.7202 -27.6796
   -27.6322 -27.6025 -27.5923 -27.5829 -27.5515 -27.5513 -27.5436 -27.5012
    -4.7011  -4.6584  -4.6497  -4.6170  -4.5934  -4.5613  -4.5592  -4.5127
     2.0956   2.1196   2.1430   2.1692   2.2436   2.3193   2.3337   2.3924
     3.5064   3.6336   3.6500   3.6885   4.0547   4.1210   4.1919   4.2073
     4.2456   4.2667   4.3379   4.4078   5.3658   5.4278   5.4450   5.5052
     7.0503   7.0844   7.0939   7.1386   9.3127   9.3858   9.3951   9.4641
    10.2932  10.3592  10.3832  10.4594  10.5610  10.5935

          k = 0.2500 0.5774 0.0000 ( 21116 PWs)   bands (ev):

   -53.4501 -53.4188 -53.4101 -53.3680 -27.7600 -27.7304 -27.7201 -27.6794
   -27.6455 -27.6157 -27.6055 -27.5807 -27.5647 -27.5491 -27.5414 -27.4990
    -4.6254  -4.5888  -4.5814  -4.5677  -4.5463  -4.5300  -4.5270  -4.4856
     1.9965   2.0188   2.0390   2.0691   2.3296   2.3773   2.4037   2.4413
     3.3520   3.4758   3.4872   3.5609   4.0174   4.1226   4.1763   4.2188
     4.2948   4.3586   4.3847   4.4406   5.2474   5.2988   5.3093   5.3679
     7.1764   7.2146   7.2228   7.2710   9.2448   9.2765   9.2822   9.3243
    10.3177  10.3827  10.4167  10.4643  10.7304  10.7644

          k = 0.3125 0.5413 0.0000 ( 21100 PWs)   bands (ev):

   -53.4495 -53.4182 -53.4095 -53.3674 -27.7389 -27.7094 -27.6990 -27.6739
   -27.6584 -27.6442 -27.6340 -27.5932 -27.5796 -27.5480 -27.5402 -27.4978
    -4.5884  -4.5549  -4.5478  -4.5439  -4.5216  -4.5101  -4.5033  -4.4668
     1.9291   1.9509   1.9674   2.0005   2.5531   2.6158   2.6410   2.6854
     3.3603   3.3742   3.4249   3.4301   3.8398   3.8727   3.8909   3.8929
     4.3458   4.4299   4.4341   4.4956   5.1589   5.2246   5.2309   5.2981
     7.2590   7.2930   7.3012   7.3458   9.1287   9.1593   9.1673   9.2088
    10.2548  10.2892  10.3373  10.3743  10.8234  10.8843

     the Fermi energy is     8.3628 ev

!    total energy              =   -1978.36451834 Ry
     total all-electron energy =    -38771.685363 Ry
     estimated scf accuracy    <          7.6E-09 Ry
     smearing contrib. (-TS)   =       0.00003395 Ry
     internal energy E=F+TS    =   -1978.36455229 Ry

     The total energy is F=E-TS. E is the sum of the following terms:
     one-electron contribution =   -1153.87836256 Ry
     hartree contribution      =     619.18326449 Ry
     xc contribution           =    -119.22764556 Ry
     ewald contribution        =     -54.58973511 Ry
     one-center paw contrib.   =   -1269.85207355 Ry

     convergence has been achieved in  39 iterations

     Writing all to output data dir ./tmp/cleave/cleave_dz008_dz1p6/mos2_cleave.save/ :
     XML data file, charge density, pseudopotentials, collected wavefunctions

     init_run     :     84.79s CPU     85.75s WALL (       1 calls)
     electrons    :   4695.25s CPU   4770.16s WALL (       1 calls)

     Called by init_run:
     wfcinit      :     40.92s CPU     41.04s WALL (       1 calls)
     potinit      :     41.64s CPU     41.89s WALL (       1 calls)
     hinit0       :      0.32s CPU      0.33s WALL (       1 calls)

     Called by electrons:
     c_bands      :   3970.50s CPU   3994.03s WALL (      40 calls)
     sum_band     :    559.59s CPU    583.41s WALL (      40 calls)
     v_of_rho     :    108.93s CPU    116.47s WALL (      40 calls)
     newd         :     70.66s CPU     91.14s WALL (      40 calls)
     PAW_pot      :     15.80s CPU     15.81s WALL (      40 calls)
     mix_rho      :     12.33s CPU     12.64s WALL (      40 calls)
     vdW_kernel   :     39.50s CPU     39.52s WALL (       1 calls)

     Called by c_bands:
     init_us_2    :     17.45s CPU     17.47s WALL (    2430 calls)
     init_us_2:cp :     17.45s CPU     17.47s WALL (    2430 calls)
     cegterg      :   3797.18s CPU   3820.48s WALL (    1200 calls)

     Called by *egterg:
     cdiaghg      :     12.43s CPU     12.44s WALL (    4911 calls)
     h_psi        :   2045.02s CPU   2053.85s WALL (    4971 calls)
     s_psi        :    622.68s CPU    622.95s WALL (    4971 calls)
     g_psi        :      9.81s CPU      9.82s WALL (    3741 calls)

     Called by h_psi:
     h_psi:calbec :    804.75s CPU    804.98s WALL (    4971 calls)
     vloc_psi     :    613.20s CPU    613.85s WALL (    4971 calls)
     add_vuspsi   :    622.78s CPU    622.95s WALL (    4971 calls)

     General routines
     calbec       :   1143.84s CPU   1144.19s WALL (    6171 calls)
     fft          :     29.28s CPU     29.29s WALL (    2519 calls)
     ffts         :      5.75s CPU      5.75s WALL (    1972 calls)
     fftw         :    566.55s CPU    567.06s WALL (  426792 calls)
     interpolate  :      0.62s CPU      0.62s WALL (      40 calls)

     Parallel routines

     PWSCF        :      1h19m CPU      1h20m WALL


   This run was terminated on:   4:59:50   8Jun2026            

=------------------------------------------------------------------------------=
   JOB DONE.
=------------------------------------------------------------------------------=
Note: The following floating-point exceptions are signalling: IEEE_UNDERFLOW_FLAG IEEE_DENORMAL
