Authorization required, but no authorization protocol specified

Authorization required, but no authorization protocol specified

Authorization required, but no authorization protocol specified

Authorization required, but no authorization protocol specified

Authorization required, but no authorization protocol specified

Authorization required, but no authorization protocol specified

Authorization required, but no authorization protocol specified

Authorization required, but no authorization protocol specified


     Program PWSCF v.7.3 starts on  9Jun2026 at 16:48:14 

     This program is part of the open-source Quantum ESPRESSO suite
     for quantum simulation of materials; please cite
         "P. Giannozzi et al., J. Phys.:Condens. Matter 21 395502 (2009);
         "P. Giannozzi et al., J. Phys.:Condens. Matter 29 465901 (2017);
         "P. Giannozzi et al., J. Chem. Phys. 152 154105 (2020);
          URL http://www.quantum-espresso.org", 
     in publications or presentations arising from this work. More details at
     http://www.quantum-espresso.org/quote

     Parallel version (MPI), running on     1 processors

     MPI processes distributed on     1 nodes
     69035 MiB available memory on the printing compute node when the environment starts

     Waiting for input...
     Reading input from standard input

     Current dimensions of program PWSCF are:
     Max number of different atomic species (ntypx) = 10
     Max number of k-points (npk) =  40000
     Max angular momentum in pseudopotentials (lmaxx) =  4
     file Mo.pbe-spn-kjpaw_psl.1.0.0.UPF: wavefunction(s)  4S 4D renormalized
     file S.pbe-n-kjpaw_psl.1.0.0.UPF: wavefunction(s)  3S 3P renormalized

     IMPORTANT: XC functional enforced from input :
     Exchange-correlation= VDW-DF2-B86R
                           (   1   4  26   0   2   0   0)
     Any further DFT definition will be discarded
     Please, verify this is what you really want


     Subspace diagonalization in iterative solution of the eigenvalue problem:
     a serial algorithm will be used


     G-vector sticks info
     --------------------
     sticks:   dense  smooth     PW     G-vecs:    dense   smooth      PW
     Sum        1573     769    223               478405   168563   26075

     Using Slab Decomposition



     bravais-lattice index     =            4
     lattice parameter (alat)  =       5.9715  a.u.
     unit-cell volume          =    1750.7440 (a.u.)^3
     number of atoms/cell      =           12
     number of atomic types    =            2
     number of electrons       =       104.00
     number of Kohn-Sham states=           62
     kinetic-energy cutoff     =      80.0000  Ry
     charge density cutoff     =     640.0000  Ry
     scf convergence threshold =      1.0E-08
     mixing beta               =       0.2000
     number of iterations used =            8  local-TF  mixing
     Exchange-correlation= VDW-DF2-B86R
                           (   1   4  26   0   2   0   0)

     celldm(1)=   5.971535  celldm(2)=   0.000000  celldm(3)=   9.493671
     celldm(4)=   0.000000  celldm(5)=   0.000000  celldm(6)=   0.000000

     crystal axes: (cart. coord. in units of alat)
               a(1) = (   1.000000   0.000000   0.000000 )  
               a(2) = (  -0.500000   0.866025   0.000000 )  
               a(3) = (   0.000000   0.000000   9.493671 )  

     reciprocal axes: (cart. coord. in units 2 pi/alat)
               b(1) = (  1.000000  0.577350 -0.000000 )  
               b(2) = (  0.000000  1.154701  0.000000 )  
               b(3) = (  0.000000 -0.000000  0.105333 )  


     PseudoPot. # 1 for Mo read from file:
     ./pseudo/Mo.pbe-spn-kjpaw_psl.1.0.0.UPF
     MD5 check sum: 4396e0c640fcce5c25f020efccf1ab12
     Pseudo is Projector augmented-wave + core cor, Zval = 14.0
     Generated using &quot;atomic&quot; code by A. Dal Corso  v.6.3
     Shape of augmentation charge: PSQ
     Using radial grid of 1229 points,  6 beta functions with: 
                l(1) =   0
                l(2) =   0
                l(3) =   1
                l(4) =   1
                l(5) =   2
                l(6) =   2
     Q(r) pseudized with 0 coefficients 


     PseudoPot. # 2 for S  read from file:
     ./pseudo/S.pbe-n-kjpaw_psl.1.0.0.UPF
     MD5 check sum: fb45dfebcf3e72a4e1bd4a866ec2e262
     Pseudo is Projector augmented-wave + core cor, Zval =  6.0
     Generated using &quot;atomic&quot; code by A. Dal Corso  v.6.3
     Shape of augmentation charge: PSQ
     Using radial grid of 1151 points,  6 beta functions with: 
                l(1) =   0
                l(2) =   0
                l(3) =   1
                l(4) =   1
                l(5) =   2
                l(6) =   2
     Q(r) pseudized with 0 coefficients 


     atomic species   valence    mass     pseudopotential
     Mo               14.00    95.96000     Mo( 1.00)
     S                 6.00    32.06000     S ( 1.00)

      6 Sym. Ops. (no inversion) found



   Cartesian axes

     site n.     atom                  positions (alat units)
         1        S      tau(   1) = (  -0.0000005   0.5773503  -0.9967195  )
         2        Mo     tau(   2) = (   0.0000000   0.0000000  -0.4993332  )
         3        S      tau(   3) = (  -0.0000005   0.5773503  -0.0017175  )
         4        S      tau(   4) = (   0.5000003   0.2886747   0.9835827  )
         5        Mo     tau(   5) = (  -0.0000005   0.5773503   1.4818950  )
         6        S      tau(   6) = (   0.5000003   0.2886747   1.9798512  )
         7        S      tau(   7) = (   0.0000000   0.0000000   2.9586848  )
         8        Mo     tau(   8) = (   0.5000003   0.2886747   3.4569999  )
         9        S      tau(   9) = (   0.0000000   0.0000000   3.9548385  )
        10        S      tau(  10) = (  -0.0000005   0.5773503   7.2941793  )
        11        Mo     tau(  11) = (   0.0000000   0.0000000   7.7918159  )
        12        S      tau(  12) = (  -0.0000005   0.5773503   8.2889501  )

     number of k points=    30  Methfessel-Paxton smearing, width (Ry)=  0.0200
                       cart. coord. in units 2pi/alat
        k(    1) = (   0.0000000   0.0000000   0.0000000), wk =   0.0078125
        k(    2) = (   0.0000000   0.0721688   0.0000000), wk =   0.0468750
        k(    3) = (   0.0000000   0.1443376   0.0000000), wk =   0.0468750
        k(    4) = (   0.0000000   0.2165064   0.0000000), wk =   0.0468750
        k(    5) = (   0.0000000   0.2886751   0.0000000), wk =   0.0468750
        k(    6) = (   0.0000000   0.3608439   0.0000000), wk =   0.0468750
        k(    7) = (   0.0000000   0.4330127   0.0000000), wk =   0.0468750
        k(    8) = (   0.0000000   0.5051815   0.0000000), wk =   0.0468750
        k(    9) = (   0.0000000  -0.5773503   0.0000000), wk =   0.0234375
        k(   10) = (   0.0625000   0.1082532   0.0000000), wk =   0.0468750
        k(   11) = (   0.0625000   0.1804220   0.0000000), wk =   0.0937500
        k(   12) = (   0.0625000   0.2525907   0.0000000), wk =   0.0937500
        k(   13) = (   0.0625000   0.3247595   0.0000000), wk =   0.0937500
        k(   14) = (   0.0625000   0.3969283   0.0000000), wk =   0.0937500
        k(   15) = (   0.0625000   0.4690971   0.0000000), wk =   0.0937500
        k(   16) = (   0.0625000   0.5412659   0.0000000), wk =   0.0937500
        k(   17) = (   0.1250000   0.2165064   0.0000000), wk =   0.0468750
        k(   18) = (   0.1250000   0.2886751   0.0000000), wk =   0.0937500
        k(   19) = (   0.1250000   0.3608439   0.0000000), wk =   0.0937500
        k(   20) = (   0.1250000   0.4330127   0.0000000), wk =   0.0937500
        k(   21) = (   0.1250000   0.5051815   0.0000000), wk =   0.0937500
        k(   22) = (   0.1250000   0.5773503   0.0000000), wk =   0.0468750
        k(   23) = (   0.1875000   0.3247595   0.0000000), wk =   0.0468750
        k(   24) = (   0.1875000   0.3969283   0.0000000), wk =   0.0937500
        k(   25) = (   0.1875000   0.4690971   0.0000000), wk =   0.0937500
        k(   26) = (   0.1875000   0.5412659   0.0000000), wk =   0.0937500
        k(   27) = (   0.2500000   0.4330127   0.0000000), wk =   0.0468750
        k(   28) = (   0.2500000   0.5051815   0.0000000), wk =   0.0937500
        k(   29) = (   0.2500000   0.5773503   0.0000000), wk =   0.0468750
        k(   30) = (   0.3125000   0.5412659   0.0000000), wk =   0.0468750

     Dense  grid:   478405 G-vectors     FFT dimensions: (  50,  50, 480)

     Smooth grid:   168563 G-vectors     FFT dimensions: (  36,  36, 324)

     Estimated max dynamical RAM per process >       2.35 GB

     Initial potential from superposition of free atoms

     starting charge     103.9962, renormalised to     104.0000

     negative rho (up, down):  1.790E-05 0.000E+00


     %%%%%%%%%%%%%%%%%%%%%%%%%%%%%%%%%%%%%%%%%%%%%%%%%%%%%%%%%%%%%%%%%%%%%%%%
     %                                                                      %
     % You are using vdW-DF, which was implemented by the Thonhauser group. %
     % Please cite the following two papers that made this development      %
     % possible and the two reviews that describe the various versions:     %
     %                                                                      %
     %   T. Thonhauser et al., PRL 115, 136402 (2015).                      %
     %   T. Thonhauser et al., PRB 76, 125112 (2007).                       %
     %   K. Berland et al., Rep. Prog. Phys. 78, 066501 (2015).             %
     %   D.C. Langreth et al., J. Phys.: Condens. Matter 21, 084203 (2009). %
     %                                                                      %
     % If you are calculating stress with vdW-DF, please also cite:         %
     %                                                                      %
     %   R. Sabatini et al., J. Phys.: Condens. Matter 24, 424209 (2012).   %
     %                                                                      %
     %%%%%%%%%%%%%%%%%%%%%%%%%%%%%%%%%%%%%%%%%%%%%%%%%%%%%%%%%%%%%%%%%%%%%%%%

     %%%%%%%%%%%%%%%%%%%%%%%%%%%%%%%%%%%%%%%%%%%%%%%%%%%%%%%%%%%%%%%%%%%%%%%%
     %                                                                      %
     %  vdW-DF NEWS:                                                        %
     %                                                                      %
     %  * vdW-DF3 is now available. DOI: 10.1021/acs.jctc.0c00471           %
     %    use with input_dft = 'vdW-DF3-opt1' or 'vdW-DF3-opt2'             %
     %                                                                      %
     %  * Unscreened and range-separated hybrid vdW-DF-cx functionals       %
     %    DOI: 10.1063/1.4986522 and 10.1088/1361-648X/ac2ad2               %
     %    use with input_dft = 'vdW-DF-cx0'    and 'vdW-DF-ahcx'            %
     %  * Unscreened and range-separated hybrid vdW-DF2-b86r functionals    %
     %    DOI: 10.1063/1.4986522 and DOI: 10.1103/PhysRevX.12.041003        %
     %    use with input_dft = 'vdW-DF2-br0' and 'vdW-DF2-ahbr'             %
     %                                                                      %
     %%%%%%%%%%%%%%%%%%%%%%%%%%%%%%%%%%%%%%%%%%%%%%%%%%%%%%%%%%%%%%%%%%%%%%%%


     Starting wfcs are   72 randomized atomic wfcs
     Checking if some PAW data can be deallocated... 

     total cpu time spent up to now is       87.0 secs

     Self-consistent Calculation

     iteration #  1     ecut=    80.00 Ry     beta= 0.20
     Davidson diagonalization with overlap
     ethr =  1.00E-02,  avg # of iterations =  6.8

     total cpu time spent up to now is      261.3 secs

     total energy              =   -1957.66094158 Ry
     estimated scf accuracy    <      27.01956646 Ry

     iteration #  2     ecut=    80.00 Ry     beta= 0.20
     Davidson diagonalization with overlap
     ethr =  1.00E-02,  avg # of iterations =  1.0

     total cpu time spent up to now is      362.7 secs

     total energy              =   -1955.51749482 Ry
     estimated scf accuracy    <      17.34699816 Ry

     iteration #  3     ecut=    80.00 Ry     beta= 0.20
     Davidson diagonalization with overlap
     ethr =  1.00E-02,  avg # of iterations =  2.9

     total cpu time spent up to now is      482.9 secs

     total energy              =   -1957.31205089 Ry
     estimated scf accuracy    <       5.94181926 Ry

     iteration #  4     ecut=    80.00 Ry     beta= 0.20
     Davidson diagonalization with overlap
     ethr =  5.71E-03,  avg # of iterations =  1.1

     total cpu time spent up to now is      587.2 secs

     total energy              =   -1957.28416628 Ry
     estimated scf accuracy    <       2.77295815 Ry

     iteration #  5     ecut=    80.00 Ry     beta= 0.20
     Davidson diagonalization with overlap
     ethr =  2.67E-03,  avg # of iterations =  1.2

     total cpu time spent up to now is      692.1 secs

     total energy              =   -1956.85802192 Ry
     estimated scf accuracy    <       2.14061220 Ry

     iteration #  6     ecut=    80.00 Ry     beta= 0.20
     Davidson diagonalization with overlap
     ethr =  2.06E-03,  avg # of iterations =  2.0

     total cpu time spent up to now is      809.7 secs

     total energy              =   -1957.07519519 Ry
     estimated scf accuracy    <       0.06795723 Ry

     iteration #  7     ecut=    80.00 Ry     beta= 0.20
     Davidson diagonalization with overlap
     ethr =  6.53E-05,  avg # of iterations =  9.8

     total cpu time spent up to now is      980.3 secs

     total energy              =   -1957.05731980 Ry
     estimated scf accuracy    <       0.92109881 Ry

     iteration #  8     ecut=    80.00 Ry     beta= 0.20
     Davidson diagonalization with overlap
     ethr =  6.53E-05,  avg # of iterations =  3.0

     total cpu time spent up to now is     1103.9 secs

     total energy              =   -1957.04504139 Ry
     estimated scf accuracy    <       0.18420475 Ry

     iteration #  9     ecut=    80.00 Ry     beta= 0.20
     Davidson diagonalization with overlap
     ethr =  6.53E-05,  avg # of iterations =  5.3

     total cpu time spent up to now is     1235.1 secs

     total energy              =   -1957.05878976 Ry
     estimated scf accuracy    <       0.02571464 Ry

     iteration # 10     ecut=    80.00 Ry     beta= 0.20
     Davidson diagonalization with overlap
     c_bands:  1 eigenvalues not converged
     ethr =  2.47E-05,  avg # of iterations =  5.7

     total cpu time spent up to now is     1366.7 secs

     total energy              =   -1957.03982029 Ry
     estimated scf accuracy    <       0.12866847 Ry

     iteration # 11     ecut=    80.00 Ry     beta= 0.20
     Davidson diagonalization with overlap
     ethr =  2.47E-05,  avg # of iterations =  6.8

     total cpu time spent up to now is     1510.5 secs

     total energy              =   -1957.06826723 Ry
     estimated scf accuracy    <       0.10079498 Ry

     iteration # 12     ecut=    80.00 Ry     beta= 0.20
     Davidson diagonalization with overlap
     ethr =  2.47E-05,  avg # of iterations =  1.0

     total cpu time spent up to now is     1613.4 secs

     total energy              =   -1957.05630153 Ry
     estimated scf accuracy    <       0.07474198 Ry

     iteration # 13     ecut=    80.00 Ry     beta= 0.20
     Davidson diagonalization with overlap
     ethr =  2.47E-05,  avg # of iterations =  4.5

     total cpu time spent up to now is     1737.0 secs

     total energy              =   -1957.06213736 Ry
     estimated scf accuracy    <       0.00271346 Ry

     iteration # 14     ecut=    80.00 Ry     beta= 0.20
     Davidson diagonalization with overlap
     ethr =  2.61E-06,  avg # of iterations =  8.3

     total cpu time spent up to now is     1862.7 secs

     total energy              =   -1957.06200859 Ry
     estimated scf accuracy    <       0.00241666 Ry

     iteration # 15     ecut=    80.00 Ry     beta= 0.20
     Davidson diagonalization with overlap
     ethr =  2.32E-06,  avg # of iterations =  2.4

     total cpu time spent up to now is     1977.6 secs

     total energy              =   -1957.06213756 Ry
     estimated scf accuracy    <       0.00101427 Ry

     iteration # 16     ecut=    80.00 Ry     beta= 0.20
     Davidson diagonalization with overlap
     ethr =  9.75E-07,  avg # of iterations =  1.8

     total cpu time spent up to now is     2087.2 secs

     total energy              =   -1957.06209838 Ry
     estimated scf accuracy    <       0.00058569 Ry

     iteration # 17     ecut=    80.00 Ry     beta= 0.20
     Davidson diagonalization with overlap
     ethr =  5.63E-07,  avg # of iterations =  2.2

     negative rho (up, down):  1.522E-05 0.000E+00

     total cpu time spent up to now is     2205.4 secs

     total energy              =   -1957.06219898 Ry
     estimated scf accuracy    <       0.00053349 Ry

     iteration # 18     ecut=    80.00 Ry     beta= 0.20
     Davidson diagonalization with overlap
     ethr =  5.13E-07,  avg # of iterations =  1.2

     negative rho (up, down):  1.057E-06 0.000E+00

     total cpu time spent up to now is     2308.9 secs

     total energy              =   -1957.06220164 Ry
     estimated scf accuracy    <       0.00028192 Ry

     iteration # 19     ecut=    80.00 Ry     beta= 0.20
     Davidson diagonalization with overlap
     ethr =  2.71E-07,  avg # of iterations =  1.0

     negative rho (up, down):  1.325E-03 0.000E+00

     total cpu time spent up to now is     2409.9 secs

     total energy              =   -1957.06219711 Ry
     estimated scf accuracy    <       0.00017026 Ry

     iteration # 20     ecut=    80.00 Ry     beta= 0.20
     Davidson diagonalization with overlap
     ethr =  1.64E-07,  avg # of iterations =  3.7

     negative rho (up, down):  1.616E-03 0.000E+00

     total cpu time spent up to now is     2531.2 secs

     total energy              =   -1957.06220054 Ry
     estimated scf accuracy    <       0.00019395 Ry

     iteration # 21     ecut=    80.00 Ry     beta= 0.20
     Davidson diagonalization with overlap
     ethr =  1.64E-07,  avg # of iterations =  1.3

     negative rho (up, down):  1.507E-03 0.000E+00

     total cpu time spent up to now is     2635.9 secs

     total energy              =   -1957.06218216 Ry
     estimated scf accuracy    <       0.00009889 Ry

     iteration # 22     ecut=    80.00 Ry     beta= 0.20
     Davidson diagonalization with overlap
     ethr =  9.51E-08,  avg # of iterations =  4.5

     negative rho (up, down):  1.554E-03 0.000E+00

     total cpu time spent up to now is     2761.8 secs

     total energy              =   -1957.06219149 Ry
     estimated scf accuracy    <       0.00012504 Ry

     iteration # 23     ecut=    80.00 Ry     beta= 0.20
     Davidson diagonalization with overlap
     ethr =  9.51E-08,  avg # of iterations =  1.7

     negative rho (up, down):  1.667E-03 0.000E+00

     total cpu time spent up to now is     2868.5 secs

     total energy              =   -1957.06219277 Ry
     estimated scf accuracy    <       0.00007220 Ry

     iteration # 24     ecut=    80.00 Ry     beta= 0.20
     Davidson diagonalization with overlap
     ethr =  6.94E-08,  avg # of iterations =  1.0

     negative rho (up, down):  1.515E-03 0.000E+00

     total cpu time spent up to now is     2975.6 secs

     total energy              =   -1957.06218663 Ry
     estimated scf accuracy    <       0.00005730 Ry

     iteration # 25     ecut=    80.00 Ry     beta= 0.20
     Davidson diagonalization with overlap
     ethr =  5.51E-08,  avg # of iterations =  1.0

     negative rho (up, down):  6.889E-04 0.000E+00

     total cpu time spent up to now is     3079.5 secs

     total energy              =   -1957.06217436 Ry
     estimated scf accuracy    <       0.00004300 Ry

     iteration # 26     ecut=    80.00 Ry     beta= 0.20
     Davidson diagonalization with overlap
     ethr =  4.13E-08,  avg # of iterations =  6.1

     negative rho (up, down):  3.879E-04 0.000E+00

     total cpu time spent up to now is     3216.9 secs

     total energy              =   -1957.06216476 Ry
     estimated scf accuracy    <       0.00009997 Ry

     iteration # 27     ecut=    80.00 Ry     beta= 0.20
     Davidson diagonalization with overlap
     ethr =  4.13E-08,  avg # of iterations =  3.0

     negative rho (up, down):  8.970E-05 0.000E+00

     total cpu time spent up to now is     3340.9 secs

     total energy              =   -1957.06217461 Ry
     estimated scf accuracy    <       0.00000768 Ry

     iteration # 28     ecut=    80.00 Ry     beta= 0.20
     Davidson diagonalization with overlap
     ethr =  7.39E-09,  avg # of iterations =  3.3

     negative rho (up, down):  4.391E-06 0.000E+00

     total cpu time spent up to now is     3466.1 secs

     total energy              =   -1957.06217865 Ry
     estimated scf accuracy    <       0.00001551 Ry

     iteration # 29     ecut=    80.00 Ry     beta= 0.20
     Davidson diagonalization with overlap
     ethr =  7.39E-09,  avg # of iterations =  2.2

     negative rho (up, down):  1.229E-06 0.000E+00

     total cpu time spent up to now is     3585.9 secs

     total energy              =   -1957.06217892 Ry
     estimated scf accuracy    <       0.00000336 Ry

     iteration # 30     ecut=    80.00 Ry     beta= 0.20
     Davidson diagonalization with overlap
     ethr =  3.23E-09,  avg # of iterations =  5.0

     negative rho (up, down):  2.106E-07 0.000E+00

     total cpu time spent up to now is     3714.3 secs

     total energy              =   -1957.06217899 Ry
     estimated scf accuracy    <       0.00000249 Ry

     iteration # 31     ecut=    80.00 Ry     beta= 0.20
     Davidson diagonalization with overlap
     ethr =  2.40E-09,  avg # of iterations =  3.0

     negative rho (up, down):  2.195E-07 0.000E+00

     total cpu time spent up to now is     3835.6 secs

     total energy              =   -1957.06217912 Ry
     estimated scf accuracy    <       0.00000216 Ry

     iteration # 32     ecut=    80.00 Ry     beta= 0.20
     Davidson diagonalization with overlap
     ethr =  2.07E-09,  avg # of iterations =  1.2

     negative rho (up, down):  4.892E-07 0.000E+00

     total cpu time spent up to now is     3940.4 secs

     total energy              =   -1957.06217941 Ry
     estimated scf accuracy    <       0.00000052 Ry

     iteration # 33     ecut=    80.00 Ry     beta= 0.20
     Davidson diagonalization with overlap
     ethr =  5.00E-10,  avg # of iterations =  3.3

     negative rho (up, down):  1.072E-05 0.000E+00

     total cpu time spent up to now is     4062.1 secs

     total energy              =   -1957.06217867 Ry
     estimated scf accuracy    <       0.00000041 Ry

     iteration # 34     ecut=    80.00 Ry     beta= 0.20
     Davidson diagonalization with overlap
     ethr =  3.92E-10,  avg # of iterations =  2.5

     negative rho (up, down):  1.706E-05 0.000E+00

     total cpu time spent up to now is     4186.1 secs

     total energy              =   -1957.06217811 Ry
     estimated scf accuracy    <       0.00000032 Ry

     iteration # 35     ecut=    80.00 Ry     beta= 0.20
     Davidson diagonalization with overlap
     ethr =  3.08E-10,  avg # of iterations =  1.4

     negative rho (up, down):  2.463E-05 0.000E+00

     total cpu time spent up to now is     4295.8 secs

     total energy              =   -1957.06217740 Ry
     estimated scf accuracy    <       0.00000031 Ry

     iteration # 36     ecut=    80.00 Ry     beta= 0.20
     Davidson diagonalization with overlap
     ethr =  2.97E-10,  avg # of iterations =  2.0

     negative rho (up, down):  2.253E-05 0.000E+00

     total cpu time spent up to now is     4413.2 secs

     total energy              =   -1957.06217758 Ry
     estimated scf accuracy    <       0.00000007 Ry

     iteration # 37     ecut=    80.00 Ry     beta= 0.20
     Davidson diagonalization with overlap
     ethr =  7.17E-11,  avg # of iterations =  2.2

     negative rho (up, down):  2.167E-05 0.000E+00

     total cpu time spent up to now is     4525.1 secs

     total energy              =   -1957.06217763 Ry
     estimated scf accuracy    <       0.00000005 Ry

     iteration # 38     ecut=    80.00 Ry     beta= 0.20
     Davidson diagonalization with overlap
     ethr =  5.20E-11,  avg # of iterations =  2.2

     negative rho (up, down):  2.164E-05 0.000E+00

     total cpu time spent up to now is     4640.3 secs

     total energy              =   -1957.06217762 Ry
     estimated scf accuracy    <       0.00000002 Ry

     iteration # 39     ecut=    80.00 Ry     beta= 0.20
     Davidson diagonalization with overlap
     ethr =  2.09E-11,  avg # of iterations =  2.3

     negative rho (up, down):  1.803E-05 0.000E+00

     total cpu time spent up to now is     4756.3 secs

     total energy              =   -1957.06217774 Ry
     estimated scf accuracy    <       0.00000001 Ry

     iteration # 40     ecut=    80.00 Ry     beta= 0.20
     Davidson diagonalization with overlap
     ethr =  1.43E-11,  avg # of iterations =  4.6

     negative rho (up, down):  1.957E-05 0.000E+00

     total cpu time spent up to now is     4890.8 secs

     total energy              =   -1957.06217756 Ry
     estimated scf accuracy    <       0.00000001 Ry

     iteration # 41     ecut=    80.00 Ry     beta= 0.20
     Davidson diagonalization with overlap
     ethr =  1.20E-11,  avg # of iterations =  1.9

     negative rho (up, down):  1.910E-05 0.000E+00

     total cpu time spent up to now is     5007.6 secs

     End of self-consistent calculation

          k = 0.0000 0.0000 0.0000 ( 21311 PWs)   bands (ev):

   -53.7073 -53.6543 -53.2698 -53.2689 -27.8819 -27.8321 -27.6436 -27.6436
   -27.5889 -27.5889 -27.4757 -27.4460 -27.2609 -27.2609 -27.2583 -27.2583
    -8.0170  -7.0410  -6.9134  -6.8195  -6.8195  -6.4359  -5.9533  -5.7706
    -5.5744  -3.3478   1.1952   1.6164   1.9181   3.3100   4.5707   4.5707
     4.6249   4.6249   4.6634   4.6635   4.7359   4.8242   4.8242   5.5537
     5.6848   5.6848   5.7378   5.7378   5.8928   5.8928   6.2080   6.2081
     6.2278   6.7696   7.2681   7.6323   7.9279   7.9279   9.9180   9.9180
     9.9805   9.9806  10.1290  10.1371  10.1941  10.1994

          k = 0.0000 0.0722 0.0000 ( 21283 PWs)   bands (ev):

   -53.7058 -53.6528 -53.2682 -53.2673 -27.8788 -27.8290 -27.6592 -27.6472
   -27.6045 -27.5924 -27.4725 -27.4429 -27.2771 -27.2744 -27.2646 -27.2619
    -8.0407  -6.9816  -6.8555  -6.8366  -6.7899  -6.3828  -5.9132  -5.7430
    -5.5504  -3.3304   1.2636   1.6851   1.9934   3.3107   4.4354   4.4892
     4.5198   4.6122   4.6330   4.6868   4.7002   4.7041   4.8917   5.2269
     5.5877   5.6414   5.6667   5.7996   5.9698   5.9891   6.1247   6.1979
     6.3969   6.7840   7.2527   7.5623   7.6911   7.8824   9.8424   9.8976
     9.9773  10.0018  10.0453  10.0566  10.0954  10.1418

          k = 0.0000 0.1443 0.0000 ( 21263 PWs)   bands (ev):

   -53.7013 -53.6483 -53.2636 -53.2627 -27.8702 -27.8204 -27.7032 -27.6572
   -27.6485 -27.6025 -27.4634 -27.4339 -27.3229 -27.3200 -27.2750 -27.2723
    -8.1111  -6.8846  -6.8086  -6.7068  -6.6730  -6.2294  -5.8056  -5.6626
    -5.4806  -3.2824   1.4536   1.8717   2.1970   3.3025   4.0858   4.1373
     4.2180   4.3036   4.4058   4.7580   4.7922   4.8121   4.8670   5.0787
     5.3366   5.3920   5.4159   5.8734   5.9186   6.1500   6.1841   6.1963
     6.5862   6.8036   7.1396   7.1783   7.3469   7.7865   9.5751   9.6944
     9.7706   9.8628   9.8642   9.9625  10.0249  10.2852

          k = 0.0000 0.2165 0.0000 ( 21233 PWs)   bands (ev):

   -53.6947 -53.6417 -53.2568 -53.2559 -27.8572 -27.8074 -27.7686 -27.7139
   -27.6722 -27.6175 -27.4498 -27.4206 -27.3907 -27.3877 -27.2906 -27.2878
    -8.2189  -6.9550  -6.5496  -6.5276  -6.4104  -5.9930  -5.6530  -5.5375
    -5.3722  -3.2140   1.7091   2.1053   2.4402   3.2284   3.6545   3.7022
     3.8507   3.9691   4.0767   4.2630   4.8967   5.0101   5.0639   5.0903
     5.1419   5.1826   5.2732   5.7584   5.7959   6.0378   6.1587   6.4527
     6.5582   6.6295   6.8402   6.9874   7.1372   7.7310   9.2206   9.5201
     9.6451   9.7483   9.7507   9.9512  10.0293  10.3972

          k = 0.0000 0.2887 0.0000 ( 21197 PWs)   bands (ev):

   -53.6869 -53.6338 -53.2487 -53.2478 -27.8449 -27.8419 -27.7921 -27.7902
   -27.6898 -27.6351 -27.4701 -27.4667 -27.4335 -27.4047 -27.3089 -27.3059
    -8.3425  -7.0360  -6.3463  -6.1881  -6.0719  -5.7021  -5.4694  -5.3806
    -5.2369  -3.1385   1.9004   2.2203   2.5279   2.9893   3.2689   3.3717
     3.4672   3.6815   3.7806   3.9440   4.6823   4.7399   4.9625   4.9677
     5.1463   5.4109   5.4713   5.5791   5.8363   5.9601   6.0033   6.1553
     6.3469   6.4514   6.9026   7.0244   7.3031   7.8023   9.0944   9.4567
     9.4673   9.5597   9.9010  10.0657  10.2408  10.3058

          k = 0.0000 0.3608 0.0000 ( 21187 PWs)   bands (ev):

   -53.6790 -53.6260 -53.2406 -53.2397 -27.9202 -27.8655 -27.8265 -27.7767
   -27.7073 -27.6526 -27.5483 -27.5447 -27.4174 -27.3888 -27.3271 -27.3240
    -8.4598  -7.1148  -6.1608  -5.8069  -5.7019  -5.3966  -5.2640  -5.2073
    -5.0917  -3.0680   1.8520   2.0445   2.3800   2.6525   2.9110   3.0976
     3.2362   3.3985   3.5701   3.8056   4.3940   4.4530   4.8373   4.9042
     4.9661   5.3520   5.6379   5.7312   5.7998   5.8424   6.1048   6.1742
     6.2473   6.4473   6.8219   7.5078   7.5181   8.0704   9.1978   9.3515
     9.4417   9.5430   9.9723  10.0594  10.1639  10.4011

          k = 0.0000 0.4330 0.0000 ( 21140 PWs)   bands (ev):

   -53.6723 -53.6193 -53.2337 -53.2328 -27.9835 -27.9288 -27.8134 -27.7636
   -27.7222 -27.6674 -27.6139 -27.6101 -27.4036 -27.3753 -27.3425 -27.3393
    -8.5539  -7.1800  -6.0239  -5.4451  -5.3557  -5.1318  -5.0679  -5.0291
    -4.9569  -3.0106   1.6107   1.7208   2.1838   2.3413   2.5626   2.7033
     3.1338   3.2122   3.3118   3.6414   4.1734   4.2332   4.7032   4.9004
     4.9287   5.1866   5.4786   5.8441   5.9873   6.0694   6.1449   6.2675
     6.5804   6.7246   6.8922   7.6874   7.8607   8.5838   9.3434   9.4159
     9.4330   9.6311   9.7964  10.0215  10.1636  10.7793

          k = 0.0000 0.5052 0.0000 ( 21078 PWs)   bands (ev):

   -53.6678 -53.6148 -53.2291 -53.2282 -28.0254 -27.9707 -27.8046 -27.7548
   -27.7320 -27.6773 -27.6573 -27.6534 -27.3944 -27.3662 -27.3528 -27.3495
    -8.6141  -7.2228  -5.9453  -5.1748  -5.1023  -4.9754  -4.9251  -4.8781
    -4.8466  -2.9725   1.3788   1.4569   2.0406   2.1272   2.3158   2.4165
     2.8968   3.0401   3.1955   3.4909   4.0357   4.0960   4.5744   4.8890
     5.0060   5.1077   5.3677   5.9529   6.1431   6.2384   6.3335   6.4527
     6.6267   7.0699   7.2278   7.7459   8.0678   9.2114   9.3906   9.4509
     9.4726   9.7248   9.9010   9.9169  10.2768  10.4011

          k = 0.0000-0.5774 0.0000 ( 21006 PWs)   bands (ev):

   -53.6663 -53.6133 -53.2275 -53.2266 -28.0400 -27.9853 -27.8016 -27.7518
   -27.7355 -27.6808 -27.6725 -27.6685 -27.3912 -27.3630 -27.3564 -27.3530
    -8.6348  -7.2377  -5.9203  -5.0721  -5.0079  -4.9274  -4.8768  -4.8224
    -4.7932  -2.9589   1.2861   1.3573   1.9881   2.0530   2.2270   2.3124
     2.7791   2.9910   3.1435   3.4311   3.9890   4.0494   4.5304   4.8728
     5.0298   5.1116   5.3249   6.0191   6.1938   6.2945   6.4427   6.5294
     6.5906   7.3547   7.3689   7.6683   8.1396   9.4187   9.4329   9.4750
     9.6832   9.8677   9.8779   9.9592  10.0299  10.3318

          k = 0.0625 0.1083 0.0000 ( 21269 PWs)   bands (ev):

   -53.7028 -53.6498 -53.2651 -53.2642 -27.8730 -27.8232 -27.6885 -27.6544
   -27.6338 -27.5997 -27.4664 -27.4368 -27.3076 -27.3048 -27.2721 -27.2694
    -8.0876  -6.8726  -6.8653  -6.7476  -6.7177  -6.2795  -5.8396  -5.6889
    -5.5035  -3.2977   1.3933   1.8134   2.1341   3.3086   4.1954   4.2479
     4.3187   4.4014   4.4966   4.7302   4.7518   4.8058   4.9123   5.0179
     5.3727   5.4240   5.5243   5.9031   5.9457   6.0889   6.1678   6.2099
     6.5597   6.8019   7.1924   7.3299   7.4183   7.7970   9.6932   9.7152
     9.7899   9.8579   9.9303  10.0112  10.0478  10.2304

          k = 0.0625 0.1804 0.0000 ( 21194 PWs)   bands (ev):

   -53.6972 -53.6442 -53.2594 -53.2585 -27.8622 -27.8124 -27.7420 -27.6873
   -27.6681 -27.6134 -27.4550 -27.4257 -27.3631 -27.3602 -27.2864 -27.2836
    -8.1754  -6.9401  -6.6437  -6.5945  -6.5141  -6.0845  -5.7107  -5.5860
    -5.4142  -3.2393   1.6203   2.0298   2.3677   3.2783   3.8131   3.8616
     4.0208   4.0937   4.1954   4.4793   4.7412   4.9675   5.0018   5.0278
     5.0579   5.2120   5.4105   5.6694   5.9632   6.2131   6.2642   6.3157
     6.6108   6.7692   6.9757   6.9842   7.1834   7.7056   9.3203   9.5448
     9.6453   9.7211   9.7910   9.8710   9.9373  10.4348

          k = 0.0625 0.2526 0.0000 ( 21202 PWs)   bands (ev):

   -53.6900 -53.6370 -53.2519 -53.2510 -27.8480 -27.8112 -27.7982 -27.7565
   -27.6861 -27.6313 -27.4408 -27.4343 -27.4318 -27.4110 -27.3050 -27.3021
    -8.2871  -7.0267  -6.4097  -6.3300  -6.2110  -5.8204  -5.5442  -5.4446
    -5.2917  -3.1668   1.8576   2.2224   2.5553   3.1269   3.4290   3.4889
     3.6528   3.8383   3.9171   4.0578   4.6295   4.6684   4.7178   5.1284
     5.2358   5.2870   5.3222   5.6699   5.8572   6.0621   6.1975   6.2817
     6.4785   6.6054   6.8325   6.9498   7.2047   7.7334   9.0699   9.3722
     9.5698   9.6253   9.7346   9.9437  10.0419  10.3863

          k = 0.0625 0.3248 0.0000 ( 21194 PWs)   bands (ev):

   -53.6821 -53.6291 -53.2438 -53.2429 -27.8852 -27.8326 -27.8305 -27.7828
   -27.7054 -27.6507 -27.5119 -27.5084 -27.4239 -27.3952 -27.3251 -27.3221
    -8.4015  -7.1180  -6.2106  -5.9655  -5.8551  -5.5209  -5.3497  -5.2788
    -5.1502  -3.0926   1.9363   2.1892   2.5041   2.8251   3.1048   3.2649
     3.3383   3.4945   3.7109   3.8906   4.3270   4.4072   4.6591   4.8475
     5.1434   5.4718   5.5281   5.6286   5.7512   5.8963   6.0769   6.2481
     6.3226   6.3791   6.8960   7.2690   7.4212   7.9589   9.0271   9.2979
     9.5105   9.5816   9.8851  10.0596  10.2314  10.2877

          k = 0.0625 0.3969 0.0000 ( 21151 PWs)   bands (ev):

   -53.6749 -53.6218 -53.2364 -53.2354 -27.9529 -27.8982 -27.8184 -27.7686
   -27.7232 -27.6685 -27.5821 -27.5784 -27.4089 -27.3805 -27.3436 -27.3404
    -8.5006  -7.2004  -6.0462  -5.5908  -5.4940  -5.2328  -5.1442  -5.1031
    -5.0085  -3.0271   1.7715   1.9152   2.3102   2.4993   2.7314   2.8792
     3.2077   3.3644   3.4578   3.7473   4.1286   4.2105   4.6304   4.7088
     5.0204   5.3877   5.5997   5.6163   5.7004   5.8145   6.2351   6.2663
     6.3376   6.7258   6.8587   7.5847   7.7060   8.4024   9.1429   9.3352
     9.5464   9.6446   9.8826   9.9644  10.2175  10.4467

          k = 0.0625 0.4691 0.0000 ( 21105 PWs)   bands (ev):

   -53.6693 -53.6163 -53.2306 -53.2297 -28.0042 -27.9495 -27.8075 -27.7577
   -27.7368 -27.6821 -27.6353 -27.6315 -27.3974 -27.3692 -27.3578 -27.3545
    -8.5725  -7.2622  -5.9384  -5.2696  -5.1898  -5.0220  -4.9715  -4.9293
    -4.8853  -2.9777   1.5281   1.6190   2.1317   2.2379   2.4049   2.5088
     3.0791   3.1281   3.2770   3.5831   4.0195   4.0873   4.4638   4.7657
     5.0170   5.2048   5.4447   5.7407   5.8177   5.9084   6.4280   6.4978
     6.7245   6.7437   7.0967   7.6782   8.0371   8.9351   9.3171   9.4199
     9.5996   9.6867   9.8041   9.9265  10.2467  10.5791

          k = 0.0625 0.5413 0.0000 ( 21084 PWs)   bands (ev):

   -53.6663 -53.6133 -53.2275 -53.2266 -28.0318 -27.9771 -27.8016 -27.7518
   -27.7442 -27.6895 -27.6639 -27.6600 -27.3912 -27.3654 -27.3631 -27.3620
    -8.6100  -7.2953  -5.8872  -5.0778  -5.0120  -4.9256  -4.8748  -4.8213
    -4.7941  -2.9505   1.3662   1.4386   2.0297   2.0957   2.2203   2.3012
     2.8747   3.0255   3.1806   3.4784   3.9745   4.0293   4.3619   4.7619
     5.0615   5.1201   5.3418   5.8337   5.9195   6.0569   6.5835   6.6344
     6.6639   7.2014   7.3090   7.5858   8.2479   9.1828   9.4195   9.4740
     9.6971   9.8445   9.8670   9.9701  10.2551  10.2950

          k = 0.1250 0.2165 0.0000 ( 21179 PWs)   bands (ev):

   -53.6911 -53.6381 -53.2531 -53.2521 -27.8502 -27.8004 -27.7972 -27.7425
   -27.6869 -27.6322 -27.4426 -27.4203 -27.4175 -27.4131 -27.3059 -27.3030
    -8.2638  -7.0362  -6.4243  -6.3780  -6.2587  -5.8614  -5.5695  -5.4664
    -5.3104  -3.1762   1.8400   2.2208   2.5693   3.1852   3.4957   3.5451
     3.7729   3.8878   4.0018   4.1854   4.4912   4.5309   4.5854   5.0729
     5.1563   5.2104   5.4975   5.5725   6.0262   6.1076   6.3105   6.3943
     6.5200   6.6728   6.7817   6.9711   7.1700   7.6966   9.0540   9.3292
     9.5732   9.5985   9.6451   9.8751   9.9042  10.4355

          k = 0.1250 0.2887 0.0000 ( 21199 PWs)   bands (ev):

   -53.6838 -53.6308 -53.2456 -53.2447 -27.8605 -27.8360 -27.8058 -27.7862
   -27.7102 -27.6555 -27.4863 -27.4829 -27.4274 -27.3986 -27.3301 -27.3270
    -8.3574  -7.1525  -6.2192  -6.0489  -5.9359  -5.5874  -5.3936  -5.3152
    -5.1803  -3.1037   1.9885   2.2870   2.6217   2.9552   3.2488   3.3666
     3.4812   3.6640   3.7977   3.9480   4.0800   4.2284   4.4532   4.6845
     5.2588   5.3010   5.3561   5.6511   5.8398   5.9913   6.2135   6.3416
     6.3915   6.5092   6.9663   7.0600   7.3774   7.9312   8.8965   9.1961
     9.5665   9.5856   9.6956   9.8971  10.0534  10.3999

          k = 0.1250 0.3608 0.0000 ( 21195 PWs)   bands (ev):

   -53.6766 -53.6236 -53.2381 -53.2372 -27.9227 -27.8680 -27.8218 -27.7720
   -27.7339 -27.6792 -27.5509 -27.5473 -27.4124 -27.3839 -27.3547 -27.3515
    -8.4406  -7.2693  -6.0320  -5.6862  -5.5849  -5.3018  -5.1946  -5.1464
    -5.0395  -3.0323   1.9311   2.1162   2.4729   2.6618   2.9299   3.0475
     3.3002   3.4417   3.6949   3.8105   3.9303   4.0948   4.4503   4.4699
     5.0469   5.2047   5.2697   5.5821   5.7342   5.8606   6.0190   6.3057
     6.3612   6.7222   7.0392   7.4235   7.5913   8.3911   8.9291   9.2493
     9.6333   9.6399   9.8100  10.0330  10.1597  10.2742

          k = 0.1250 0.4330 0.0000 ( 21113 PWs)   bands (ev):

   -53.6704 -53.6174 -53.2318 -53.2308 -27.9748 -27.9201 -27.8097 -27.7599
   -27.7541 -27.6993 -27.6049 -27.6012 -27.3997 -27.3756 -27.3723 -27.3714
    -8.5038  -7.3682  -5.8943  -5.3443  -5.2588  -5.0612  -5.0049  -4.9686
    -4.9071  -2.9716   1.7435   1.8595   2.2806   2.3925   2.5076   2.5868
     3.2329   3.3730   3.4613   3.6675   3.8606   4.0233   4.3114   4.5259
     4.9707   5.1556   5.2503   5.4553   5.5683   5.6787   6.2391   6.4448
     6.5048   6.9600   7.0833   7.6628   7.8650   8.8756   9.1267   9.4172
     9.7220   9.7408   9.7576   9.8754  10.2530  10.3767

          k = 0.1250 0.5052 0.0000 ( 21081 PWs)   bands (ev):

   -53.6663 -53.6133 -53.2275 -53.2266 -28.0094 -27.9547 -27.8016 -27.7676
   -27.7518 -27.7128 -27.6407 -27.6369 -27.3913 -27.3895 -27.3862 -27.3631
    -8.5426  -7.4343  -5.8147  -5.0911  -5.0218  -4.9217  -4.8705  -4.8190
    -4.7955  -2.9302   1.5765   1.6575   2.1383   2.2043   2.2116   2.2731
     3.0993   3.1707   3.2959   3.5687   3.8943   4.0018   4.1263   4.4949
     5.0552   5.1668   5.2417   5.3090   5.4017   5.8097   6.6305   6.6717
     6.7231   6.9208   7.2647   7.6638   8.1701   8.9708   9.3262   9.4674
     9.7777   9.7945   9.8963  10.0016  10.2372  10.5086

          k = 0.1250 0.5774 0.0000 ( 21108 PWs)   bands (ev):

   -53.6648 -53.6118 -53.2260 -53.2251 -28.0215 -27.9668 -27.7987 -27.7723
   -27.7490 -27.7176 -27.6533 -27.6494 -27.3946 -27.3911 -27.3882 -27.3601
    -8.5556  -7.4575  -5.7891  -4.9954  -4.9341  -4.8764  -4.8274  -4.7656
    -4.7418  -2.9154   1.5120   1.5814   2.0863   2.1022   2.1440   2.1608
     3.0197   3.0867   3.2321   3.5466   3.9310   3.9782   4.0487   4.4737
     5.0979   5.1196   5.2289   5.2996   5.3515   5.9226   6.7244   6.7944
     6.8644   7.0068   7.3527   7.5317   8.3118   8.8993   9.3863   9.4377
     9.7803   9.9797  10.0304  10.1029  10.2385  10.3224

          k = 0.1875 0.3248 0.0000 ( 21195 PWs)   bands (ev):

   -53.6772 -53.6242 -53.2387 -53.2378 -27.9092 -27.8545 -27.8229 -27.7731
   -27.7407 -27.6859 -27.5368 -27.5332 -27.4137 -27.3851 -27.3617 -27.3585
    -8.4131  -7.3052  -6.0220  -5.7194  -5.6165  -5.3261  -5.2121  -5.1606
    -5.0498  -3.0330   1.9991   2.2055   2.5558   2.7372   3.0559   3.1352
     3.3442   3.4699   3.6588   3.8523   3.9099   4.0494   4.3456   4.3945
     4.9981   5.0345   5.1071   5.4883   5.7817   5.9168   6.0675   6.3119
     6.3711   6.7391   7.1298   7.3241   7.5770   8.4011   8.8473   9.2038
     9.6211   9.6615   9.7502   9.9334  10.1378  10.2358

          k = 0.1875 0.3969 0.0000 ( 21153 PWs)   bands (ev):

   -53.6710 -53.6180 -53.2324 -53.2314 -27.9511 -27.8964 -27.8109 -27.7715
   -27.7611 -27.7168 -27.5803 -27.5766 -27.4010 -27.3937 -27.3903 -27.3727
    -8.4467  -7.4569  -5.8589  -5.3854  -5.2967  -5.0841  -5.0222  -4.9892
    -4.9165  -2.9646   1.9070   2.0506   2.4083   2.5177   2.5946   2.6415
     3.3674   3.5115   3.5988   3.7007   3.8095   3.9841   4.3994   4.4184
     4.6983   4.7355   4.8208   5.2761   5.6643   5.7269   5.9526   6.4150
     6.4819   6.9652   7.2790   7.6407   7.7650   8.8621   8.9973   9.3792
     9.7427   9.7791   9.8171   9.8608  10.0880  10.2539

          k = 0.1875 0.4691 0.0000 ( 21101 PWs)   bands (ev):

   -53.6663 -53.6133 -53.2275 -53.2266 -27.9816 -27.9268 -27.8016 -27.7964
   -27.7518 -27.7417 -27.6119 -27.6082 -27.4196 -27.4160 -27.3912 -27.3631
    -8.4594  -7.5811  -5.7497  -5.1040  -5.0316  -4.9185  -4.8665  -4.8184
    -4.7946  -2.9097   1.8166   1.9218   2.1917   2.2216   2.2984   2.3423
     3.2862   3.4306   3.5005   3.5452   3.7991   3.9871   4.2382   4.2724
     4.5370   4.6628   4.9298   5.3178   5.3720   5.4638   6.1962   6.6155
     6.6778   7.0968   7.3969   7.7842   8.0043   8.8135   9.1962   9.4296
     9.7185   9.9320   9.9403  10.0389  10.2059  10.2847

          k = 0.1875 0.5413 0.0000 ( 21112 PWs)   bands (ev):

   -53.6637 -53.6107 -53.2249 -53.2239 -27.9975 -27.9428 -27.8103 -27.7966
   -27.7556 -27.7468 -27.6285 -27.6247 -27.4341 -27.4304 -27.3859 -27.3579
    -8.4607  -7.6522  -5.6965  -4.9386  -4.8792  -4.8352  -4.7883  -4.7213
    -4.7015  -2.8788   1.7756   1.8518   1.9772   2.0213   2.1984   2.2508
     3.1424   3.2928   3.3942   3.5031   3.8530   3.9705   4.0920   4.1742
     4.4991   4.6519   5.0818   5.1608   5.2587   5.4810   6.5550   6.8007
     6.8685   7.1203   7.4895   7.6138   8.2096   8.6965   9.2419   9.3181
     9.6223  10.0877  10.1317  10.1736  10.3006  10.3942

          k = 0.2500 0.4330 0.0000 ( 21125 PWs)   bands (ev):

   -53.6663 -53.6133 -53.2275 -53.2266 -27.9671 -27.9123 -27.8113 -27.8016
   -27.7566 -27.7518 -27.5969 -27.5932 -27.4351 -27.4315 -27.3912 -27.3631
    -8.4173  -7.6477  -5.7245  -5.1093  -5.0356  -4.9173  -4.8650  -4.8188
    -4.7934  -2.9012   1.9266   2.0507   2.1904   2.2127   2.3599   2.4073
     3.3987   3.4630   3.5594   3.6692   3.8131   4.0063   4.1858   4.2253
     4.3335   4.5451   4.7148   4.9509   5.4335   5.4897   6.0088   6.5988
     6.6618   7.1160   7.5107   7.8527   7.9323   8.7333   9.1414   9.4051
     9.6993   9.9446   9.9923  10.0476  10.1516  10.1987

          k = 0.2500 0.5052 0.0000 ( 21117 PWs)   bands (ev):

   -53.6631 -53.6101 -53.2243 -53.2233 -27.9718 -27.9171 -27.8439 -27.7954
   -27.7892 -27.7457 -27.6018 -27.5982 -27.4689 -27.4650 -27.3847 -27.3567
    -8.3656  -7.8052  -5.6423  -4.9105  -4.8515  -4.8113  -4.7657  -4.6968
    -4.6799  -2.8555   1.8849   1.9253   2.0400   2.1277   2.2853   2.3593
     3.3135   3.3351   3.4596   3.5614   3.8259   3.8994   3.9918   4.0956
     4.1615   4.3655   4.9567   4.9759   5.1575   5.2392   6.2002   6.8394
     6.8991   7.2384   7.6619   7.6691   8.1530   8.5808   9.1132   9.2127
     9.4554  10.0580  10.1004  10.1731  10.1873  10.3326

          k = 0.2500 0.5774 0.0000 ( 21116 PWs)   bands (ev):

   -53.6620 -53.6090 -53.2231 -53.2222 -27.9716 -27.9169 -27.8571 -27.8024
   -27.7933 -27.7435 -27.6016 -27.5981 -27.4826 -27.4787 -27.3824 -27.3545
    -8.3346  -7.8729  -5.6149  -4.8363  -4.7879  -4.7715  -4.7325  -4.6559
    -4.6315  -2.8389   1.7854   1.8237   2.1231   2.1701   2.2518   2.3595
     3.1624   3.3040   3.3566   3.4643   3.8313   3.8812   3.9972   4.0594
     4.1495   4.2932   4.9969   5.0372   5.0922   5.1238   6.3640   6.9663
     7.0271   7.3200   7.4279   7.6874   8.2269   8.6492   9.0337   9.0860
     9.3390   9.9784  10.1279  10.1789  10.1902  10.4918

          k = 0.3125 0.5413 0.0000 ( 21100 PWs)   bands (ev):

   -53.6614 -53.6084 -53.2225 -53.2215 -27.9506 -27.8959 -27.8856 -27.8309
   -27.7921 -27.7423 -27.5799 -27.5767 -27.5121 -27.5077 -27.3811 -27.3533
    -8.2325  -8.0086  -5.5860  -4.8001  -4.7601  -4.7454  -4.7115  -4.6330
    -4.6061  -2.8239   1.7175   1.7560   2.2544   2.3503   2.4197   2.4402
     3.1423   3.1679   3.3056   3.3918   3.6313   3.6628   3.9421   4.1648
     4.2363   4.4676   4.6756   4.9489   5.0384   5.0982   6.2461   7.0480
     7.1044   7.3340   7.4445   7.7345   8.2318   8.6934   8.9176   8.9711
     9.1988   9.8677  10.0591  10.0831  10.2020  10.5863

     the Fermi energy is     7.6139 ev

!    total energy              =   -1957.06217765 Ry
     total all-electron energy =    -38750.383022 Ry
     estimated scf accuracy    <          4.0E-09 Ry
     smearing contrib. (-TS)   =      -0.00147525 Ry
     internal energy E=F+TS    =   -1957.06070240 Ry

     The total energy is F=E-TS. E is the sum of the following terms:
     one-electron contribution =   -3596.16569781 Ry
     hartree contribution      =    1840.66002679 Ry
     xc contribution           =    -121.73150294 Ry
     ewald contribution        =    1191.11190868 Ry
     one-center paw contrib.   =   -1270.93543711 Ry

     convergence has been achieved in  41 iterations

     Writing all to output data dir ./tmp/cleave/cleave_dz027_dz7p5/mos2_cleave.save/ :
     XML data file, charge density, pseudopotentials, collected wavefunctions

     init_run     :     85.95s CPU     86.86s WALL (       1 calls)
     electrons    :   4838.26s CPU   4920.66s WALL (       1 calls)

     Called by init_run:
     wfcinit      :     41.18s CPU     41.31s WALL (       1 calls)
     potinit      :     42.51s CPU     42.72s WALL (       1 calls)
     hinit0       :      0.31s CPU      0.33s WALL (       1 calls)

     Called by electrons:
     c_bands      :   4040.93s CPU   4064.40s WALL (      41 calls)
     sum_band     :    603.82s CPU    630.81s WALL (      41 calls)
     v_of_rho     :    116.22s CPU    124.66s WALL (      42 calls)
     newd         :     77.49s CPU    101.34s WALL (      42 calls)
     PAW_pot      :     17.14s CPU     17.14s WALL (      42 calls)
     mix_rho      :     26.04s CPU     26.40s WALL (      41 calls)
     vdW_kernel   :     40.10s CPU     40.11s WALL (       1 calls)

     Called by c_bands:
     init_us_2    :     18.45s CPU     18.47s WALL (    2490 calls)
     init_us_2:cp :     18.44s CPU     18.47s WALL (    2490 calls)
     cegterg      :   3859.74s CPU   3882.99s WALL (    1230 calls)

     Called by *egterg:
     cdiaghg      :     12.38s CPU     12.40s WALL (    5056 calls)
     h_psi        :   2095.06s CPU   2104.26s WALL (    5086 calls)
     s_psi        :    630.93s CPU    631.15s WALL (    5086 calls)
     g_psi        :      9.53s CPU      9.54s WALL (    3826 calls)

     Called by h_psi:
     h_psi:calbec :    823.07s CPU    823.28s WALL (    5086 calls)
     vloc_psi     :    636.36s CPU    636.98s WALL (    5086 calls)
     add_vuspsi   :    631.28s CPU    631.42s WALL (    5086 calls)

     General routines
     calbec       :   1185.03s CPU   1185.33s WALL (    6316 calls)
     fft          :     31.26s CPU     31.27s WALL (    2644 calls)
     ffts         :     12.50s CPU     12.51s WALL (    4149 calls)
     fftw         :    582.37s CPU    582.87s WALL (  422786 calls)
     interpolate  :      0.69s CPU      0.70s WALL (      42 calls)

     Parallel routines

     PWSCF        :      1h22m CPU      1h23m WALL


   This run was terminated on:  18:11:42   9Jun2026            

=------------------------------------------------------------------------------=
   JOB DONE.
=------------------------------------------------------------------------------=
Note: The following floating-point exceptions are signalling: IEEE_UNDERFLOW_FLAG IEEE_DENORMAL
