Authorization required, but no authorization protocol specified

Authorization required, but no authorization protocol specified

Authorization required, but no authorization protocol specified

Authorization required, but no authorization protocol specified


     Program PWSCF v.7.3 starts on  9Jun2026 at  1:19:34 

     This program is part of the open-source Quantum ESPRESSO suite
     for quantum simulation of materials; please cite
         "P. Giannozzi et al., J. Phys.:Condens. Matter 21 395502 (2009);
         "P. Giannozzi et al., J. Phys.:Condens. Matter 29 465901 (2017);
         "P. Giannozzi et al., J. Chem. Phys. 152 154105 (2020);
          URL http://www.quantum-espresso.org", 
     in publications or presentations arising from this work. More details at
     http://www.quantum-espresso.org/quote

     Parallel version (MPI), running on     1 processors

     MPI processes distributed on     1 nodes
     87174 MiB available memory on the printing compute node when the environment starts

     Waiting for input...
     Reading input from standard input

     Current dimensions of program PWSCF are:
     Max number of different atomic species (ntypx) = 10
     Max number of k-points (npk) =  40000
     Max angular momentum in pseudopotentials (lmaxx) =  4
     file Mo.pbe-spn-kjpaw_psl.1.0.0.UPF: wavefunction(s)  4S 4D renormalized
     file S.pbe-n-kjpaw_psl.1.0.0.UPF: wavefunction(s)  3S 3P renormalized

     IMPORTANT: XC functional enforced from input :
     Exchange-correlation= VDW-DF2-B86R
                           (   1   4  26   0   2   0   0)
     Any further DFT definition will be discarded
     Please, verify this is what you really want


     Subspace diagonalization in iterative solution of the eigenvalue problem:
     a serial algorithm will be used


     G-vector sticks info
     --------------------
     sticks:   dense  smooth     PW     G-vecs:    dense   smooth      PW
     Sum        1573     769    223               478405   168563   26075

     Using Slab Decomposition



     bravais-lattice index     =            4
     lattice parameter (alat)  =       5.9715  a.u.
     unit-cell volume          =    1750.7440 (a.u.)^3
     number of atoms/cell      =           12
     number of atomic types    =            2
     number of electrons       =       104.00
     number of Kohn-Sham states=           62
     kinetic-energy cutoff     =      80.0000  Ry
     charge density cutoff     =     640.0000  Ry
     scf convergence threshold =      1.0E-08
     mixing beta               =       0.2000
     number of iterations used =            8  local-TF  mixing
     Exchange-correlation= VDW-DF2-B86R
                           (   1   4  26   0   2   0   0)

     celldm(1)=   5.971535  celldm(2)=   0.000000  celldm(3)=   9.493671
     celldm(4)=   0.000000  celldm(5)=   0.000000  celldm(6)=   0.000000

     crystal axes: (cart. coord. in units of alat)
               a(1) = (   1.000000   0.000000   0.000000 )  
               a(2) = (  -0.500000   0.866025   0.000000 )  
               a(3) = (   0.000000   0.000000   9.493671 )  

     reciprocal axes: (cart. coord. in units 2 pi/alat)
               b(1) = (  1.000000  0.577350 -0.000000 )  
               b(2) = (  0.000000  1.154701  0.000000 )  
               b(3) = (  0.000000 -0.000000  0.105333 )  


     PseudoPot. # 1 for Mo read from file:
     ./pseudo/Mo.pbe-spn-kjpaw_psl.1.0.0.UPF
     MD5 check sum: 4396e0c640fcce5c25f020efccf1ab12
     Pseudo is Projector augmented-wave + core cor, Zval = 14.0
     Generated using &quot;atomic&quot; code by A. Dal Corso  v.6.3
     Shape of augmentation charge: PSQ
     Using radial grid of 1229 points,  6 beta functions with: 
                l(1) =   0
                l(2) =   0
                l(3) =   1
                l(4) =   1
                l(5) =   2
                l(6) =   2
     Q(r) pseudized with 0 coefficients 


     PseudoPot. # 2 for S  read from file:
     ./pseudo/S.pbe-n-kjpaw_psl.1.0.0.UPF
     MD5 check sum: fb45dfebcf3e72a4e1bd4a866ec2e262
     Pseudo is Projector augmented-wave + core cor, Zval =  6.0
     Generated using &quot;atomic&quot; code by A. Dal Corso  v.6.3
     Shape of augmentation charge: PSQ
     Using radial grid of 1151 points,  6 beta functions with: 
                l(1) =   0
                l(2) =   0
                l(3) =   1
                l(4) =   1
                l(5) =   2
                l(6) =   2
     Q(r) pseudized with 0 coefficients 


     atomic species   valence    mass     pseudopotential
     Mo               14.00    95.96000     Mo( 1.00)
     S                 6.00    32.06000     S ( 1.00)

      6 Sym. Ops. (no inversion) found



   Cartesian axes

     site n.     atom                  positions (alat units)
         1        S      tau(   1) = (  -0.0000005   0.5773503  -0.9967195  )
         2        Mo     tau(   2) = (   0.0000000   0.0000000  -0.4993332  )
         3        S      tau(   3) = (  -0.0000005   0.5773503  -0.0017175  )
         4        S      tau(   4) = (   0.5000003   0.2886747   0.9835827  )
         5        Mo     tau(   5) = (  -0.0000005   0.5773503   1.4818950  )
         6        S      tau(   6) = (   0.5000003   0.2886747   1.9798512  )
         7        S      tau(   7) = (   0.0000000   0.0000000   2.9586848  )
         8        Mo     tau(   8) = (   0.5000003   0.2886747   3.4569999  )
         9        S      tau(   9) = (   0.0000000   0.0000000   3.9548385  )
        10        S      tau(  10) = (  -0.0000005   0.5773503   5.9967110  )
        11        Mo     tau(  11) = (   0.0000000   0.0000000   6.4943476  )
        12        S      tau(  12) = (  -0.0000005   0.5773503   6.9914817  )

     number of k points=    30  Methfessel-Paxton smearing, width (Ry)=  0.0200
                       cart. coord. in units 2pi/alat
        k(    1) = (   0.0000000   0.0000000   0.0000000), wk =   0.0078125
        k(    2) = (   0.0000000   0.0721688   0.0000000), wk =   0.0468750
        k(    3) = (   0.0000000   0.1443376   0.0000000), wk =   0.0468750
        k(    4) = (   0.0000000   0.2165064   0.0000000), wk =   0.0468750
        k(    5) = (   0.0000000   0.2886751   0.0000000), wk =   0.0468750
        k(    6) = (   0.0000000   0.3608439   0.0000000), wk =   0.0468750
        k(    7) = (   0.0000000   0.4330127   0.0000000), wk =   0.0468750
        k(    8) = (   0.0000000   0.5051815   0.0000000), wk =   0.0468750
        k(    9) = (   0.0000000  -0.5773503   0.0000000), wk =   0.0234375
        k(   10) = (   0.0625000   0.1082532   0.0000000), wk =   0.0468750
        k(   11) = (   0.0625000   0.1804220   0.0000000), wk =   0.0937500
        k(   12) = (   0.0625000   0.2525907   0.0000000), wk =   0.0937500
        k(   13) = (   0.0625000   0.3247595   0.0000000), wk =   0.0937500
        k(   14) = (   0.0625000   0.3969283   0.0000000), wk =   0.0937500
        k(   15) = (   0.0625000   0.4690971   0.0000000), wk =   0.0937500
        k(   16) = (   0.0625000   0.5412659   0.0000000), wk =   0.0937500
        k(   17) = (   0.1250000   0.2165064   0.0000000), wk =   0.0468750
        k(   18) = (   0.1250000   0.2886751   0.0000000), wk =   0.0937500
        k(   19) = (   0.1250000   0.3608439   0.0000000), wk =   0.0937500
        k(   20) = (   0.1250000   0.4330127   0.0000000), wk =   0.0937500
        k(   21) = (   0.1250000   0.5051815   0.0000000), wk =   0.0937500
        k(   22) = (   0.1250000   0.5773503   0.0000000), wk =   0.0468750
        k(   23) = (   0.1875000   0.3247595   0.0000000), wk =   0.0468750
        k(   24) = (   0.1875000   0.3969283   0.0000000), wk =   0.0937500
        k(   25) = (   0.1875000   0.4690971   0.0000000), wk =   0.0937500
        k(   26) = (   0.1875000   0.5412659   0.0000000), wk =   0.0937500
        k(   27) = (   0.2500000   0.4330127   0.0000000), wk =   0.0468750
        k(   28) = (   0.2500000   0.5051815   0.0000000), wk =   0.0937500
        k(   29) = (   0.2500000   0.5773503   0.0000000), wk =   0.0468750
        k(   30) = (   0.3125000   0.5412659   0.0000000), wk =   0.0468750

     Dense  grid:   478405 G-vectors     FFT dimensions: (  50,  50, 480)

     Smooth grid:   168563 G-vectors     FFT dimensions: (  36,  36, 324)

     Estimated max dynamical RAM per process >       2.35 GB

     Initial potential from superposition of free atoms

     starting charge     103.9962, renormalised to     104.0000


     %%%%%%%%%%%%%%%%%%%%%%%%%%%%%%%%%%%%%%%%%%%%%%%%%%%%%%%%%%%%%%%%%%%%%%%%
     %                                                                      %
     % You are using vdW-DF, which was implemented by the Thonhauser group. %
     % Please cite the following two papers that made this development      %
     % possible and the two reviews that describe the various versions:     %
     %                                                                      %
     %   T. Thonhauser et al., PRL 115, 136402 (2015).                      %
     %   T. Thonhauser et al., PRB 76, 125112 (2007).                       %
     %   K. Berland et al., Rep. Prog. Phys. 78, 066501 (2015).             %
     %   D.C. Langreth et al., J. Phys.: Condens. Matter 21, 084203 (2009). %
     %                                                                      %
     % If you are calculating stress with vdW-DF, please also cite:         %
     %                                                                      %
     %   R. Sabatini et al., J. Phys.: Condens. Matter 24, 424209 (2012).   %
     %                                                                      %
     %%%%%%%%%%%%%%%%%%%%%%%%%%%%%%%%%%%%%%%%%%%%%%%%%%%%%%%%%%%%%%%%%%%%%%%%

     %%%%%%%%%%%%%%%%%%%%%%%%%%%%%%%%%%%%%%%%%%%%%%%%%%%%%%%%%%%%%%%%%%%%%%%%
     %                                                                      %
     %  vdW-DF NEWS:                                                        %
     %                                                                      %
     %  * vdW-DF3 is now available. DOI: 10.1021/acs.jctc.0c00471           %
     %    use with input_dft = 'vdW-DF3-opt1' or 'vdW-DF3-opt2'             %
     %                                                                      %
     %  * Unscreened and range-separated hybrid vdW-DF-cx functionals       %
     %    DOI: 10.1063/1.4986522 and 10.1088/1361-648X/ac2ad2               %
     %    use with input_dft = 'vdW-DF-cx0'    and 'vdW-DF-ahcx'            %
     %  * Unscreened and range-separated hybrid vdW-DF2-b86r functionals    %
     %    DOI: 10.1063/1.4986522 and DOI: 10.1103/PhysRevX.12.041003        %
     %    use with input_dft = 'vdW-DF2-br0' and 'vdW-DF2-ahbr'             %
     %                                                                      %
     %%%%%%%%%%%%%%%%%%%%%%%%%%%%%%%%%%%%%%%%%%%%%%%%%%%%%%%%%%%%%%%%%%%%%%%%


     Starting wfcs are   72 randomized atomic wfcs
     Checking if some PAW data can be deallocated... 

     total cpu time spent up to now is       85.8 secs

     Self-consistent Calculation

     iteration #  1     ecut=    80.00 Ry     beta= 0.20
     Davidson diagonalization with overlap
     ethr =  1.00E-02,  avg # of iterations =  2.2

     Threshold (ethr) on eigenvalues was too large:
     Diagonalizing with lowered threshold

     Davidson diagonalization with overlap
     ethr =  3.07E-04,  avg # of iterations =  3.1

     total cpu time spent up to now is      339.3 secs

     total energy              =   -1978.45933152 Ry
     estimated scf accuracy    <       0.43697691 Ry

     iteration #  2     ecut=    80.00 Ry     beta= 0.20
     Davidson diagonalization with overlap
     ethr =  4.20E-04,  avg # of iterations =  1.0

     total cpu time spent up to now is      437.6 secs

     total energy              =   -1978.28065553 Ry
     estimated scf accuracy    <       0.36508211 Ry

     iteration #  3     ecut=    80.00 Ry     beta= 0.20
     Davidson diagonalization with overlap
     ethr =  3.51E-04,  avg # of iterations =  2.0

     total cpu time spent up to now is      568.6 secs

     total energy              =   -1978.36069372 Ry
     estimated scf accuracy    <       0.04906465 Ry

     iteration #  4     ecut=    80.00 Ry     beta= 0.20
     Davidson diagonalization with overlap
     ethr =  4.72E-05,  avg # of iterations =  2.2

     total cpu time spent up to now is      695.2 secs

     total energy              =   -1978.36408001 Ry
     estimated scf accuracy    <       0.01608665 Ry

     iteration #  5     ecut=    80.00 Ry     beta= 0.20
     Davidson diagonalization with overlap
     ethr =  1.55E-05,  avg # of iterations =  4.5

     total cpu time spent up to now is      817.5 secs

     total energy              =   -1978.36509889 Ry
     estimated scf accuracy    <       0.00408716 Ry

     iteration #  6     ecut=    80.00 Ry     beta= 0.20
     Davidson diagonalization with overlap
     c_bands:  1 eigenvalues not converged
     ethr =  3.93E-06,  avg # of iterations =  5.9

     total cpu time spent up to now is      933.1 secs

     total energy              =   -1978.36397008 Ry
     estimated scf accuracy    <       0.00285919 Ry

     iteration #  7     ecut=    80.00 Ry     beta= 0.20
     Davidson diagonalization with overlap
     ethr =  2.75E-06,  avg # of iterations =  5.6

     total cpu time spent up to now is     1094.7 secs

     total energy              =   -1978.36346933 Ry
     estimated scf accuracy    <       0.00885504 Ry

     iteration #  8     ecut=    80.00 Ry     beta= 0.20
     Davidson diagonalization with overlap
     ethr =  2.75E-06,  avg # of iterations =  3.1

     total cpu time spent up to now is     1218.9 secs

     total energy              =   -1978.36402569 Ry
     estimated scf accuracy    <       0.00084450 Ry

     iteration #  9     ecut=    80.00 Ry     beta= 0.20
     Davidson diagonalization with overlap
     ethr =  8.12E-07,  avg # of iterations =  7.2

     total cpu time spent up to now is     1359.9 secs

     total energy              =   -1978.36424561 Ry
     estimated scf accuracy    <       0.00109045 Ry

     iteration # 10     ecut=    80.00 Ry     beta= 0.20
     Davidson diagonalization with overlap
     ethr =  8.12E-07,  avg # of iterations =  2.0

     total cpu time spent up to now is     1471.5 secs

     total energy              =   -1978.36427689 Ry
     estimated scf accuracy    <       0.00106078 Ry

     iteration # 11     ecut=    80.00 Ry     beta= 0.20
     Davidson diagonalization with overlap
     ethr =  8.12E-07,  avg # of iterations =  1.0

     total cpu time spent up to now is     1569.7 secs

     total energy              =   -1978.36404285 Ry
     estimated scf accuracy    <       0.00099759 Ry

     iteration # 12     ecut=    80.00 Ry     beta= 0.20
     Davidson diagonalization with overlap
     ethr =  8.12E-07,  avg # of iterations =  2.2

     total cpu time spent up to now is     1683.7 secs

     total energy              =   -1978.36414400 Ry
     estimated scf accuracy    <       0.00010373 Ry

     iteration # 13     ecut=    80.00 Ry     beta= 0.20
     Davidson diagonalization with overlap
     ethr =  9.97E-08,  avg # of iterations =  5.2

     total cpu time spent up to now is     1817.3 secs

     total energy              =   -1978.36411243 Ry
     estimated scf accuracy    <       0.00021884 Ry

     iteration # 14     ecut=    80.00 Ry     beta= 0.20
     Davidson diagonalization with overlap
     ethr =  9.97E-08,  avg # of iterations =  3.0

     total cpu time spent up to now is     1948.8 secs

     total energy              =   -1978.36414624 Ry
     estimated scf accuracy    <       0.00008085 Ry

     iteration # 15     ecut=    80.00 Ry     beta= 0.20
     Davidson diagonalization with overlap
     ethr =  7.77E-08,  avg # of iterations =  1.2

     total cpu time spent up to now is     2049.0 secs

     total energy              =   -1978.36414749 Ry
     estimated scf accuracy    <       0.00005684 Ry

     iteration # 16     ecut=    80.00 Ry     beta= 0.20
     Davidson diagonalization with overlap
     ethr =  5.47E-08,  avg # of iterations =  1.1

     total cpu time spent up to now is     2148.3 secs

     total energy              =   -1978.36413973 Ry
     estimated scf accuracy    <       0.00004694 Ry

     iteration # 17     ecut=    80.00 Ry     beta= 0.20
     Davidson diagonalization with overlap
     ethr =  4.51E-08,  avg # of iterations =  4.1

     total cpu time spent up to now is     2279.1 secs

     total energy              =   -1978.36413465 Ry
     estimated scf accuracy    <       0.00014567 Ry

     iteration # 18     ecut=    80.00 Ry     beta= 0.20
     Davidson diagonalization with overlap
     ethr =  4.51E-08,  avg # of iterations =  2.7

     total cpu time spent up to now is     2393.9 secs

     total energy              =   -1978.36414732 Ry
     estimated scf accuracy    <       0.00004657 Ry

     iteration # 19     ecut=    80.00 Ry     beta= 0.20
     Davidson diagonalization with overlap
     ethr =  4.48E-08,  avg # of iterations =  2.3

     total cpu time spent up to now is     2506.0 secs

     total energy              =   -1978.36412978 Ry
     estimated scf accuracy    <       0.00011833 Ry

     iteration # 20     ecut=    80.00 Ry     beta= 0.20
     Davidson diagonalization with overlap
     ethr =  4.48E-08,  avg # of iterations =  2.4

     total cpu time spent up to now is     2626.3 secs

     total energy              =   -1978.36413361 Ry
     estimated scf accuracy    <       0.00001816 Ry

     iteration # 21     ecut=    80.00 Ry     beta= 0.20
     Davidson diagonalization with overlap
     ethr =  1.75E-08,  avg # of iterations =  5.3

     total cpu time spent up to now is     2755.4 secs

     total energy              =   -1978.36413347 Ry
     estimated scf accuracy    <       0.00001631 Ry

     iteration # 22     ecut=    80.00 Ry     beta= 0.20
     Davidson diagonalization with overlap
     ethr =  1.57E-08,  avg # of iterations =  3.5

     total cpu time spent up to now is     2879.3 secs

     total energy              =   -1978.36413438 Ry
     estimated scf accuracy    <       0.00001635 Ry

     iteration # 23     ecut=    80.00 Ry     beta= 0.20
     Davidson diagonalization with overlap
     ethr =  1.57E-08,  avg # of iterations =  2.0

     total cpu time spent up to now is     2985.9 secs

     total energy              =   -1978.36413563 Ry
     estimated scf accuracy    <       0.00000577 Ry

     iteration # 24     ecut=    80.00 Ry     beta= 0.20
     Davidson diagonalization with overlap
     ethr =  5.54E-09,  avg # of iterations =  4.1

     total cpu time spent up to now is     3109.4 secs

     total energy              =   -1978.36413567 Ry
     estimated scf accuracy    <       0.00000925 Ry

     iteration # 25     ecut=    80.00 Ry     beta= 0.20
     Davidson diagonalization with overlap
     ethr =  5.54E-09,  avg # of iterations =  1.2

     total cpu time spent up to now is     3210.5 secs

     total energy              =   -1978.36413499 Ry
     estimated scf accuracy    <       0.00000521 Ry

     iteration # 26     ecut=    80.00 Ry     beta= 0.20
     Davidson diagonalization with overlap
     ethr =  5.01E-09,  avg # of iterations =  2.9

     total cpu time spent up to now is     3324.3 secs

     total energy              =   -1978.36413500 Ry
     estimated scf accuracy    <       0.00000337 Ry

     iteration # 27     ecut=    80.00 Ry     beta= 0.20
     Davidson diagonalization with overlap
     ethr =  3.24E-09,  avg # of iterations =  2.5

     total cpu time spent up to now is     3438.7 secs

     total energy              =   -1978.36413523 Ry
     estimated scf accuracy    <       0.00000420 Ry

     iteration # 28     ecut=    80.00 Ry     beta= 0.20
     Davidson diagonalization with overlap
     ethr =  3.24E-09,  avg # of iterations =  1.0

     total cpu time spent up to now is     3537.1 secs

     total energy              =   -1978.36413472 Ry
     estimated scf accuracy    <       0.00000330 Ry

     iteration # 29     ecut=    80.00 Ry     beta= 0.20
     Davidson diagonalization with overlap
     ethr =  3.17E-09,  avg # of iterations =  1.0

     total cpu time spent up to now is     3635.8 secs

     total energy              =   -1978.36413404 Ry
     estimated scf accuracy    <       0.00000171 Ry

     iteration # 30     ecut=    80.00 Ry     beta= 0.20
     Davidson diagonalization with overlap
     ethr =  1.64E-09,  avg # of iterations =  2.4

     total cpu time spent up to now is     3754.0 secs

     total energy              =   -1978.36413431 Ry
     estimated scf accuracy    <       0.00000065 Ry

     iteration # 31     ecut=    80.00 Ry     beta= 0.20
     Davidson diagonalization with overlap
     ethr =  6.29E-10,  avg # of iterations =  2.0

     total cpu time spent up to now is     3860.7 secs

     total energy              =   -1978.36413424 Ry
     estimated scf accuracy    <       0.00000074 Ry

     iteration # 32     ecut=    80.00 Ry     beta= 0.20
     Davidson diagonalization with overlap
     ethr =  6.29E-10,  avg # of iterations =  1.2

     total cpu time spent up to now is     3961.3 secs

     total energy              =   -1978.36413424 Ry
     estimated scf accuracy    <       0.00000046 Ry

     iteration # 33     ecut=    80.00 Ry     beta= 0.20
     Davidson diagonalization with overlap
     ethr =  4.45E-10,  avg # of iterations =  1.4

     total cpu time spent up to now is     4063.7 secs

     total energy              =   -1978.36413425 Ry
     estimated scf accuracy    <       0.00000046 Ry

     iteration # 34     ecut=    80.00 Ry     beta= 0.20
     Davidson diagonalization with overlap
     ethr =  4.40E-10,  avg # of iterations =  1.0

     total cpu time spent up to now is     4162.2 secs

     total energy              =   -1978.36413425 Ry
     estimated scf accuracy    <       0.00000046 Ry

     iteration # 35     ecut=    80.00 Ry     beta= 0.20
     Davidson diagonalization with overlap
     ethr =  4.40E-10,  avg # of iterations =  1.0

     total cpu time spent up to now is     4260.7 secs

     total energy              =   -1978.36413425 Ry
     estimated scf accuracy    <       0.00000043 Ry

     iteration # 36     ecut=    80.00 Ry     beta= 0.20
     Davidson diagonalization with overlap
     ethr =  4.18E-10,  avg # of iterations =  1.1

     total cpu time spent up to now is     4360.1 secs

     total energy              =   -1978.36413424 Ry
     estimated scf accuracy    <       0.00000042 Ry

     iteration # 37     ecut=    80.00 Ry     beta= 0.20
     Davidson diagonalization with overlap
     ethr =  4.01E-10,  avg # of iterations =  1.0

     total cpu time spent up to now is     4459.3 secs

     total energy              =   -1978.36413421 Ry
     estimated scf accuracy    <       0.00000041 Ry

     iteration # 38     ecut=    80.00 Ry     beta= 0.20
     Davidson diagonalization with overlap
     ethr =  3.90E-10,  avg # of iterations =  1.1

     total cpu time spent up to now is     4558.5 secs

     total energy              =   -1978.36413418 Ry
     estimated scf accuracy    <       0.00000037 Ry

     iteration # 39     ecut=    80.00 Ry     beta= 0.20
     Davidson diagonalization with overlap
     ethr =  3.53E-10,  avg # of iterations =  1.1

     total cpu time spent up to now is     4658.2 secs

     total energy              =   -1978.36413418 Ry
     estimated scf accuracy    <       0.00000035 Ry

     iteration # 40     ecut=    80.00 Ry     beta= 0.20
     Davidson diagonalization with overlap
     ethr =  3.37E-10,  avg # of iterations =  1.0

     total cpu time spent up to now is     4756.7 secs

     total energy              =   -1978.36413417 Ry
     estimated scf accuracy    <       0.00000034 Ry

     iteration # 41     ecut=    80.00 Ry     beta= 0.20
     Davidson diagonalization with overlap
     ethr =  3.31E-10,  avg # of iterations =  1.0

     total cpu time spent up to now is     4855.4 secs

     total energy              =   -1978.36413414 Ry
     estimated scf accuracy    <       0.00000032 Ry

     iteration # 42     ecut=    80.00 Ry     beta= 0.20
     Davidson diagonalization with overlap
     ethr =  3.12E-10,  avg # of iterations =  1.2

     total cpu time spent up to now is     4956.6 secs

     total energy              =   -1978.36413414 Ry
     estimated scf accuracy    <       0.00000028 Ry

     iteration # 43     ecut=    80.00 Ry     beta= 0.20
     Davidson diagonalization with overlap
     ethr =  2.65E-10,  avg # of iterations =  1.0

     total cpu time spent up to now is     5055.1 secs

     total energy              =   -1978.36413408 Ry
     estimated scf accuracy    <       0.00000027 Ry

     iteration # 44     ecut=    80.00 Ry     beta= 0.20
     Davidson diagonalization with overlap
     ethr =  2.58E-10,  avg # of iterations =  1.3

     total cpu time spent up to now is     5157.1 secs

     total energy              =   -1978.36413407 Ry
     estimated scf accuracy    <       0.00000020 Ry

     iteration # 45     ecut=    80.00 Ry     beta= 0.20
     Davidson diagonalization with overlap
     ethr =  1.90E-10,  avg # of iterations =  1.2

     total cpu time spent up to now is     5257.1 secs

     total energy              =   -1978.36413406 Ry
     estimated scf accuracy    <       0.00000016 Ry

     iteration # 46     ecut=    80.00 Ry     beta= 0.20
     Davidson diagonalization with overlap
     ethr =  1.58E-10,  avg # of iterations =  2.1

     total cpu time spent up to now is     5367.6 secs

     total energy              =   -1978.36413406 Ry
     estimated scf accuracy    <       0.00000013 Ry

     iteration # 47     ecut=    80.00 Ry     beta= 0.20
     Davidson diagonalization with overlap
     ethr =  1.28E-10,  avg # of iterations =  1.0

     total cpu time spent up to now is     5465.8 secs

     total energy              =   -1978.36413404 Ry
     estimated scf accuracy    <       0.00000011 Ry

     iteration # 48     ecut=    80.00 Ry     beta= 0.20
     Davidson diagonalization with overlap
     ethr =  1.02E-10,  avg # of iterations =  2.0

     total cpu time spent up to now is     5581.1 secs

     total energy              =   -1978.36413405 Ry
     estimated scf accuracy    <       0.00000007 Ry

     iteration # 49     ecut=    80.00 Ry     beta= 0.20
     Davidson diagonalization with overlap
     ethr =  6.97E-11,  avg # of iterations =  1.1

     total cpu time spent up to now is     5680.8 secs

     total energy              =   -1978.36413404 Ry
     estimated scf accuracy    <       0.00000003 Ry

     iteration # 50     ecut=    80.00 Ry     beta= 0.20
     Davidson diagonalization with overlap
     ethr =  3.28E-11,  avg # of iterations =  2.1

     total cpu time spent up to now is     5792.6 secs

     total energy              =   -1978.36413404 Ry
     estimated scf accuracy    <       0.00000002 Ry

     iteration # 51     ecut=    80.00 Ry     beta= 0.20
     Davidson diagonalization with overlap
     ethr =  1.98E-11,  avg # of iterations =  1.3

     total cpu time spent up to now is     5894.4 secs

     total energy              =   -1978.36413405 Ry
     estimated scf accuracy    <       0.00000002 Ry

     iteration # 52     ecut=    80.00 Ry     beta= 0.20
     Davidson diagonalization with overlap
     ethr =  1.63E-11,  avg # of iterations =  2.0

     total cpu time spent up to now is     6005.2 secs

     End of self-consistent calculation

          k = 0.0000 0.0000 0.0000 ( 21311 PWs)   bands (ev):

   -53.4993 -53.4592 -53.4462 -53.4168 -27.6733 -27.6338 -27.6199 -27.5912
   -27.4359 -27.4359 -27.3957 -27.3957 -27.3840 -27.3839 -27.3544 -27.3544
    -6.8475  -6.7520  -6.7204  -6.6582  -5.6136  -5.4574  -5.4329  -5.3261
     1.3519   1.6820   1.7544   2.0369   4.7782   4.7782   4.7863   4.8160
     4.8160   4.8221   4.8221   4.8503   4.8503   5.4067   5.5319   5.8925
     5.8925   5.9303   5.9304   5.9415   5.9416   5.9692   5.9692   6.2176
     6.9790   7.2759   7.5296   7.8523  10.1221  10.1221  10.1693  10.1693
    10.2015  10.2015  10.2213  10.2213  10.3456  10.3461

          k = 0.0000 0.0722 0.0000 ( 21283 PWs)   bands (ev):

   -53.4978 -53.4577 -53.4446 -53.4153 -27.6702 -27.6307 -27.6168 -27.5881
   -27.4515 -27.4394 -27.4113 -27.3995 -27.3992 -27.3875 -27.3700 -27.3579
    -6.7879  -6.6927  -6.6610  -6.5990  -5.5860  -5.4321  -5.4080  -5.3029
     1.4208   1.7495   1.8234   2.1049   4.6394   4.6528   4.6805   4.6878
     4.7163   4.8404   4.8782   4.8846   4.9128   5.1647   5.2425   5.5698
     5.7952   5.8335   5.8449   5.8729   5.9928   6.0899   6.1402   6.4581
     6.9814   7.2572   7.4945   7.7722  10.0483  10.0883  10.1088  10.1369
    10.1813  10.2065  10.2210  10.2417  10.2524  10.2835

          k = 0.0000 0.1443 0.0000 ( 21263 PWs)   bands (ev):

   -53.4933 -53.4532 -53.4402 -53.4108 -27.6616 -27.6221 -27.6082 -27.5794
   -27.4955 -27.4553 -27.4495 -27.4436 -27.4141 -27.4093 -27.3975 -27.3680
    -6.6139  -6.5198  -6.4879  -6.4268  -5.5054  -5.3584  -5.3355  -5.2357
     1.6126   1.9356   2.0140   2.2901   4.2887   4.3254   4.3380   4.3420
     4.3766   4.7371   4.7851   5.0195   5.0538   5.0574   5.0648   5.0930
     5.5437   5.5832   5.5949   5.6237   6.0515   6.2229   6.3014   6.6089
     6.9525   7.1667   7.3394   7.5142   9.7573   9.8236   9.8565   9.9221
     9.9599  10.0153  10.0604  10.0628  10.1089  10.1373

          k = 0.0000 0.2165 0.0000 ( 21233 PWs)   bands (ev):

   -53.4867 -53.4466 -53.4335 -53.4042 -27.6486 -27.6091 -27.5952 -27.5664
   -27.5609 -27.5207 -27.5091 -27.4795 -27.4645 -27.4243 -27.4125 -27.3830
    -6.3403  -6.2488  -6.2165  -6.1575  -5.3788  -5.2434  -5.2222  -5.1310
     1.8725   2.1770   2.2608   2.5165   3.8509   3.8927   3.9191   3.9201
     3.9943   4.2686   4.3056   4.5083   5.2168   5.2559   5.2714   5.2909
     5.3021   5.3347   5.3398   5.3698   5.9640   6.1747   6.2497   6.5264
     6.8094   6.9409   7.0177   7.1039   9.3752   9.5208   9.5872   9.8155
     9.8422   9.9226   9.9519   9.9538  10.0024  10.0472

          k = 0.0000 0.2887 0.0000 ( 21197 PWs)   bands (ev):

   -53.4788 -53.4387 -53.4256 -53.3963 -27.6371 -27.6333 -27.5970 -27.5937
   -27.5854 -27.5798 -27.5559 -27.5511 -27.4821 -27.4419 -27.4302 -27.4006
    -5.9927  -5.9060  -5.8733  -5.8181  -5.2190  -5.0992  -5.0800  -5.0004
     2.0725   2.3205   2.3980   2.5814   3.4487   3.5189   3.5844   3.6053
     3.6752   3.7878   3.8559   3.9686   4.8887   4.9303   4.9435   4.9735
     5.6167   5.6586   5.6694   5.7003   5.7489   5.9774   6.0405   6.2823
     6.5365   6.6162   6.6354   6.6926   9.2406   9.4451   9.5175   9.6541
     9.7323   9.7607   9.8096   9.8113  10.1707  10.3029

          k = 0.0000 0.3608 0.0000 ( 21187 PWs)   bands (ev):

   -53.4710 -53.4309 -53.4178 -53.3884 -27.7125 -27.6724 -27.6609 -27.6314
   -27.6179 -27.5783 -27.5644 -27.5356 -27.4996 -27.4594 -27.4477 -27.4182
    -5.6093  -5.5306  -5.4979  -5.4490  -5.0450  -4.9445  -4.9269  -4.8615
     2.0362   2.1887   2.2427   2.3291   3.0838   3.2048   3.3174   3.3707
     3.4422   3.5241   3.5705   3.6629   4.6002   4.6427   4.6561   4.6866
     5.5141   5.7424   5.8004   5.9349   5.9838   5.9977   6.0072   6.0326
     6.3178   6.3942   6.4066   6.4617   9.3577   9.5513   9.5679   9.6191
     9.6288   9.6442   9.6880   9.9016  10.5025  10.6517

          k = 0.0000 0.4330 0.0000 ( 21140 PWs)   bands (ev):

   -53.4643 -53.4242 -53.4111 -53.3817 -27.7758 -27.7357 -27.7242 -27.6947
   -27.6048 -27.5653 -27.5513 -27.5225 -27.5145 -27.4743 -27.4626 -27.4330
    -5.2449  -5.1780  -5.1455  -5.1062  -4.8828  -4.8040  -4.7870  -4.7367
     1.8044   1.8944   1.9390   1.9785   2.7465   2.8559   2.9236   2.9756
     3.3325   3.4513   3.4750   3.5816   4.3793   4.4224   4.4359   4.4669
     5.3392   5.5566   5.6142   5.7918   6.1879   6.2481   6.2649   6.3064
     6.3361   6.4304   6.4465   6.5159   9.5467   9.6000   9.6197   9.6212
     9.6572   9.7944   9.8382  10.0392  10.8124  10.9663

          k = 0.0000 0.5052 0.0000 ( 21078 PWs)   bands (ev):

   -53.4598 -53.4197 -53.4066 -53.3773 -27.8177 -27.7776 -27.7662 -27.7367
   -27.5960 -27.5565 -27.5425 -27.5243 -27.5138 -27.4842 -27.4724 -27.4429
    -4.9717  -4.9184  -4.8867  -4.8584  -4.7638  -4.7060  -4.6873  -4.6503
     1.5769   1.6412   1.6874   1.7104   2.5099   2.5929   2.6564   2.6943
     3.2290   3.3461   3.3756   3.4686   4.2415   4.2850   4.2986   4.3298
     5.2440   5.4501   5.5057   5.6608   6.3409   6.4119   6.4310   6.4789
     6.5240   6.6180   6.6414   6.7049   9.5966   9.6397   9.6569   9.6874
     9.9120  10.0293  10.0595  10.1717  11.0051  11.1480

          k = 0.0000-0.5774 0.0000 ( 21006 PWs)   bands (ev):

   -53.4583 -53.4181 -53.4050 -53.3757 -27.8323 -27.7922 -27.7808 -27.7513
   -27.5930 -27.5534 -27.5394 -27.5278 -27.5107 -27.4876 -27.4759 -27.4464
    -4.8675  -4.8213  -4.7902  -4.7677  -4.7192  -4.6717  -4.6510  -4.6196
     1.4852   1.5438   1.5913   1.6108   2.4253   2.4968   2.5616   2.5951
     3.1809   3.2972   3.3266   3.4162   4.1948   4.2384   4.2520   4.2833
     5.2155   5.4163   5.4707   5.6167   6.3905   6.4659   6.4859   6.5365
     6.6409   6.7166   6.7452   6.7929   9.6256   9.6661   9.6813   9.7105
    10.0682  10.1429  10.1648  10.2157  11.0652  11.1971

          k = 0.0625 0.1083 0.0000 ( 21269 PWs)   bands (ev):

   -53.4948 -53.4547 -53.4416 -53.4123 -27.6644 -27.6249 -27.6110 -27.5823
   -27.4808 -27.4467 -27.4406 -27.4289 -27.4065 -27.3993 -27.3947 -27.3652
    -6.6710  -6.5766  -6.5447  -6.4833  -5.5318  -5.3826  -5.3593  -5.2578
     1.5516   1.8769   1.9539   2.2323   4.3995   4.4335   4.4423   4.4497
     4.4803   4.8692   4.9245   4.9593   4.9971   5.0040   5.0319   5.2187
     5.5804   5.6183   5.6304   5.6579   6.0885   6.2363   6.3105   6.6127
     6.9694   7.2031   7.4008   7.6029   9.8838   9.9146   9.9267   9.9609
     9.9773  10.0293  10.0360  10.1047  10.1355  10.1988

          k = 0.0625 0.1804 0.0000 ( 21194 PWs)   bands (ev):

   -53.4892 -53.4491 -53.4360 -53.4067 -27.6536 -27.6141 -27.6001 -27.5714
   -27.5343 -27.4941 -27.4824 -27.4604 -27.4529 -27.4202 -27.4085 -27.3789
    -6.4471  -6.3545  -6.3223  -6.2624  -5.4281  -5.2880  -5.2662  -5.1716
     1.7816   2.0960   2.1784   2.4458   4.0155   4.0517   4.0715   4.0833
     4.1440   4.4785   4.5188   4.7598   5.1748   5.2038   5.2217   5.2240
     5.2413   5.2619   5.2648   5.2926   6.1393   6.3141   6.3931   6.6531
     6.8861   7.0442   7.1614   7.2651   9.4857   9.6002   9.6514   9.8052
     9.8462   9.9102   9.9322   9.9774  10.0145  10.0225

          k = 0.0625 0.2526 0.0000 ( 21202 PWs)   bands (ev):

   -53.4820 -53.4419 -53.4288 -53.3995 -27.6394 -27.6035 -27.5999 -27.5859
   -27.5633 -27.5572 -27.5517 -27.5222 -27.4783 -27.4382 -27.4264 -27.3969
    -6.1359  -6.0469  -6.0144  -5.9574  -5.2843  -5.1578  -5.1378  -5.0533
     2.0252   2.3056   2.3895   2.6146   3.6205   3.6692   3.7049   3.7113
     3.8145   4.0360   4.0788   4.2359   4.8362   4.8802   4.8903   4.9258
     5.4426   5.4821   5.4937   5.5225   6.0371   6.2190   6.2846   6.5000
     6.6760   6.7629   6.7973   6.8524   9.2202   9.4009   9.4639   9.6497
     9.7753   9.8264   9.8469   9.8792   9.9653  10.0702

          k = 0.0625 0.3248 0.0000 ( 21194 PWs)   bands (ev):

   -53.4741 -53.4340 -53.4209 -53.3916 -27.6775 -27.6374 -27.6258 -27.6240
   -27.5963 -27.5845 -27.5705 -27.5418 -27.4977 -27.4575 -27.4458 -27.4163
    -5.7689  -5.6863  -5.6535  -5.6016  -5.1160  -5.0070  -4.9888  -4.9171
     2.1148   2.3123   2.3770   2.5039   3.2800   3.3707   3.5000   3.5390
     3.5533   3.5833   3.7002   3.7354   4.5294   4.5881   4.5987   4.6453
     5.6755   5.7159   5.7370   5.7620   5.8258   5.9969   6.0509   6.2324
     6.4486   6.5074   6.5174   6.5625   9.1832   9.3803   9.4310   9.5632
     9.7065   9.7652   9.7779   9.8997  10.2312  10.3652

          k = 0.0625 0.3969 0.0000 ( 21151 PWs)   bands (ev):

   -53.4669 -53.4267 -53.4136 -53.3843 -27.7451 -27.7050 -27.6935 -27.6640
   -27.6098 -27.5703 -27.5563 -27.5276 -27.5155 -27.4753 -27.4636 -27.4341
    -5.3917  -5.3192  -5.2865  -5.2426  -4.9455  -4.8570  -4.8400  -4.7830
     1.9612   2.0768   2.1236   2.1816   2.9116   3.0228   3.0950   3.1448
     3.4043   3.5171   3.5381   3.6505   4.3300   4.3919   4.4047   4.4493
     5.5624   5.7352   5.7905   5.8216   5.8734   5.8828   5.9004   5.9869
     6.4592   6.5089   6.5196   6.5584   9.3169   9.4748   9.5106   9.5925
     9.7503   9.8132   9.8327   9.9852  10.5739  10.7168

          k = 0.0625 0.4691 0.0000 ( 21105 PWs)   bands (ev):

   -53.4613 -53.4212 -53.4081 -53.3787 -27.7965 -27.7564 -27.7449 -27.7154
   -27.5989 -27.5593 -27.5453 -27.5291 -27.5166 -27.4890 -27.4773 -27.4477
    -5.0678  -5.0085  -4.9763  -4.9432  -4.8017  -4.7351  -4.7176  -4.6752
     1.7246   1.7992   1.8443   1.8737   2.5962   2.6805   2.7389   2.7756
     3.3012   3.4185   3.4521   3.5469   4.2233   4.2732   4.2915   4.3251
     5.3708   5.5491   5.6008   5.7351   5.9429   6.0009   6.0251   6.0714
     6.6321   6.6855   6.7001   6.7419   9.5099   9.5987   9.6241   9.6676
     9.8860   9.9679   9.9915  10.1135  10.8887  11.0318

          k = 0.0625 0.5413 0.0000 ( 21084 PWs)   bands (ev):

   -53.4583 -53.4181 -53.4050 -53.3757 -27.8241 -27.7840 -27.7726 -27.7431
   -27.5930 -27.5534 -27.5394 -27.5365 -27.5107 -27.4963 -27.4846 -27.4551
    -4.8735  -4.8259  -4.7946  -4.7713  -4.7168  -4.6677  -4.6477  -4.6154
     1.5652   1.6246   1.6724   1.6926   2.4183   2.4848   2.5440   2.5746
     3.2118   3.3296   3.3621   3.4506   4.1815   4.2180   4.2407   4.2658
     5.2658   5.4473   5.4977   5.6281   6.0321   6.0999   6.1274   6.1698
     6.7854   6.8454   6.8653   6.9086   9.6249   9.6625   9.6837   9.7079
    10.0624  10.1414  10.1640  10.2279  11.1119  11.2239

          k = 0.1250 0.2165 0.0000 ( 21179 PWs)   bands (ev):

   -53.4831 -53.4430 -53.4299 -53.4006 -27.6416 -27.6020 -27.5895 -27.5881
   -27.5594 -27.5493 -27.5377 -27.5081 -27.4792 -27.4390 -27.4273 -27.3977
    -6.1851  -6.0954  -6.0629  -6.0053  -5.3066  -5.1778  -5.1575  -5.0713
     2.0060   2.2973   2.3828   2.6225   3.6945   3.7282   3.7617   3.7705
     3.9117   4.1950   4.2361   4.4232   4.6981   4.7425   4.7471   4.7850
     5.3634   5.4013   5.4139   5.4414   6.2225   6.3786   6.4490   6.6326
     6.7387   6.8253   6.8730   6.9210   9.2083   9.3773   9.4339   9.6098
     9.7689   9.8005   9.8429   9.8554   9.8796   9.9498

          k = 0.1250 0.2887 0.0000 ( 21199 PWs)   bands (ev):

   -53.4758 -53.4357 -53.4226 -53.3933 -27.6528 -27.6274 -27.6126 -27.6011
   -27.5879 -27.5739 -27.5715 -27.5452 -27.5025 -27.4623 -27.4506 -27.4211
    -5.8529  -5.7684  -5.7356  -5.6822  -5.1528  -5.0393  -5.0207  -4.9458
     2.1631   2.3936   2.4666   2.6281   3.4388   3.4900   3.5845   3.5954
     3.6836   3.7987   3.8582   3.9176   4.2635   4.3479   4.3620   4.4665
     5.4656   5.5063   5.5263   5.5532   6.1501   6.2842   6.3370   6.4702
     6.5542   6.5881   6.6034   6.6366   9.0489   9.2531   9.3074   9.4835
     9.7662   9.8034   9.8260   9.8829   9.9709  10.0819

          k = 0.1250 0.3608 0.0000 ( 21195 PWs)   bands (ev):

   -53.4686 -53.4284 -53.4154 -53.3860 -27.7150 -27.6749 -27.6634 -27.6339
   -27.6132 -27.5736 -27.5596 -27.5309 -27.5262 -27.4860 -27.4743 -27.4448
    -5.4880  -5.4120  -5.3792  -5.3326  -4.9848  -4.8900  -4.8728  -4.8113
     2.1165   2.2632   2.3142   2.3964   3.1116   3.2016   3.2745   3.2979
     3.4963   3.5868   3.6163   3.7154   4.0668   4.1991   4.2205   4.3346
     5.4066   5.4536   5.4786   5.5057   5.9301   6.0440   6.0887   6.1905
     6.5126   6.5515   6.5686   6.5985   9.0851   9.3073   9.3599   9.5506
     9.8378   9.8824   9.8960   9.9724  10.2274  10.3609

          k = 0.1250 0.4330 0.0000 ( 21113 PWs)   bands (ev):

   -53.4624 -53.4223 -53.4092 -53.3798 -27.7671 -27.7270 -27.7156 -27.6861
   -27.6011 -27.5615 -27.5475 -27.5464 -27.5188 -27.5062 -27.4945 -27.4650
    -5.1435  -5.0796  -5.0470  -5.0102  -4.8275  -4.7538  -4.7369  -4.6898
     1.9369   2.0312   2.0756   2.1186   2.7006   2.7639   2.8129   2.8361
     3.4251   3.5360   3.5877   3.6697   4.0373   4.1692   4.1812   4.2776
     5.3501   5.4181   5.4486   5.4889   5.6551   5.7641   5.8060   5.8975
     6.6515   6.6932   6.7081   6.7400   9.2925   9.4998   9.5466   9.7197
     9.9471   9.9960  10.0003  10.0562  10.5437  10.6854

          k = 0.1250 0.5052 0.0000 ( 21081 PWs)   bands (ev):

   -53.4583 -53.4181 -53.4050 -53.3757 -27.8017 -27.7616 -27.7502 -27.7207
   -27.5930 -27.5598 -27.5534 -27.5394 -27.5197 -27.5107 -27.5080 -27.4785
    -4.8875  -4.8368  -4.8051  -4.7798  -4.7113  -4.6585  -4.6397  -4.6051
     1.7746   1.8407   1.8886   1.9128   2.4064   2.4557   2.5042   2.5270
     3.3064   3.4278   3.4685   3.5498   4.0865   4.1824   4.2026   4.2581
     5.3446   5.4330   5.4795   5.4987   5.5240   5.5585   5.5863   5.6861
     6.8373   6.8896   6.9050   6.9440   9.5134   9.6261   9.6514   9.7211
    10.0960  10.1642  10.1862  10.2580  10.8211  10.9281

          k = 0.1250 0.5774 0.0000 ( 21108 PWs)   bands (ev):

   -53.4568 -53.4167 -53.4036 -53.3743 -27.8138 -27.7737 -27.7623 -27.7328
   -27.5901 -27.5646 -27.5506 -27.5366 -27.5244 -27.5128 -27.5079 -27.4832
    -4.7903  -4.7464  -4.7156  -4.6971  -4.6669  -4.6249  -4.6041  -4.5748
     1.7118   1.7677   1.8186   1.8372   2.3014   2.3468   2.3959   2.4190
     3.2463   3.3689   3.4059   3.4884   4.1353   4.1896   4.2219   4.2511
     5.2886   5.4212   5.4505   5.4912   5.5039   5.5281   5.5537   5.6295
     6.9289   6.9891   7.0060   7.0499   9.5923   9.6284   9.6515   9.6771
    10.2066  10.2878  10.3128  10.3583  10.9329  11.0461

          k = 0.1875 0.3248 0.0000 ( 21195 PWs)   bands (ev):

   -53.4692 -53.4290 -53.4160 -53.3866 -27.7014 -27.6613 -27.6498 -27.6203
   -27.6143 -27.5748 -27.5608 -27.5329 -27.5321 -27.4928 -27.4811 -27.4515
    -5.5214  -5.4443  -5.4114  -5.3639  -4.9981  -4.9011  -4.8839  -4.8208
     2.1825   2.3450   2.3983   2.4936   3.2401   3.3094   3.3678   3.3802
     3.5393   3.6178   3.6568   3.7143   3.9220   4.0714   4.1211   4.2656
     5.2329   5.2780   5.3053   5.3318   6.0956   6.1834   6.2257   6.3016
     6.5179   6.5607   6.5792   6.6108   8.9968   9.2389   9.2975   9.5248
     9.8613   9.8932   9.9195   9.9582  10.0752  10.1959

          k = 0.1875 0.3969 0.0000 ( 21153 PWs)   bands (ev):

   -53.4630 -53.4229 -53.4098 -53.3804 -27.7434 -27.7032 -27.6918 -27.6622
   -27.6023 -27.5638 -27.5627 -27.5487 -27.5236 -27.5200 -27.5119 -27.4824
    -5.1850  -5.1186  -5.0859  -5.0471  -4.8403  -4.7627  -4.7461  -4.6962
     2.0974   2.2126   2.2565   2.3154   2.7955   2.8240   2.8689   2.8783
     3.5603   3.6342   3.7399   3.7625   3.9231   4.0588   4.1090   4.2398
     4.9136   4.9703   4.9974   5.0308   5.8689   5.9307   5.9689   6.0240
     6.6208   6.6692   6.6833   6.7209   9.1509   9.4115   9.4763   9.7536
     9.9748  10.0082  10.0300  10.0546  10.2688  10.4021

          k = 0.1875 0.4691 0.0000 ( 21101 PWs)   bands (ev):

   -53.4583 -53.4181 -53.4051 -53.3757 -27.7738 -27.7337 -27.7223 -27.6928
   -27.5930 -27.5887 -27.5535 -27.5485 -27.5395 -27.5369 -27.5107 -27.5074
    -4.9010  -4.8476  -4.8155  -4.7882  -4.7058  -4.6494  -4.6316  -4.5947
     2.0120   2.0970   2.1433   2.1790   2.3999   2.4279   2.4676   2.4832
     3.4753   3.5974   3.6515   3.6958   3.9848   4.1429   4.1572   4.2718
     4.7274   4.8182   4.8495   4.9152   5.5676   5.6482   5.6789   5.7361
     6.8223   6.8673   6.8800   6.9143   9.3699   9.5465   9.5882   9.7209
    10.1379  10.1952  10.2237  10.2932  10.4835  10.5899

          k = 0.1875 0.5413 0.0000 ( 21112 PWs)   bands (ev):

   -53.4557 -53.4156 -53.4025 -53.3731 -27.7898 -27.7497 -27.7383 -27.7088
   -27.6026 -27.5880 -27.5625 -27.5508 -27.5485 -27.5344 -27.5213 -27.5057
    -4.7331  -4.6905  -4.6598  -4.6463  -4.6230  -4.5862  -4.5658  -4.5378
     1.9757   2.0324   2.0910   2.1106   2.1844   2.2149   2.2504   2.2719
     3.3324   3.4619   3.5011   3.5717   4.1147   4.2162   4.2519   4.3055
     4.6824   4.7998   4.8312   4.9050   5.3591   5.4442   5.4705   5.5346
     7.0058   7.0575   7.0716   7.1110   9.4429   9.5016   9.5222   9.5605
    10.3232  10.4156  10.4778  10.5391  10.5974  10.6916

          k = 0.2500 0.4330 0.0000 ( 21125 PWs)   bands (ev):

   -53.4583 -53.4181 -53.4051 -53.3757 -27.7593 -27.7192 -27.7078 -27.6783
   -27.6036 -27.5930 -27.5635 -27.5535 -27.5518 -27.5395 -27.5223 -27.5107
    -4.9064  -4.8520  -4.8197  -4.7916  -4.7036  -4.6457  -4.6283  -4.5904
     2.1202   2.2194   2.2643   2.3049   2.3995   2.4216   2.4533   2.4652
     3.6576   3.6988   3.7878   3.8228   3.9912   4.1261   4.1601   4.2890
     4.4140   4.4646   4.4849   4.5104   5.6399   5.6839   5.7255   5.7734
     6.8057   6.8514   6.8624   6.8975   9.3096   9.5067   9.5572   9.7125
    10.1490  10.1968  10.2393  10.3007  10.3550  10.4555

          k = 0.2500 0.5052 0.0000 ( 21117 PWs)   bands (ev):

   -53.4551 -53.4150 -53.4019 -53.3725 -27.7641 -27.7240 -27.7125 -27.6830
   -27.6362 -27.5960 -27.5868 -27.5844 -27.5549 -27.5473 -27.5333 -27.5046
    -4.7051  -4.6623  -4.6316  -4.6209  -4.5972  -4.5627  -4.5432  -4.5154
     2.0917   2.1159   2.1608   2.1662   2.2399   2.3158   2.3515   2.3891
     3.5027   3.6297   3.6663   3.6869   4.0511   4.1172   4.1880   4.2239
     4.2443   4.2834   4.3356   4.4043   5.3616   5.4225   5.4572   5.5104
     7.0466   7.0902   7.1023   7.1353   9.3096   9.3858   9.4088   9.4608
    10.2899  10.3542  10.3860  10.4715  10.5553  10.6102

          k = 0.2500 0.5774 0.0000 ( 21116 PWs)   bands (ev):

   -53.4540 -53.4139 -53.4008 -53.3714 -27.7639 -27.7238 -27.7124 -27.6828
   -27.6494 -27.6093 -27.5977 -27.5847 -27.5681 -27.5451 -27.5311 -27.5024
    -4.6294  -4.5927  -4.5723  -4.5633  -4.5498  -4.5303  -4.5119  -4.4880
     1.9926   2.0151   2.0569   2.0660   2.3258   2.3735   2.4215   2.4383
     3.3483   3.4725   3.5044   3.5578   4.0137   4.1187   4.1936   4.2155
     4.2915   4.3722   4.3860   4.4372   5.2431   5.2951   5.3181   5.3751
     7.1728   7.2190   7.2325   7.2677   9.2410   9.2784   9.2944   9.3210
    10.3146  10.3818  10.4072  10.4874  10.7217  10.7586

          k = 0.3125 0.5413 0.0000 ( 21100 PWs)   bands (ev):

   -53.4534 -53.4133 -53.4002 -53.3708 -27.7429 -27.7027 -27.6913 -27.6779
   -27.6618 -27.6377 -27.6261 -27.5966 -27.5835 -27.5440 -27.5299 -27.5012
    -4.5924  -4.5591  -4.5485  -4.5296  -4.5252  -4.5065  -4.4920  -4.4691
     1.9252   1.9473   1.9855   1.9973   2.5493   2.6120   2.6589   2.6824
     3.3567   3.3705   3.4262   3.4436   3.8358   3.8686   3.8835   3.9155
     4.3422   4.4272   4.4512   4.4926   5.1544   5.2195   5.2431   5.3036
     7.2553   7.2975   7.3109   7.3425   9.1249   9.1636   9.1773   9.2054
    10.2512  10.2898  10.3226  10.4016  10.8190  10.8794

     the Fermi energy is     8.3615 ev

!    total energy              =   -1978.36413403 Ry
     total all-electron energy =    -38771.684979 Ry
     estimated scf accuracy    <          8.0E-09 Ry
     smearing contrib. (-TS)   =       0.00003319 Ry
     internal energy E=F+TS    =   -1978.36416722 Ry

     The total energy is F=E-TS. E is the sum of the following terms:
     one-electron contribution =   -1133.52806556 Ry
     hartree contribution      =     609.01510906 Ry
     xc contribution           =    -119.22747408 Ry
     ewald contribution        =     -64.77161061 Ry
     one-center paw contrib.   =   -1269.85212603 Ry

     convergence has been achieved in  52 iterations

     Writing all to output data dir ./tmp/cleave/cleave_dz017_dz3p4/mos2_cleave.save/ :
     XML data file, charge density, pseudopotentials, collected wavefunctions

     init_run     :     84.88s CPU     85.72s WALL (       1 calls)
     electrons    :   5825.52s CPU   5919.42s WALL (       1 calls)

     Called by init_run:
     wfcinit      :     41.08s CPU     41.20s WALL (       1 calls)
     potinit      :     41.63s CPU     41.85s WALL (       1 calls)
     hinit0       :      0.31s CPU      0.33s WALL (       1 calls)

     Called by electrons:
     c_bands      :   4858.99s CPU   4888.65s WALL (      53 calls)
     sum_band     :    747.44s CPU    777.11s WALL (      53 calls)
     v_of_rho     :    131.17s CPU    140.46s WALL (      53 calls)
     newd         :     93.38s CPU    118.95s WALL (      53 calls)
     PAW_pot      :     20.79s CPU     20.80s WALL (      53 calls)
     mix_rho      :     15.96s CPU     16.33s WALL (      53 calls)
     vdW_kernel   :     39.43s CPU     39.44s WALL (       1 calls)

     Called by c_bands:
     init_us_2    :     23.05s CPU     23.07s WALL (    3210 calls)
     init_us_2:cp :     23.04s CPU     23.07s WALL (    3210 calls)
     cegterg      :   4629.63s CPU   4658.91s WALL (    1590 calls)

     Called by *egterg:
     cdiaghg      :     12.67s CPU     12.68s WALL (    5138 calls)
     h_psi        :   2544.15s CPU   2555.63s WALL (    5198 calls)
     s_psi        :    771.88s CPU    772.23s WALL (    5198 calls)
     g_psi        :     11.56s CPU     11.57s WALL (    3578 calls)

     Called by h_psi:
     h_psi:calbec :    999.50s CPU    999.79s WALL (    5198 calls)
     vloc_psi     :    767.61s CPU    768.45s WALL (    5198 calls)
     add_vuspsi   :    771.75s CPU    771.98s WALL (    5198 calls)

     General routines
     calbec       :   1448.72s CPU   1449.17s WALL (    6788 calls)
     fft          :     39.13s CPU     39.15s WALL (    3338 calls)
     ffts         :      7.41s CPU      7.42s WALL (    2559 calls)
     fftw         :    716.79s CPU    717.44s WALL (  536478 calls)
     interpolate  :      0.83s CPU      0.83s WALL (      53 calls)

     Parallel routines

     PWSCF        :      1h38m CPU      1h40m WALL


   This run was terminated on:   2:59:39   9Jun2026            

=------------------------------------------------------------------------------=
   JOB DONE.
=------------------------------------------------------------------------------=
Note: The following floating-point exceptions are signalling: IEEE_UNDERFLOW_FLAG IEEE_DENORMAL
