Authorization required, but no authorization protocol specified

Authorization required, but no authorization protocol specified

Authorization required, but no authorization protocol specified

Authorization required, but no authorization protocol specified


     Program PWSCF v.7.3 starts on  8Jun2026 at 23:11:10 

     This program is part of the open-source Quantum ESPRESSO suite
     for quantum simulation of materials; please cite
         "P. Giannozzi et al., J. Phys.:Condens. Matter 21 395502 (2009);
         "P. Giannozzi et al., J. Phys.:Condens. Matter 29 465901 (2017);
         "P. Giannozzi et al., J. Chem. Phys. 152 154105 (2020);
          URL http://www.quantum-espresso.org", 
     in publications or presentations arising from this work. More details at
     http://www.quantum-espresso.org/quote

     Parallel version (MPI), running on     1 processors

     MPI processes distributed on     1 nodes
     88202 MiB available memory on the printing compute node when the environment starts

     Waiting for input...
     Reading input from standard input

     Current dimensions of program PWSCF are:
     Max number of different atomic species (ntypx) = 10
     Max number of k-points (npk) =  40000
     Max angular momentum in pseudopotentials (lmaxx) =  4
     file Mo.pbe-spn-kjpaw_psl.1.0.0.UPF: wavefunction(s)  4S 4D renormalized
     file S.pbe-n-kjpaw_psl.1.0.0.UPF: wavefunction(s)  3S 3P renormalized

     IMPORTANT: XC functional enforced from input :
     Exchange-correlation= VDW-DF2-B86R
                           (   1   4  26   0   2   0   0)
     Any further DFT definition will be discarded
     Please, verify this is what you really want


     Subspace diagonalization in iterative solution of the eigenvalue problem:
     a serial algorithm will be used


     G-vector sticks info
     --------------------
     sticks:   dense  smooth     PW     G-vecs:    dense   smooth      PW
     Sum        1573     769    223               478405   168563   26075

     Using Slab Decomposition



     bravais-lattice index     =            4
     lattice parameter (alat)  =       5.9715  a.u.
     unit-cell volume          =    1750.7440 (a.u.)^3
     number of atoms/cell      =           12
     number of atomic types    =            2
     number of electrons       =       104.00
     number of Kohn-Sham states=           62
     kinetic-energy cutoff     =      80.0000  Ry
     charge density cutoff     =     640.0000  Ry
     scf convergence threshold =      1.0E-08
     mixing beta               =       0.2000
     number of iterations used =            8  local-TF  mixing
     Exchange-correlation= VDW-DF2-B86R
                           (   1   4  26   0   2   0   0)

     celldm(1)=   5.971535  celldm(2)=   0.000000  celldm(3)=   9.493671
     celldm(4)=   0.000000  celldm(5)=   0.000000  celldm(6)=   0.000000

     crystal axes: (cart. coord. in units of alat)
               a(1) = (   1.000000   0.000000   0.000000 )  
               a(2) = (  -0.500000   0.866025   0.000000 )  
               a(3) = (   0.000000   0.000000   9.493671 )  

     reciprocal axes: (cart. coord. in units 2 pi/alat)
               b(1) = (  1.000000  0.577350 -0.000000 )  
               b(2) = (  0.000000  1.154701  0.000000 )  
               b(3) = (  0.000000 -0.000000  0.105333 )  


     PseudoPot. # 1 for Mo read from file:
     ./pseudo/Mo.pbe-spn-kjpaw_psl.1.0.0.UPF
     MD5 check sum: 4396e0c640fcce5c25f020efccf1ab12
     Pseudo is Projector augmented-wave + core cor, Zval = 14.0
     Generated using &quot;atomic&quot; code by A. Dal Corso  v.6.3
     Shape of augmentation charge: PSQ
     Using radial grid of 1229 points,  6 beta functions with: 
                l(1) =   0
                l(2) =   0
                l(3) =   1
                l(4) =   1
                l(5) =   2
                l(6) =   2
     Q(r) pseudized with 0 coefficients 


     PseudoPot. # 2 for S  read from file:
     ./pseudo/S.pbe-n-kjpaw_psl.1.0.0.UPF
     MD5 check sum: fb45dfebcf3e72a4e1bd4a866ec2e262
     Pseudo is Projector augmented-wave + core cor, Zval =  6.0
     Generated using &quot;atomic&quot; code by A. Dal Corso  v.6.3
     Shape of augmentation charge: PSQ
     Using radial grid of 1151 points,  6 beta functions with: 
                l(1) =   0
                l(2) =   0
                l(3) =   1
                l(4) =   1
                l(5) =   2
                l(6) =   2
     Q(r) pseudized with 0 coefficients 


     atomic species   valence    mass     pseudopotential
     Mo               14.00    95.96000     Mo( 1.00)
     S                 6.00    32.06000     S ( 1.00)

      6 Sym. Ops. (no inversion) found



   Cartesian axes

     site n.     atom                  positions (alat units)
         1        S      tau(   1) = (  -0.0000005   0.5773503  -0.9967195  )
         2        Mo     tau(   2) = (   0.0000000   0.0000000  -0.4993332  )
         3        S      tau(   3) = (  -0.0000005   0.5773503  -0.0017175  )
         4        S      tau(   4) = (   0.5000003   0.2886747   0.9835827  )
         5        Mo     tau(   5) = (  -0.0000005   0.5773503   1.4818950  )
         6        S      tau(   6) = (   0.5000003   0.2886747   1.9798512  )
         7        S      tau(   7) = (   0.0000000   0.0000000   2.9586848  )
         8        Mo     tau(   8) = (   0.5000003   0.2886747   3.4569999  )
         9        S      tau(   9) = (   0.0000000   0.0000000   3.9548385  )
        10        S      tau(  10) = (  -0.0000005   0.5773503   5.9334198  )
        11        Mo     tau(  11) = (   0.0000000   0.0000000   6.4310564  )
        12        S      tau(  12) = (  -0.0000005   0.5773503   6.9281906  )

     number of k points=    30  Methfessel-Paxton smearing, width (Ry)=  0.0200
                       cart. coord. in units 2pi/alat
        k(    1) = (   0.0000000   0.0000000   0.0000000), wk =   0.0078125
        k(    2) = (   0.0000000   0.0721688   0.0000000), wk =   0.0468750
        k(    3) = (   0.0000000   0.1443376   0.0000000), wk =   0.0468750
        k(    4) = (   0.0000000   0.2165064   0.0000000), wk =   0.0468750
        k(    5) = (   0.0000000   0.2886751   0.0000000), wk =   0.0468750
        k(    6) = (   0.0000000   0.3608439   0.0000000), wk =   0.0468750
        k(    7) = (   0.0000000   0.4330127   0.0000000), wk =   0.0468750
        k(    8) = (   0.0000000   0.5051815   0.0000000), wk =   0.0468750
        k(    9) = (   0.0000000  -0.5773503   0.0000000), wk =   0.0234375
        k(   10) = (   0.0625000   0.1082532   0.0000000), wk =   0.0468750
        k(   11) = (   0.0625000   0.1804220   0.0000000), wk =   0.0937500
        k(   12) = (   0.0625000   0.2525907   0.0000000), wk =   0.0937500
        k(   13) = (   0.0625000   0.3247595   0.0000000), wk =   0.0937500
        k(   14) = (   0.0625000   0.3969283   0.0000000), wk =   0.0937500
        k(   15) = (   0.0625000   0.4690971   0.0000000), wk =   0.0937500
        k(   16) = (   0.0625000   0.5412659   0.0000000), wk =   0.0937500
        k(   17) = (   0.1250000   0.2165064   0.0000000), wk =   0.0468750
        k(   18) = (   0.1250000   0.2886751   0.0000000), wk =   0.0937500
        k(   19) = (   0.1250000   0.3608439   0.0000000), wk =   0.0937500
        k(   20) = (   0.1250000   0.4330127   0.0000000), wk =   0.0937500
        k(   21) = (   0.1250000   0.5051815   0.0000000), wk =   0.0937500
        k(   22) = (   0.1250000   0.5773503   0.0000000), wk =   0.0468750
        k(   23) = (   0.1875000   0.3247595   0.0000000), wk =   0.0468750
        k(   24) = (   0.1875000   0.3969283   0.0000000), wk =   0.0937500
        k(   25) = (   0.1875000   0.4690971   0.0000000), wk =   0.0937500
        k(   26) = (   0.1875000   0.5412659   0.0000000), wk =   0.0937500
        k(   27) = (   0.2500000   0.4330127   0.0000000), wk =   0.0468750
        k(   28) = (   0.2500000   0.5051815   0.0000000), wk =   0.0937500
        k(   29) = (   0.2500000   0.5773503   0.0000000), wk =   0.0468750
        k(   30) = (   0.3125000   0.5412659   0.0000000), wk =   0.0468750

     Dense  grid:   478405 G-vectors     FFT dimensions: (  50,  50, 480)

     Smooth grid:   168563 G-vectors     FFT dimensions: (  36,  36, 324)

     Estimated max dynamical RAM per process >       2.35 GB

     Initial potential from superposition of free atoms

     starting charge     103.9962, renormalised to     104.0000


     %%%%%%%%%%%%%%%%%%%%%%%%%%%%%%%%%%%%%%%%%%%%%%%%%%%%%%%%%%%%%%%%%%%%%%%%
     %                                                                      %
     % You are using vdW-DF, which was implemented by the Thonhauser group. %
     % Please cite the following two papers that made this development      %
     % possible and the two reviews that describe the various versions:     %
     %                                                                      %
     %   T. Thonhauser et al., PRL 115, 136402 (2015).                      %
     %   T. Thonhauser et al., PRB 76, 125112 (2007).                       %
     %   K. Berland et al., Rep. Prog. Phys. 78, 066501 (2015).             %
     %   D.C. Langreth et al., J. Phys.: Condens. Matter 21, 084203 (2009). %
     %                                                                      %
     % If you are calculating stress with vdW-DF, please also cite:         %
     %                                                                      %
     %   R. Sabatini et al., J. Phys.: Condens. Matter 24, 424209 (2012).   %
     %                                                                      %
     %%%%%%%%%%%%%%%%%%%%%%%%%%%%%%%%%%%%%%%%%%%%%%%%%%%%%%%%%%%%%%%%%%%%%%%%

     %%%%%%%%%%%%%%%%%%%%%%%%%%%%%%%%%%%%%%%%%%%%%%%%%%%%%%%%%%%%%%%%%%%%%%%%
     %                                                                      %
     %  vdW-DF NEWS:                                                        %
     %                                                                      %
     %  * vdW-DF3 is now available. DOI: 10.1021/acs.jctc.0c00471           %
     %    use with input_dft = 'vdW-DF3-opt1' or 'vdW-DF3-opt2'             %
     %                                                                      %
     %  * Unscreened and range-separated hybrid vdW-DF-cx functionals       %
     %    DOI: 10.1063/1.4986522 and 10.1088/1361-648X/ac2ad2               %
     %    use with input_dft = 'vdW-DF-cx0'    and 'vdW-DF-ahcx'            %
     %  * Unscreened and range-separated hybrid vdW-DF2-b86r functionals    %
     %    DOI: 10.1063/1.4986522 and DOI: 10.1103/PhysRevX.12.041003        %
     %    use with input_dft = 'vdW-DF2-br0' and 'vdW-DF2-ahbr'             %
     %                                                                      %
     %%%%%%%%%%%%%%%%%%%%%%%%%%%%%%%%%%%%%%%%%%%%%%%%%%%%%%%%%%%%%%%%%%%%%%%%


     Starting wfcs are   72 randomized atomic wfcs
     Checking if some PAW data can be deallocated... 

     total cpu time spent up to now is       85.4 secs

     Self-consistent Calculation

     iteration #  1     ecut=    80.00 Ry     beta= 0.20
     Davidson diagonalization with overlap
     ethr =  1.00E-02,  avg # of iterations =  2.2

     Threshold (ethr) on eigenvalues was too large:
     Diagonalizing with lowered threshold

     Davidson diagonalization with overlap
     ethr =  3.07E-04,  avg # of iterations =  3.1

     total cpu time spent up to now is      340.4 secs

     total energy              =   -1978.45884038 Ry
     estimated scf accuracy    <       0.43717603 Ry

     iteration #  2     ecut=    80.00 Ry     beta= 0.20
     Davidson diagonalization with overlap
     ethr =  4.20E-04,  avg # of iterations =  1.0

     total cpu time spent up to now is      439.1 secs

     total energy              =   -1978.28031552 Ry
     estimated scf accuracy    <       0.36532655 Ry

     iteration #  3     ecut=    80.00 Ry     beta= 0.20
     Davidson diagonalization with overlap
     ethr =  3.51E-04,  avg # of iterations =  2.0

     total cpu time spent up to now is      570.7 secs

     total energy              =   -1978.36023218 Ry
     estimated scf accuracy    <       0.04911182 Ry

     iteration #  4     ecut=    80.00 Ry     beta= 0.20
     Davidson diagonalization with overlap
     ethr =  4.72E-05,  avg # of iterations =  2.2

     total cpu time spent up to now is      698.1 secs

     total energy              =   -1978.36354419 Ry
     estimated scf accuracy    <       0.01630198 Ry

     iteration #  5     ecut=    80.00 Ry     beta= 0.20
     Davidson diagonalization with overlap
     ethr =  1.57E-05,  avg # of iterations =  4.6

     total cpu time spent up to now is      821.6 secs

     total energy              =   -1978.36456741 Ry
     estimated scf accuracy    <       0.00411481 Ry

     iteration #  6     ecut=    80.00 Ry     beta= 0.20
     Davidson diagonalization with overlap
     c_bands:  1 eigenvalues not converged
     ethr =  3.96E-06,  avg # of iterations =  5.7

     total cpu time spent up to now is      938.2 secs

     total energy              =   -1978.36340245 Ry
     estimated scf accuracy    <       0.00285368 Ry

     iteration #  7     ecut=    80.00 Ry     beta= 0.20
     Davidson diagonalization with overlap
     ethr =  2.74E-06,  avg # of iterations =  5.4

     total cpu time spent up to now is     1098.9 secs

     total energy              =   -1978.36288020 Ry
     estimated scf accuracy    <       0.00860818 Ry

     iteration #  8     ecut=    80.00 Ry     beta= 0.20
     Davidson diagonalization with overlap
     ethr =  2.74E-06,  avg # of iterations =  3.1

     total cpu time spent up to now is     1225.2 secs

     total energy              =   -1978.36349898 Ry
     estimated scf accuracy    <       0.00073584 Ry

     iteration #  9     ecut=    80.00 Ry     beta= 0.20
     Davidson diagonalization with overlap
     ethr =  7.08E-07,  avg # of iterations =  8.1

     total cpu time spent up to now is     1369.9 secs

     total energy              =   -1978.36369495 Ry
     estimated scf accuracy    <       0.00105475 Ry

     iteration # 10     ecut=    80.00 Ry     beta= 0.20
     Davidson diagonalization with overlap
     ethr =  7.08E-07,  avg # of iterations =  2.1

     total cpu time spent up to now is     1481.6 secs

     total energy              =   -1978.36373360 Ry
     estimated scf accuracy    <       0.00095533 Ry

     iteration # 11     ecut=    80.00 Ry     beta= 0.20
     Davidson diagonalization with overlap
     ethr =  7.08E-07,  avg # of iterations =  1.0

     total cpu time spent up to now is     1580.4 secs

     total energy              =   -1978.36375530 Ry
     estimated scf accuracy    <       0.00096190 Ry

     iteration # 12     ecut=    80.00 Ry     beta= 0.20
     Davidson diagonalization with overlap
     ethr =  7.08E-07,  avg # of iterations =  1.0

     total cpu time spent up to now is     1679.2 secs

     total energy              =   -1978.36336725 Ry
     estimated scf accuracy    <       0.00103330 Ry

     iteration # 13     ecut=    80.00 Ry     beta= 0.20
     Davidson diagonalization with overlap
     ethr =  7.08E-07,  avg # of iterations =  4.0

     total cpu time spent up to now is     1810.2 secs

     total energy              =   -1978.36370162 Ry
     estimated scf accuracy    <       0.00053212 Ry

     iteration # 14     ecut=    80.00 Ry     beta= 0.20
     Davidson diagonalization with overlap
     ethr =  5.12E-07,  avg # of iterations =  1.0

     total cpu time spent up to now is     1909.2 secs

     total energy              =   -1978.36364000 Ry
     estimated scf accuracy    <       0.00058665 Ry

     iteration # 15     ecut=    80.00 Ry     beta= 0.20
     Davidson diagonalization with overlap
     ethr =  5.12E-07,  avg # of iterations =  1.9

     total cpu time spent up to now is     2019.1 secs

     total energy              =   -1978.36356032 Ry
     estimated scf accuracy    <       0.00028247 Ry

     iteration # 16     ecut=    80.00 Ry     beta= 0.20
     Davidson diagonalization with overlap
     ethr =  2.72E-07,  avg # of iterations =  2.0

     total cpu time spent up to now is     2144.5 secs

     total energy              =   -1978.36369396 Ry
     estimated scf accuracy    <       0.00007622 Ry

     iteration # 17     ecut=    80.00 Ry     beta= 0.20
     Davidson diagonalization with overlap
     ethr =  7.33E-08,  avg # of iterations =  5.2

     total cpu time spent up to now is     2310.1 secs

     total energy              =   -1978.36347851 Ry
     estimated scf accuracy    <       0.00079293 Ry

     iteration # 18     ecut=    80.00 Ry     beta= 0.20
     Davidson diagonalization with overlap
     ethr =  7.33E-08,  avg # of iterations =  4.7

     total cpu time spent up to now is     2474.1 secs

     total energy              =   -1978.36361469 Ry
     estimated scf accuracy    <       0.00009764 Ry

     iteration # 19     ecut=    80.00 Ry     beta= 0.20
     Davidson diagonalization with overlap
     ethr =  7.33E-08,  avg # of iterations =  2.0

     total cpu time spent up to now is     2586.7 secs

     total energy              =   -1978.36360129 Ry
     estimated scf accuracy    <       0.00009225 Ry

     iteration # 20     ecut=    80.00 Ry     beta= 0.20
     Davidson diagonalization with overlap
     ethr =  7.33E-08,  avg # of iterations =  2.1

     total cpu time spent up to now is     2712.1 secs

     total energy              =   -1978.36361369 Ry
     estimated scf accuracy    <       0.00010597 Ry

     iteration # 21     ecut=    80.00 Ry     beta= 0.20
     Davidson diagonalization with overlap
     ethr =  7.33E-08,  avg # of iterations =  2.0

     total cpu time spent up to now is     2822.5 secs

     total energy              =   -1978.36359602 Ry
     estimated scf accuracy    <       0.00009724 Ry

     iteration # 22     ecut=    80.00 Ry     beta= 0.20
     Davidson diagonalization with overlap
     ethr =  7.33E-08,  avg # of iterations =  2.0

     total cpu time spent up to now is     2933.5 secs

     total energy              =   -1978.36359372 Ry
     estimated scf accuracy    <       0.00003170 Ry

     iteration # 23     ecut=    80.00 Ry     beta= 0.20
     Davidson diagonalization with overlap
     ethr =  3.05E-08,  avg # of iterations =  2.0

     total cpu time spent up to now is     3058.5 secs

     total energy              =   -1978.36359580 Ry
     estimated scf accuracy    <       0.00001833 Ry

     iteration # 24     ecut=    80.00 Ry     beta= 0.20
     Davidson diagonalization with overlap
     ethr =  1.76E-08,  avg # of iterations =  2.4

     total cpu time spent up to now is     3175.9 secs

     total energy              =   -1978.36359550 Ry
     estimated scf accuracy    <       0.00001315 Ry

     iteration # 25     ecut=    80.00 Ry     beta= 0.20
     Davidson diagonalization with overlap
     ethr =  1.26E-08,  avg # of iterations =  1.2

     total cpu time spent up to now is     3276.8 secs

     total energy              =   -1978.36359486 Ry
     estimated scf accuracy    <       0.00000955 Ry

     iteration # 26     ecut=    80.00 Ry     beta= 0.20
     Davidson diagonalization with overlap
     ethr =  9.18E-09,  avg # of iterations =  2.0

     total cpu time spent up to now is     3399.1 secs

     total energy              =   -1978.36359510 Ry
     estimated scf accuracy    <       0.00000922 Ry

     iteration # 27     ecut=    80.00 Ry     beta= 0.20
     Davidson diagonalization with overlap
     ethr =  8.87E-09,  avg # of iterations =  1.0

     total cpu time spent up to now is     3498.2 secs

     total energy              =   -1978.36359410 Ry
     estimated scf accuracy    <       0.00000683 Ry

     iteration # 28     ecut=    80.00 Ry     beta= 0.20
     Davidson diagonalization with overlap
     ethr =  6.57E-09,  avg # of iterations =  3.8

     total cpu time spent up to now is     3637.2 secs

     total energy              =   -1978.36359518 Ry
     estimated scf accuracy    <       0.00002035 Ry

     iteration # 29     ecut=    80.00 Ry     beta= 0.20
     Davidson diagonalization with overlap
     ethr =  6.57E-09,  avg # of iterations =  2.0

     total cpu time spent up to now is     3747.3 secs

     total energy              =   -1978.36359620 Ry
     estimated scf accuracy    <       0.00001072 Ry

     iteration # 30     ecut=    80.00 Ry     beta= 0.20
     Davidson diagonalization with overlap
     ethr =  6.57E-09,  avg # of iterations =  1.0

     total cpu time spent up to now is     3846.6 secs

     total energy              =   -1978.36359833 Ry
     estimated scf accuracy    <       0.00001239 Ry

     iteration # 31     ecut=    80.00 Ry     beta= 0.20
     Davidson diagonalization with overlap
     ethr =  6.57E-09,  avg # of iterations =  2.0

     total cpu time spent up to now is     3959.2 secs

     total energy              =   -1978.36359117 Ry
     estimated scf accuracy    <       0.00002495 Ry

     iteration # 32     ecut=    80.00 Ry     beta= 0.20
     Davidson diagonalization with overlap
     ethr =  6.57E-09,  avg # of iterations =  3.2

     total cpu time spent up to now is     4088.0 secs

     total energy              =   -1978.36359411 Ry
     estimated scf accuracy    <       0.00000447 Ry

     iteration # 33     ecut=    80.00 Ry     beta= 0.20
     Davidson diagonalization with overlap
     ethr =  4.30E-09,  avg # of iterations =  1.0

     total cpu time spent up to now is     4188.0 secs

     total energy              =   -1978.36359362 Ry
     estimated scf accuracy    <       0.00000416 Ry

     iteration # 34     ecut=    80.00 Ry     beta= 0.20
     Davidson diagonalization with overlap
     ethr =  4.00E-09,  avg # of iterations =  2.0

     total cpu time spent up to now is     4299.3 secs

     total energy              =   -1978.36359331 Ry
     estimated scf accuracy    <       0.00000389 Ry

     iteration # 35     ecut=    80.00 Ry     beta= 0.20
     Davidson diagonalization with overlap
     ethr =  3.74E-09,  avg # of iterations =  2.6

     total cpu time spent up to now is     4423.1 secs

     total energy              =   -1978.36359312 Ry
     estimated scf accuracy    <       0.00000408 Ry

     iteration # 36     ecut=    80.00 Ry     beta= 0.20
     Davidson diagonalization with overlap
     ethr =  3.74E-09,  avg # of iterations =  2.0

     total cpu time spent up to now is     4534.1 secs

     total energy              =   -1978.36359287 Ry
     estimated scf accuracy    <       0.00000222 Ry

     iteration # 37     ecut=    80.00 Ry     beta= 0.20
     Davidson diagonalization with overlap
     ethr =  2.13E-09,  avg # of iterations =  2.4

     total cpu time spent up to now is     4654.6 secs

     total energy              =   -1978.36359270 Ry
     estimated scf accuracy    <       0.00000159 Ry

     iteration # 38     ecut=    80.00 Ry     beta= 0.20
     Davidson diagonalization with overlap
     ethr =  1.53E-09,  avg # of iterations =  2.0

     total cpu time spent up to now is     4778.0 secs

     total energy              =   -1978.36359280 Ry
     estimated scf accuracy    <       0.00000086 Ry

     iteration # 39     ecut=    80.00 Ry     beta= 0.20
     Davidson diagonalization with overlap
     ethr =  8.25E-10,  avg # of iterations =  2.4

     total cpu time spent up to now is     4904.3 secs

     total energy              =   -1978.36359276 Ry
     estimated scf accuracy    <       0.00000127 Ry

     iteration # 40     ecut=    80.00 Ry     beta= 0.20
     Davidson diagonalization with overlap
     ethr =  8.25E-10,  avg # of iterations =  1.4

     total cpu time spent up to now is     5007.6 secs

     total energy              =   -1978.36359271 Ry
     estimated scf accuracy    <       0.00000061 Ry

     iteration # 41     ecut=    80.00 Ry     beta= 0.20
     Davidson diagonalization with overlap
     ethr =  5.83E-10,  avg # of iterations =  2.0

     total cpu time spent up to now is     5127.7 secs

     total energy              =   -1978.36359275 Ry
     estimated scf accuracy    <       0.00000050 Ry

     iteration # 42     ecut=    80.00 Ry     beta= 0.20
     Davidson diagonalization with overlap
     ethr =  4.80E-10,  avg # of iterations =  1.0

     total cpu time spent up to now is     5226.6 secs

     total energy              =   -1978.36359275 Ry
     estimated scf accuracy    <       0.00000046 Ry

     iteration # 43     ecut=    80.00 Ry     beta= 0.20
     Davidson diagonalization with overlap
     ethr =  4.40E-10,  avg # of iterations =  1.0

     total cpu time spent up to now is     5325.3 secs

     total energy              =   -1978.36359275 Ry
     estimated scf accuracy    <       0.00000045 Ry

     iteration # 44     ecut=    80.00 Ry     beta= 0.20
     Davidson diagonalization with overlap
     ethr =  4.35E-10,  avg # of iterations =  1.0

     total cpu time spent up to now is     5424.6 secs

     total energy              =   -1978.36359276 Ry
     estimated scf accuracy    <       0.00000049 Ry

     iteration # 45     ecut=    80.00 Ry     beta= 0.20
     Davidson diagonalization with overlap
     ethr =  4.35E-10,  avg # of iterations =  1.0

     total cpu time spent up to now is     5523.6 secs

     total energy              =   -1978.36359274 Ry
     estimated scf accuracy    <       0.00000049 Ry

     iteration # 46     ecut=    80.00 Ry     beta= 0.20
     Davidson diagonalization with overlap
     ethr =  4.35E-10,  avg # of iterations =  1.0

     total cpu time spent up to now is     5622.5 secs

     total energy              =   -1978.36359274 Ry
     estimated scf accuracy    <       0.00000050 Ry

     iteration # 47     ecut=    80.00 Ry     beta= 0.20
     Davidson diagonalization with overlap
     ethr =  4.35E-10,  avg # of iterations =  1.0

     total cpu time spent up to now is     5721.3 secs

     total energy              =   -1978.36359275 Ry
     estimated scf accuracy    <       0.00000050 Ry

     iteration # 48     ecut=    80.00 Ry     beta= 0.20
     Davidson diagonalization with overlap
     ethr =  4.35E-10,  avg # of iterations =  1.1

     total cpu time spent up to now is     5820.8 secs

     total energy              =   -1978.36359273 Ry
     estimated scf accuracy    <       0.00000046 Ry

     iteration # 49     ecut=    80.00 Ry     beta= 0.20
     Davidson diagonalization with overlap
     ethr =  4.35E-10,  avg # of iterations =  1.1

     total cpu time spent up to now is     5920.7 secs

     total energy              =   -1978.36359274 Ry
     estimated scf accuracy    <       0.00000052 Ry

     iteration # 50     ecut=    80.00 Ry     beta= 0.20
     Davidson diagonalization with overlap
     ethr =  4.35E-10,  avg # of iterations =  1.0

     total cpu time spent up to now is     6019.7 secs

     total energy              =   -1978.36359273 Ry
     estimated scf accuracy    <       0.00000049 Ry

     iteration # 51     ecut=    80.00 Ry     beta= 0.20
     Davidson diagonalization with overlap
     ethr =  4.35E-10,  avg # of iterations =  1.0

     total cpu time spent up to now is     6119.0 secs

     total energy              =   -1978.36359273 Ry
     estimated scf accuracy    <       0.00000059 Ry

     iteration # 52     ecut=    80.00 Ry     beta= 0.20
     Davidson diagonalization with overlap
     ethr =  4.35E-10,  avg # of iterations =  1.3

     total cpu time spent up to now is     6221.7 secs

     total energy              =   -1978.36359274 Ry
     estimated scf accuracy    <       0.00000051 Ry

     iteration # 53     ecut=    80.00 Ry     beta= 0.20
     Davidson diagonalization with overlap
     ethr =  4.35E-10,  avg # of iterations =  1.7

     total cpu time spent up to now is     6328.5 secs

     total energy              =   -1978.36359279 Ry
     estimated scf accuracy    <       0.00000049 Ry

     iteration # 54     ecut=    80.00 Ry     beta= 0.20
     Davidson diagonalization with overlap
     ethr =  4.35E-10,  avg # of iterations =  1.8

     total cpu time spent up to now is     6436.1 secs

     total energy              =   -1978.36359276 Ry
     estimated scf accuracy    <       0.00000082 Ry

     iteration # 55     ecut=    80.00 Ry     beta= 0.20
     Davidson diagonalization with overlap
     ethr =  4.35E-10,  avg # of iterations =  1.2

     total cpu time spent up to now is     6537.5 secs

     total energy              =   -1978.36359274 Ry
     estimated scf accuracy    <       0.00000063 Ry

     iteration # 56     ecut=    80.00 Ry     beta= 0.20
     Davidson diagonalization with overlap
     ethr =  4.35E-10,  avg # of iterations =  1.1

     total cpu time spent up to now is     6637.2 secs

     total energy              =   -1978.36359276 Ry
     estimated scf accuracy    <       0.00000056 Ry

     iteration # 57     ecut=    80.00 Ry     beta= 0.20
     Davidson diagonalization with overlap
     ethr =  4.35E-10,  avg # of iterations =  1.2

     total cpu time spent up to now is     6738.3 secs

     total energy              =   -1978.36359272 Ry
     estimated scf accuracy    <       0.00000052 Ry

     iteration # 58     ecut=    80.00 Ry     beta= 0.20
     Davidson diagonalization with overlap
     ethr =  4.35E-10,  avg # of iterations =  1.0

     total cpu time spent up to now is     6837.8 secs

     total energy              =   -1978.36359270 Ry
     estimated scf accuracy    <       0.00000041 Ry

     iteration # 59     ecut=    80.00 Ry     beta= 0.20
     Davidson diagonalization with overlap
     ethr =  3.99E-10,  avg # of iterations =  1.0

     total cpu time spent up to now is     6936.9 secs

     total energy              =   -1978.36359266 Ry
     estimated scf accuracy    <       0.00000038 Ry

     iteration # 60     ecut=    80.00 Ry     beta= 0.20
     Davidson diagonalization with overlap
     ethr =  3.65E-10,  avg # of iterations =  1.1

     total cpu time spent up to now is     7036.5 secs

     total energy              =   -1978.36359263 Ry
     estimated scf accuracy    <       0.00000032 Ry

     iteration # 61     ecut=    80.00 Ry     beta= 0.20
     Davidson diagonalization with overlap
     ethr =  3.04E-10,  avg # of iterations =  1.3

     total cpu time spent up to now is     7138.7 secs

     total energy              =   -1978.36359262 Ry
     estimated scf accuracy    <       0.00000028 Ry

     iteration # 62     ecut=    80.00 Ry     beta= 0.20
     Davidson diagonalization with overlap
     ethr =  2.73E-10,  avg # of iterations =  1.4

     total cpu time spent up to now is     7242.1 secs

     total energy              =   -1978.36359256 Ry
     estimated scf accuracy    <       0.00000022 Ry

     iteration # 63     ecut=    80.00 Ry     beta= 0.20
     Davidson diagonalization with overlap
     ethr =  2.12E-10,  avg # of iterations =  2.0

     total cpu time spent up to now is     7357.1 secs

     total energy              =   -1978.36359252 Ry
     estimated scf accuracy    <       0.00000017 Ry

     iteration # 64     ecut=    80.00 Ry     beta= 0.20
     Davidson diagonalization with overlap
     ethr =  1.59E-10,  avg # of iterations =  2.0

     total cpu time spent up to now is     7470.8 secs

     total energy              =   -1978.36359253 Ry
     estimated scf accuracy    <       0.00000002 Ry

     iteration # 65     ecut=    80.00 Ry     beta= 0.20
     Davidson diagonalization with overlap
     ethr =  1.97E-11,  avg # of iterations =  4.4

     total cpu time spent up to now is     7600.3 secs

     total energy              =   -1978.36359254 Ry
     estimated scf accuracy    <       0.00000001 Ry

     iteration # 66     ecut=    80.00 Ry     beta= 0.20
     Davidson diagonalization with overlap
     ethr =  1.28E-11,  avg # of iterations =  1.5

     total cpu time spent up to now is     7703.3 secs

     End of self-consistent calculation

          k = 0.0000 0.0000 0.0000 ( 21311 PWs)   bands (ev):

   -53.4992 -53.4593 -53.4477 -53.4178 -27.6732 -27.6339 -27.6215 -27.5921
   -27.4358 -27.4358 -27.3958 -27.3958 -27.3856 -27.3856 -27.3554 -27.3554
    -6.8476  -6.7523  -6.7221  -6.6588  -5.6138  -5.4576  -5.4347  -5.3266
     1.3518   1.6833   1.7519   2.0365   4.7783   4.7783   4.7869   4.8159
     4.8159   4.8204   4.8204   4.8493   4.8493   5.4199   5.5190   5.8926
     5.8926   5.9301   5.9302   5.9398   5.9398   5.9681   5.9681   6.2157
     6.9799   7.2711   7.5264   7.8515  10.1222  10.1222  10.1691  10.1691
    10.1998  10.1998  10.2204  10.2204  10.3352  10.3352

          k = 0.0000 0.0722 0.0000 ( 21283 PWs)   bands (ev):

   -53.4977 -53.4578 -53.4462 -53.4162 -27.6701 -27.6308 -27.6184 -27.5891
   -27.4513 -27.4393 -27.4114 -27.4011 -27.3994 -27.3891 -27.3709 -27.3589
    -6.7880  -6.6930  -6.6627  -6.5996  -5.5861  -5.4323  -5.4098  -5.3035
     1.4207   1.7509   1.8210   2.1044   4.6395   4.6532   4.6803   4.6860
     4.7153   4.8405   4.8781   4.8829   4.9118   5.1742   5.2329   5.5691
     5.7953   5.8334   5.8432   5.8719   5.9927   6.0918   6.1370   6.4564
     6.9823   7.2522   7.4917   7.7714  10.0483  10.0881  10.1072  10.1357
    10.1810  10.2060  10.2199  10.2406  10.2517  10.2810

          k = 0.0000 0.1443 0.0000 ( 21263 PWs)   bands (ev):

   -53.4932 -53.4533 -53.4417 -53.4118 -27.6615 -27.6222 -27.6097 -27.5804
   -27.4954 -27.4554 -27.4494 -27.4452 -27.4150 -27.4094 -27.3991 -27.3690
    -6.6140  -6.5202  -6.4896  -6.4274  -5.5055  -5.3587  -5.3373  -5.2363
     1.6125   1.9368   2.0117   2.2896   4.2888   4.3252   4.3380   4.3402
     4.3759   4.7435   4.7777   5.0196   5.0532   5.0572   5.0631   5.0920
     5.5438   5.5830   5.5931   5.6227   6.0514   6.2263   6.2979   6.6072
     6.9531   7.1621   7.3375   7.5135   9.7565   9.8257   9.8527   9.9216
     9.9598  10.0080  10.0604  10.0628  10.1082  10.1364

          k = 0.0000 0.2165 0.0000 ( 21233 PWs)   bands (ev):

   -53.4866 -53.4467 -53.4351 -53.4051 -27.6485 -27.6092 -27.5967 -27.5674
   -27.5608 -27.5208 -27.5107 -27.4805 -27.4644 -27.4244 -27.4141 -27.3840
    -6.3404  -6.2491  -6.2182  -6.1581  -5.3790  -5.2436  -5.2240  -5.1316
     1.8723   2.1779   2.2589   2.5161   3.8509   3.8926   3.9176   3.9194
     3.9942   4.2710   4.3015   4.5078   5.2169   5.2557   5.2696   5.2906
     5.3015   5.3345   5.3381   5.3688   5.9640   6.1792   6.2452   6.5248
     6.8097   6.9382   7.0162   7.1030   9.3751   9.5260   9.5792   9.8136
     9.8422   9.9223   9.9512   9.9521  10.0016  10.0420

          k = 0.0000 0.2887 0.0000 ( 21197 PWs)   bands (ev):

   -53.4787 -53.4388 -53.4272 -53.3973 -27.6370 -27.6332 -27.5971 -27.5938
   -27.5870 -27.5814 -27.5569 -27.5520 -27.4820 -27.4420 -27.4318 -27.4016
    -5.9928  -5.9063  -5.8750  -5.8187  -5.2191  -5.0995  -5.0818  -5.0010
     2.0724   2.3208   2.3964   2.5810   3.4485   3.5186   3.5844   3.6045
     3.6749   3.7860   3.8551   3.9682   4.8888   4.9301   4.9418   4.9725
     5.6168   5.6584   5.6677   5.6994   5.7489   5.9825   6.0352   6.2808
     6.5365   6.6155   6.6337   6.6913   9.2408   9.4526   9.5079   9.6541
     9.7321   9.7591   9.8089   9.8092  10.1701  10.2997

          k = 0.0000 0.3608 0.0000 ( 21187 PWs)   bands (ev):

   -53.4709 -53.4310 -53.4194 -53.3894 -27.7124 -27.6725 -27.6625 -27.6324
   -27.6178 -27.5785 -27.5660 -27.5366 -27.4995 -27.4595 -27.4493 -27.4191
    -5.6094  -5.5309  -5.4996  -5.4497  -5.0451  -4.9448  -4.9287  -4.8621
     2.0361   2.1886   2.2412   2.3286   3.0837   3.2046   3.3169   3.3698
     3.4422   3.5226   3.5698   3.6621   4.6002   4.6425   4.6543   4.6857
     5.5142   5.7467   5.7958   5.9350   5.9836   5.9960   6.0056   6.0318
     6.3179   6.3941   6.4048   6.4604   9.3578   9.5513   9.5751   9.6188
     9.6204   9.6426   9.6873   9.8999  10.5023  10.6517

          k = 0.0000 0.4330 0.0000 ( 21140 PWs)   bands (ev):

   -53.4642 -53.4243 -53.4127 -53.3827 -27.7757 -27.7358 -27.7258 -27.6957
   -27.6047 -27.5654 -27.5528 -27.5235 -27.5143 -27.4744 -27.4642 -27.4340
    -5.2449  -5.1783  -5.1472  -5.1069  -4.8829  -4.8043  -4.7888  -4.7375
     1.8043   1.8942   1.9376   1.9778   2.7464   2.8558   2.9226   2.9746
     3.3325   3.4523   3.4727   3.5806   4.3794   4.4222   4.4342   4.4660
     5.3393   5.5601   5.6105   5.7902   6.1879   6.2478   6.2632   6.3056
     6.3362   6.4317   6.4434   6.5147   9.5467   9.5998   9.6196   9.6196
     9.6564   9.7991   9.8328  10.0380  10.8127  10.9719

          k = 0.0000 0.5052 0.0000 ( 21078 PWs)   bands (ev):

   -53.4597 -53.4198 -53.4082 -53.3782 -27.8176 -27.7777 -27.7678 -27.7376
   -27.5959 -27.5566 -27.5441 -27.5242 -27.5147 -27.4843 -27.4741 -27.4439
    -4.9718  -4.9187  -4.8884  -4.8591  -4.7638  -4.7063  -4.6891  -4.6512
     1.5768   1.6411   1.6860   1.7095   2.5099   2.5928   2.6553   2.6933
     3.2290   3.3465   3.3739   3.4676   4.2416   4.2848   4.2969   4.3289
     5.2441   5.4532   5.5023   5.6593   6.3409   6.4116   6.4292   6.4782
     6.5241   6.6195   6.6386   6.7033   9.5967   9.6395   9.6552   9.6865
     9.9119  10.0308  10.0571  10.1707  11.0055  11.1540

          k = 0.0000-0.5774 0.0000 ( 21006 PWs)   bands (ev):

   -53.4581 -53.4182 -53.4066 -53.3767 -27.8322 -27.7923 -27.7824 -27.7523
   -27.5929 -27.5535 -27.5410 -27.5277 -27.5116 -27.4877 -27.4775 -27.4473
    -4.8675  -4.8215  -4.7920  -4.7685  -4.7192  -4.6719  -4.6528  -4.6206
     1.4852   1.5436   1.5899   1.6099   2.4253   2.4967   2.5605   2.5940
     3.1809   3.2975   3.3250   3.4152   4.1949   4.2382   4.2503   4.2824
     5.2156   5.4193   5.4674   5.6152   6.3905   6.4656   6.4841   6.5357
     6.6409   6.7177   6.7437   6.7906   9.6256   9.6659   9.6797   9.7096
    10.0682  10.1430  10.1641  10.2143  11.0656  11.2033

          k = 0.0625 0.1083 0.0000 ( 21269 PWs)   bands (ev):

   -53.4947 -53.4548 -53.4432 -53.4132 -27.6643 -27.6250 -27.6126 -27.5832
   -27.4807 -27.4466 -27.4407 -27.4305 -27.4066 -27.4003 -27.3963 -27.3661
    -6.6711  -6.5769  -6.5464  -6.4839  -5.5320  -5.3828  -5.3611  -5.2583
     1.5515   1.8782   1.9515   2.2318   4.3996   4.4335   4.4423   4.4480
     4.4795   4.8766   4.9164   4.9594   4.9970   5.0022   5.0308   5.2181
     5.5805   5.6181   5.6287   5.6569   6.0884   6.2391   6.3074   6.6110
     6.9701   7.1981   7.3988   7.6022   9.8830   9.9134   9.9281   9.9601
     9.9766  10.0257  10.0334  10.1030  10.1359  10.1984

          k = 0.0625 0.1804 0.0000 ( 21194 PWs)   bands (ev):

   -53.4891 -53.4492 -53.4376 -53.4077 -27.6535 -27.6142 -27.6017 -27.5724
   -27.5342 -27.4942 -27.4841 -27.4603 -27.4539 -27.4203 -27.4101 -27.3799
    -6.4472  -6.3548  -6.3240  -6.2630  -5.4282  -5.2883  -5.2680  -5.1721
     1.7814   2.0971   2.1763   2.4453   4.0156   4.0516   4.0698   4.0826
     4.1440   4.4829   4.5129   4.7593   5.1748   5.2038   5.2200   5.2239
     5.2407   5.2614   5.2631   5.2915   6.1392   6.3174   6.3901   6.6515
     6.8865   7.0401   7.1601   7.2643   9.4854   9.6044   9.6447   9.8041
     9.8455   9.9095   9.9282   9.9760  10.0134  10.0198

          k = 0.0625 0.2526 0.0000 ( 21202 PWs)   bands (ev):

   -53.4819 -53.4420 -53.4304 -53.4004 -27.6393 -27.6034 -27.6000 -27.5875
   -27.5634 -27.5582 -27.5533 -27.5231 -27.4782 -27.4383 -27.4280 -27.3978
    -6.1360  -6.0473  -6.0161  -5.9580  -5.2844  -5.1581  -5.1396  -5.0538
     2.0250   2.3062   2.3877   2.6142   3.6204   3.6691   3.7045   3.7097
     3.8144   4.0361   4.0768   4.2354   4.8363   4.8801   4.8888   4.9248
     5.4427   5.4819   5.4920   5.5216   6.0371   6.2228   6.2808   6.4985
     6.6761   6.7606   6.7962   6.8512   9.2202   9.4075   9.4556   9.6480
     9.7751   9.8258   9.8461   9.8777   9.9651  10.0639

          k = 0.0625 0.3248 0.0000 ( 21194 PWs)   bands (ev):

   -53.4740 -53.4341 -53.4225 -53.3925 -27.6774 -27.6375 -27.6274 -27.6239
   -27.5973 -27.5846 -27.5721 -27.5428 -27.4976 -27.4576 -27.4474 -27.4172
    -5.7690  -5.6866  -5.6552  -5.6022  -5.1161  -5.0072  -4.9906  -4.9177
     2.1147   2.3124   2.3754   2.5034   3.2798   3.3704   3.5001   3.5432
     3.5517   3.5772   3.7000   3.7348   4.5294   4.5882   4.5968   4.6444
     5.6755   5.7157   5.7353   5.7611   5.8258   6.0010   6.0464   6.2309
     6.4486   6.5076   6.5152   6.5610   9.1833   9.3863   9.4244   9.5617
     9.7064   9.7649   9.7764   9.8979  10.2300  10.3627

          k = 0.0625 0.3969 0.0000 ( 21151 PWs)   bands (ev):

   -53.4667 -53.4268 -53.4152 -53.3853 -27.7450 -27.7052 -27.6952 -27.6650
   -27.6097 -27.5704 -27.5579 -27.5285 -27.5154 -27.4755 -27.4653 -27.4351
    -5.3918  -5.3195  -5.2882  -5.2433  -4.9456  -4.8573  -4.8418  -4.7837
     1.9610   2.0766   2.1222   2.1810   2.9115   3.0226   3.0939   3.1439
     3.4043   3.5183   3.5354   3.6496   4.3300   4.3918   4.4029   4.4484
     5.5624   5.7372   5.7897   5.8217   5.8728   5.8821   5.8965   5.9861
     6.4592   6.5091   6.5179   6.5569   9.3169   9.4776   9.5075   9.5912
     9.7503   9.8148   9.8293   9.9838  10.5741  10.7250

          k = 0.0625 0.4691 0.0000 ( 21105 PWs)   bands (ev):

   -53.4612 -53.4213 -53.4097 -53.3797 -27.7963 -27.7565 -27.7465 -27.7164
   -27.5988 -27.5595 -27.5469 -27.5290 -27.5176 -27.4891 -27.4789 -27.4487
    -5.0678  -5.0088  -4.9780  -4.9439  -4.8018  -4.7354  -4.7194  -4.6760
     1.7245   1.7990   1.8429   1.8730   2.5961   2.6803   2.7378   2.7746
     3.3012   3.4190   3.4505   3.5459   4.2234   4.2730   4.2899   4.3242
     5.3708   5.5518   5.5980   5.7333   5.9429   6.0007   6.0233   6.0704
     6.6322   6.6858   6.6985   6.7404   9.5099   9.5991   9.6227   9.6665
     9.8859   9.9692   9.9889  10.1124  10.8889  11.0380

          k = 0.0625 0.5413 0.0000 ( 21084 PWs)   bands (ev):

   -53.4581 -53.4182 -53.4066 -53.3767 -27.8240 -27.7841 -27.7742 -27.7440
   -27.5929 -27.5535 -27.5410 -27.5364 -27.5117 -27.4964 -27.4862 -27.4560
    -4.8735  -4.8261  -4.7964  -4.7721  -4.7169  -4.6680  -4.6495  -4.6163
     1.5651   1.6245   1.6711   1.6917   2.4183   2.4846   2.5429   2.5736
     3.2118   3.3299   3.3605   3.4497   4.1816   4.2179   4.2391   4.2647
     5.2658   5.4503   5.4945   5.6265   6.0321   6.0997   6.1258   6.1687
     6.7854   6.8458   6.8638   6.9069   9.6249   9.6623   9.6824   9.7067
    10.0623  10.1417  10.1628  10.2267  11.1121  11.2258

          k = 0.1250 0.2165 0.0000 ( 21179 PWs)   bands (ev):

   -53.4830 -53.4431 -53.4315 -53.4015 -27.6415 -27.6022 -27.5897 -27.5893
   -27.5604 -27.5494 -27.5393 -27.5091 -27.4791 -27.4391 -27.4289 -27.3987
    -6.1852  -6.0957  -6.0646  -6.0059  -5.3067  -5.1781  -5.1593  -5.0719
     2.0058   2.2980   2.3809   2.6220   3.6945   3.7281   3.7604   3.7694
     3.9118   4.1963   4.2331   4.4227   4.6982   4.7423   4.7455   4.7839
     5.3635   5.4011   5.4122   5.4404   6.2225   6.3815   6.4467   6.6314
     6.7390   6.8212   6.8726   6.9199   9.2083   9.3834   9.4264   9.6079
     9.7683   9.8001   9.8433   9.8559   9.8790   9.9404

          k = 0.1250 0.2887 0.0000 ( 21199 PWs)   bands (ev):

   -53.4757 -53.4358 -53.4242 -53.3943 -27.6527 -27.6273 -27.6128 -27.6027
   -27.5880 -27.5755 -27.5725 -27.5461 -27.5024 -27.4624 -27.4522 -27.4220
    -5.8529  -5.7687  -5.7374  -5.6829  -5.1529  -5.0395  -5.0225  -4.9464
     2.1629   2.3938   2.4650   2.6277   3.4387   3.4896   3.5850   3.5939
     3.6832   3.7969   3.8578   3.9170   4.2635   4.3485   4.3593   4.4659
     5.4657   5.5062   5.5246   5.5523   6.1501   6.2874   6.3338   6.4688
     6.5543   6.5883   6.6008   6.6348   9.0490   9.2595   9.3001   9.4819
     9.7662   9.8028   9.8257   9.8816   9.9715  10.0745

          k = 0.1250 0.3608 0.0000 ( 21195 PWs)   bands (ev):

   -53.4684 -53.4285 -53.4169 -53.3870 -27.7149 -27.6750 -27.6650 -27.6348
   -27.6131 -27.5737 -27.5612 -27.5319 -27.5261 -27.4861 -27.4759 -27.4457
    -5.4880  -5.4123  -5.3809  -5.3332  -4.9849  -4.8902  -4.8746  -4.8120
     2.1163   2.2630   2.3127   2.3959   3.1115   3.2014   3.2736   3.2968
     3.4963   3.5876   3.6142   3.7145   4.0667   4.1989   4.2186   4.3341
     5.4067   5.4534   5.4770   5.5048   5.9302   6.0467   6.0859   6.1883
     6.5127   6.5514   6.5672   6.5971   9.0852   9.3132   9.3533   9.5494
     9.8378   9.8821   9.8950   9.9707  10.2275  10.3582

          k = 0.1250 0.4330 0.0000 ( 21113 PWs)   bands (ev):

   -53.4623 -53.4224 -53.4108 -53.3808 -27.7670 -27.7271 -27.7172 -27.6870
   -27.6010 -27.5617 -27.5491 -27.5462 -27.5198 -27.5063 -27.4961 -27.4659
    -5.1435  -5.0799  -5.0487  -5.0109  -4.8276  -4.7541  -4.7387  -4.6906
     1.9368   2.0309   2.0741   2.1180   2.7006   2.7638   2.8117   2.8350
     3.4250   3.5362   3.5864   3.6686   4.0372   4.1700   4.1784   4.2771
     5.3501   5.4179   5.4472   5.4881   5.6551   5.7665   5.8034   5.8952
     6.6516   6.6931   6.7067   6.7386   9.2926   9.5040   9.5415   9.7188
     9.9471   9.9955   9.9992  10.0549  10.5437  10.6905

          k = 0.1250 0.5052 0.0000 ( 21081 PWs)   bands (ev):

   -53.4581 -53.4182 -53.4066 -53.3767 -27.8016 -27.7617 -27.7518 -27.7216
   -27.5929 -27.5597 -27.5536 -27.5410 -27.5198 -27.5117 -27.5096 -27.4794
    -4.8875  -4.8371  -4.8069  -4.7806  -4.7114  -4.6587  -4.6415  -4.6060
     1.7746   1.8406   1.8872   1.9120   2.4064   2.4556   2.5029   2.5259
     3.3063   3.4281   3.4671   3.5488   4.0864   4.1825   4.2008   4.2573
     5.3445   5.4333   5.4793   5.4976   5.5243   5.5608   5.5823   5.6838
     6.8373   6.8896   6.9035   6.9427   9.5133   9.6270   9.6493   9.7202
    10.0959  10.1644  10.1849  10.2567  10.8210  10.9292

          k = 0.1250 0.5774 0.0000 ( 21108 PWs)   bands (ev):

   -53.4567 -53.4168 -53.4052 -53.3752 -27.8137 -27.7738 -27.7639 -27.7337
   -27.5900 -27.5645 -27.5507 -27.5382 -27.5245 -27.5144 -27.5088 -27.4842
    -4.7902  -4.7466  -4.7173  -4.6978  -4.6670  -4.6252  -4.6059  -4.5758
     1.7118   1.7676   1.8173   1.8363   2.3015   2.3466   2.3946   2.4180
     3.2462   3.3692   3.4044   3.4875   4.1353   4.1895   4.2204   4.2499
     5.2886   5.4215   5.4529   5.4893   5.5036   5.5267   5.5519   5.6275
     6.9289   6.9892   7.0045   7.0486   9.5923   9.6283   9.6504   9.6758
    10.2066  10.2882  10.3121  10.3564  10.9332  11.0486

          k = 0.1875 0.3248 0.0000 ( 21195 PWs)   bands (ev):

   -53.4690 -53.4291 -53.4175 -53.3876 -27.7013 -27.6614 -27.6514 -27.6212
   -27.6142 -27.5749 -27.5624 -27.5331 -27.5328 -27.4929 -27.4827 -27.4525
    -5.5214  -5.4446  -5.4131  -5.3646  -4.9982  -4.9013  -4.8857  -4.8214
     2.1823   2.3449   2.3968   2.4932   3.2400   3.3092   3.3676   3.3783
     3.5391   3.6184   3.6552   3.7136   3.9220   4.0702   4.1198   4.2651
     5.2329   5.2778   5.3036   5.3308   6.0956   6.1856   6.2243   6.2985
     6.5180   6.5605   6.5777   6.6095   8.9969   9.2455   9.2903   9.5234
     9.8613   9.8927   9.9192   9.9567  10.0757  10.1912

          k = 0.1875 0.3969 0.0000 ( 21153 PWs)   bands (ev):

   -53.4629 -53.4230 -53.4114 -53.3814 -27.7432 -27.7034 -27.6934 -27.6632
   -27.6022 -27.5637 -27.5628 -27.5503 -27.5237 -27.5210 -27.5135 -27.4834
    -5.1851  -5.1189  -5.0876  -5.0478  -4.8404  -4.7629  -4.7479  -4.6970
     2.0973   2.2124   2.2551   2.3148   2.7955   2.8239   2.8677   2.8771
     3.5602   3.6340   3.7402   3.7612   3.9228   4.0573   4.1080   4.2394
     4.9136   4.9700   4.9959   5.0300   5.8690   5.9312   5.9708   6.0191
     6.6209   6.6690   6.6817   6.7200   9.1510   9.4171   9.4702   9.7523
     9.9748  10.0081  10.0284  10.0536  10.2689  10.4038

          k = 0.1875 0.4691 0.0000 ( 21101 PWs)   bands (ev):

   -53.4582 -53.4182 -53.4066 -53.3767 -27.7737 -27.7338 -27.7239 -27.6937
   -27.5929 -27.5886 -27.5536 -27.5486 -27.5410 -27.5385 -27.5117 -27.5083
    -4.9010  -4.8479  -4.8172  -4.7889  -4.7059  -4.6496  -4.6334  -4.5956
     2.0119   2.0968   2.1419   2.1784   2.4000   2.4278   2.4662   2.4821
     3.4752   3.5975   3.6506   3.6947   3.9847   4.1442   4.1540   4.2712
     4.7273   4.8180   4.8479   4.9145   5.5677   5.6488   5.6802   5.7316
     6.8224   6.8672   6.8785   6.9133   9.3699   9.5486   9.5851   9.7201
    10.1379  10.1949  10.2234  10.2917  10.4833  10.5923

          k = 0.1875 0.5413 0.0000 ( 21112 PWs)   bands (ev):

   -53.4556 -53.4157 -53.4041 -53.3741 -27.7897 -27.7498 -27.7399 -27.7098
   -27.6025 -27.5879 -27.5626 -27.5524 -27.5486 -27.5360 -27.5223 -27.5067
    -4.7331  -4.6907  -4.6615  -4.6468  -4.6233  -4.5864  -4.5676  -4.5388
     1.9756   2.0322   2.0896   2.1097   2.1845   2.2147   2.2490   2.2709
     3.3323   3.4622   3.4995   3.5709   4.1146   4.2163   4.2502   4.3047
     4.6823   4.7998   4.8295   4.9044   5.3592   5.4454   5.4708   5.5306
     7.0058   7.0574   7.0702   7.1099   9.4428   9.5015   9.5208   9.5596
    10.3231  10.4156  10.4790  10.5362  10.5973  10.6926

          k = 0.2500 0.4330 0.0000 ( 21125 PWs)   bands (ev):

   -53.4582 -53.4182 -53.4066 -53.3767 -27.7592 -27.7193 -27.7094 -27.6792
   -27.6035 -27.5929 -27.5636 -27.5536 -27.5534 -27.5411 -27.5233 -27.5117
    -4.9065  -4.8523  -4.8215  -4.7924  -4.7037  -4.6459  -4.6301  -4.5913
     2.1201   2.2191   2.2628   2.3044   2.3996   2.4214   2.4518   2.4641
     3.6576   3.6985   3.7883   3.8211   3.9909   4.1252   4.1588   4.2887
     4.4140   4.4645   4.4834   4.5094   5.6400   5.6839   5.7283   5.7679
     6.8058   6.8512   6.8609   6.8966   9.3095   9.5091   9.5541   9.7116
    10.1490  10.1964  10.2397  10.2992  10.3525  10.4529

          k = 0.2500 0.5052 0.0000 ( 21117 PWs)   bands (ev):

   -53.4550 -53.4151 -53.4035 -53.3735 -27.7640 -27.7241 -27.7141 -27.6840
   -27.6361 -27.5961 -27.5867 -27.5860 -27.5559 -27.5474 -27.5349 -27.5055
    -4.7050  -4.6625  -4.6333  -4.6213  -4.5976  -4.5630  -4.5450  -4.5164
     2.0918   2.1157   2.1594   2.1651   2.2399   2.3157   2.3500   2.3884
     3.5025   3.6299   3.6655   3.6855   4.0509   4.1171   4.1881   4.2230
     4.2436   4.2818   4.3344   4.4039   5.3617   5.4231   5.4586   5.5059
     7.0467   7.0900   7.1008   7.1343   9.3096   9.3858   9.4072   9.4600
    10.2898  10.3545  10.3862  10.4728  10.5559  10.6049

          k = 0.2500 0.5774 0.0000 ( 21116 PWs)   bands (ev):

   -53.4539 -53.4140 -53.4024 -53.3724 -27.7638 -27.7239 -27.7140 -27.6838
   -27.6493 -27.6094 -27.5993 -27.5846 -27.5691 -27.5452 -27.5327 -27.5033
    -4.6293  -4.5929  -4.5723  -4.5650  -4.5503  -4.5309  -4.5137  -4.4891
     1.9927   2.0150   2.0554   2.0649   2.3258   2.3734   2.4201   2.4373
     3.3482   3.4726   3.5028   3.5571   4.0135   4.1186   4.1926   4.2150
     4.2912   4.3727   4.3833   4.4367   5.2433   5.2949   5.3210   5.3697
     7.1728   7.2188   7.2310   7.2667   9.2411   9.2783   9.2929   9.3200
    10.3145  10.3820  10.4088  10.4847  10.7234  10.7598

          k = 0.3125 0.5413 0.0000 ( 21100 PWs)   bands (ev):

   -53.4533 -53.4134 -53.4018 -53.3718 -27.7427 -27.7028 -27.6929 -27.6777
   -27.6628 -27.6378 -27.6277 -27.5976 -27.5834 -27.5441 -27.5315 -27.5022
    -4.5924  -4.5591  -4.5485  -4.5314  -4.5255  -4.5073  -4.4938  -4.4703
     1.9253   1.9471   1.9839   1.9963   2.5493   2.6119   2.6575   2.6815
     3.3566   3.3705   3.4257   3.4418   3.8358   3.8687   3.8849   3.9118
     4.3421   4.4274   4.4493   4.4918   5.1546   5.2201   5.2446   5.2989
     7.2554   7.2974   7.3094   7.3415   9.1250   9.1635   9.1757   9.2044
    10.2511  10.2898  10.3259  10.3974  10.8200  10.8828

     the Fermi energy is     8.3612 ev

!    total energy              =   -1978.36359252 Ry
     total all-electron energy =    -38771.684437 Ry
     estimated scf accuracy    <          7.4E-09 Ry
     smearing contrib. (-TS)   =       0.00003298 Ry
     internal energy E=F+TS    =   -1978.36362550 Ry

     The total energy is F=E-TS. E is the sum of the following terms:
     one-electron contribution =   -1102.51627621 Ry
     hartree contribution      =     593.50620109 Ry
     xc contribution           =    -119.22664848 Ry
     ewald contribution        =     -80.27476792 Ry
     one-center paw contrib.   =   -1269.85213398 Ry

     convergence has been achieved in  66 iterations

     Writing all to output data dir ./tmp/cleave/cleave_dz016_dz3p2/mos2_cleave.save/ :
     XML data file, charge density, pseudopotentials, collected wavefunctions

     init_run     :     84.42s CPU     85.28s WALL (       1 calls)
     electrons    :   7499.16s CPU   7617.94s WALL (       1 calls)

     Called by init_run:
     wfcinit      :     40.65s CPU     40.78s WALL (       1 calls)
     potinit      :     41.64s CPU     41.85s WALL (       1 calls)
     hinit0       :      0.31s CPU      0.33s WALL (       1 calls)

     Called by electrons:
     c_bands      :   6262.99s CPU   6300.17s WALL (      67 calls)
     sum_band     :    955.56s CPU    993.32s WALL (      67 calls)
     v_of_rho     :    156.15s CPU    167.86s WALL (      67 calls)
     newd         :    120.57s CPU    152.89s WALL (      67 calls)
     PAW_pot      :     26.34s CPU     26.35s WALL (      67 calls)
     mix_rho      :     19.44s CPU     19.90s WALL (      67 calls)
     vdW_kernel   :     39.45s CPU     39.46s WALL (       1 calls)

     Called by c_bands:
     init_us_2    :     29.22s CPU     29.25s WALL (    4050 calls)
     init_us_2:cp :     29.21s CPU     29.25s WALL (    4050 calls)
     cegterg      :   5972.82s CPU   6009.53s WALL (    2010 calls)

     Called by *egterg:
     cdiaghg      :     15.55s CPU     15.56s WALL (    6207 calls)
     h_psi        :   3275.12s CPU   3289.80s WALL (    6267 calls)
     s_psi        :    991.74s CPU    992.14s WALL (    6267 calls)
     g_psi        :     14.89s CPU     14.90s WALL (    4227 calls)

     Called by h_psi:
     h_psi:calbec :   1280.02s CPU   1280.35s WALL (    6267 calls)
     vloc_psi     :    997.64s CPU    998.73s WALL (    6267 calls)
     add_vuspsi   :    991.01s CPU    991.29s WALL (    6267 calls)

     General routines
     calbec       :   1849.26s CPU   1849.78s WALL (    8277 calls)
     fft          :     49.43s CPU     49.45s WALL (    4220 calls)
     ffts         :      9.02s CPU      9.03s WALL (    3095 calls)
     fftw         :    921.36s CPU    922.17s WALL (  682912 calls)
     interpolate  :      1.03s CPU      1.03s WALL (      67 calls)

     Parallel routines

     PWSCF        :      2h 6m CPU      2h 8m WALL


   This run was terminated on:   1:19:34   9Jun2026            

=------------------------------------------------------------------------------=
   JOB DONE.
=------------------------------------------------------------------------------=
[1780985974.313133] [bohr:17106:0]          ucp_ep.c:1711 UCX  DEBUG ep 0x74e7ef731000 flags 0x200091 cfg_index 0: close_nbx(flags=0x0)
[1780985974.313141] [bohr:17106:0]           flush.c:381  UCX  DEBUG close ep 0x74e7ef731000
[1780985974.313144] [bohr:17106:0]           mpool.c:281  UCX  DEBUG mpool ucp_requests: allocated chunk 0x62856f95a7c4 of 41044 bytes with 128 elements
[1780985974.313147] [bohr:17106:0]           flush.c:383  UCX  REQ   allocated request 0x62856f9646c0
[1780985974.313149] [bohr:17106:0]           flush.c:101  UCX  REQ   req 0x62856f9646c0: progress ep=0x74e7ef731000 flush flags=0x200491 started_lanes=0x0 count=2
[1780985974.313150] [bohr:17106:0]           flush.c:123  UCX  REQ   req 0x62856f9646c0: ep 0x74e7ef731000 flush lane[0]=0x62856f980d50 flags 0x0: Success
[1780985974.313151] [bohr:17106:0]           flush.c:31   UCX  REQ   req 0x62856f9646c0: flush update ep 0x74e7ef731000 comp_count 2->1 num_lanes 2->2 started_lanes 0x0->0x1
[1780985974.313151] [bohr:17106:0]           flush.c:123  UCX  REQ   req 0x62856f9646c0: ep 0x74e7ef731000 flush lane[1]=0x62856f991510 flags 0x0: Success
[1780985974.313152] [bohr:17106:0]           flush.c:31   UCX  REQ   req 0x62856f9646c0: flush update ep 0x74e7ef731000 comp_count 1->0 num_lanes 2->2 started_lanes 0x1->0x2
[1780985974.313152] [bohr:17106:0]           flush.c:173  UCX  REQ   req 0x62856f9646c0: flush ep=0x74e7ef731000 remote completions done sn=0
[1780985974.313153] [bohr:17106:0]           flush.c:417  UCX  REQ   req 0x62856f9646c0: releasing flush ep 0x74e7ef731000, returning status Success
[1780985974.313153] [bohr:17106:0]   ucp_request.inl:236  UCX  REQ   put request 0x62856f9646c0
[1780985974.313156] [bohr:17106:0]          ucp_am.c:76   UCX  DATA  worker 0x62856f8ba3d0: 0 unhandled first AM fragments have been dropped on ep 0x74e7ef731000
[1780985974.313156] [bohr:17106:0]          ucp_am.c:86   UCX  DATA  worker 0x62856f8ba3d0: 0 unhandled middle AM fragments have been dropped on ep 0x74e7ef731000
[1780985974.313157] [bohr:17106:0]          ucp_ep.c:1281 UCX  DEBUG ep 0x74e7ef731000: destroy
[1780985974.313157] [bohr:17106:0]          ucp_ep.c:1565 UCX  DEBUG ep 0x74e7ef731000: cleanup lanes
[1780985974.313158] [bohr:17106:0]          ucp_ep.c:1576 UCX  DEBUG ep 0x74e7ef731000: pending & destroy uct_ep[0]=0x62856f980d50
[1780985974.313160] [bohr:17106:0]          ucp_ep.c:1344 UCX  DEBUG ep 0x74e7ef731000: unprogress iface 0x62856f8a83d0 self/memory
[1780985974.313160] [bohr:17106:0]      ucp_worker.c:722  UCX  TRACE deactivate iface 0x62856f8a83d0 (self/memory) force=0 acount=15 aifaces=2
[1780985974.313166] [bohr:17106:0]          ucp_ep.c:1576 UCX  DEBUG ep 0x74e7ef731000: pending & destroy uct_ep[1]=0x62856f991510
[1780985974.313166] [bohr:17106:0]          ucp_ep.c:1344 UCX  DEBUG ep 0x74e7ef731000: unprogress iface 0x62856f8b67b0 cma/memory
[1780985974.313166] [bohr:17106:0]      ucp_worker.c:722  UCX  TRACE deactivate iface 0x62856f8b67b0 (cma/memory) force=0 acount=6 aifaces=2
[1780985974.313174] [bohr:17106:0]      ucp_worker.c:2847 UCX  DEBUG destroy worker 0x62856f8ba3d0
[1780985974.313174] [bohr:17106:0]      ucp_worker.c:2833 UCX  DEBUG worker 0x62856f8ba3d0: destroy all endpoints
[1780985974.313175] [bohr:17106:0]      ucp_worker.c:2833 UCX  DEBUG worker 0x62856f8ba3d0: destroy internal endpoints
[1780985974.313175] [bohr:17106:0]      ucp_worker.c:237  UCX  DEBUG worker 0x62856f8ba3d0: remove active message handlers
[1780985974.313242] [bohr:17106:0]            topo.c:791  UCX  DEBUG /sys/class/net/enp4s0: PF sysfs path is '/sys/devices/pci0000:00/0000:00:1c.2/0000:04:00.0'
[1780985974.313271] [bohr:17106:0]            topo.c:737  UCX  TRACE enp4s0: PCIe gen2 1x, effective throughput 429.825 MB/s 3.606 Gb/s
[1780985974.313307] [bohr:17106:0]            topo.c:791  UCX  DEBUG /sys/class/net/enp4s0: PF sysfs path is '/sys/devices/pci0000:00/0000:00:1c.2/0000:04:00.0'
[1780985974.313320] [bohr:17106:0]            topo.c:737  UCX  TRACE enp4s0: PCIe gen2 1x, effective throughput 429.825 MB/s 3.606 Gb/s
[1780985974.313338] [bohr:17106:0]            topo.c:791  UCX  DEBUG /sys/class/net/enp4s0: PF sysfs path is '/sys/devices/pci0000:00/0000:00:1c.2/0000:04:00.0'
[1780985974.313358] [bohr:17106:0]            topo.c:737  UCX  TRACE enp4s0: PCIe gen2 1x, effective throughput 429.825 MB/s 3.606 Gb/s
[1780985974.313375] [bohr:17106:0]            topo.c:791  UCX  DEBUG /sys/class/net/enp4s0: PF sysfs path is '/sys/devices/pci0000:00/0000:00:1c.2/0000:04:00.0'
[1780985974.313388] [bohr:17106:0]            topo.c:737  UCX  TRACE enp4s0: PCIe gen2 1x, effective throughput 429.825 MB/s 3.606 Gb/s
[1780985974.313405] [bohr:17106:0]            topo.c:791  UCX  DEBUG /sys/class/net/enp4s0: PF sysfs path is '/sys/devices/pci0000:00/0000:00:1c.2/0000:04:00.0'
[1780985974.313417] [bohr:17106:0]            topo.c:737  UCX  TRACE enp4s0: PCIe gen2 1x, effective throughput 429.825 MB/s 3.606 Gb/s
[1780985974.313434] [bohr:17106:0]            topo.c:791  UCX  DEBUG /sys/class/net/enp4s0: PF sysfs path is '/sys/devices/pci0000:00/0000:00:1c.2/0000:04:00.0'
[1780985974.313448] [bohr:17106:0]            topo.c:737  UCX  TRACE enp4s0: PCIe gen2 1x, effective throughput 429.825 MB/s 3.606 Gb/s
[1780985974.313465] [bohr:17106:0]            topo.c:791  UCX  DEBUG /sys/class/net/enp4s0: PF sysfs path is '/sys/devices/pci0000:00/0000:00:1c.2/0000:04:00.0'
[1780985974.313479] [bohr:17106:0]            topo.c:737  UCX  TRACE enp4s0: PCIe gen2 1x, effective throughput 429.825 MB/s 3.606 Gb/s
[1780985974.313495] [bohr:17106:0]            topo.c:791  UCX  DEBUG /sys/class/net/enp4s0: PF sysfs path is '/sys/devices/pci0000:00/0000:00:1c.2/0000:04:00.0'
[1780985974.313508] [bohr:17106:0]            topo.c:737  UCX  TRACE enp4s0: PCIe gen2 1x, effective throughput 429.825 MB/s 3.606 Gb/s
[1780985974.313524] [bohr:17106:0]            topo.c:791  UCX  DEBUG /sys/class/net/enp4s0: PF sysfs path is '/sys/devices/pci0000:00/0000:00:1c.2/0000:04:00.0'
[1780985974.313537] [bohr:17106:0]            topo.c:737  UCX  TRACE enp4s0: PCIe gen2 1x, effective throughput 429.825 MB/s 3.606 Gb/s
[1780985974.313552] [bohr:17106:0]            topo.c:791  UCX  DEBUG /sys/class/net/enp4s0: PF sysfs path is '/sys/devices/pci0000:00/0000:00:1c.2/0000:04:00.0'
[1780985974.313566] [bohr:17106:0]            topo.c:737  UCX  TRACE enp4s0: PCIe gen2 1x, effective throughput 429.825 MB/s 3.606 Gb/s
[1780985974.313582] [bohr:17106:0]            topo.c:791  UCX  DEBUG /sys/class/net/enp4s0: PF sysfs path is '/sys/devices/pci0000:00/0000:00:1c.2/0000:04:00.0'
[1780985974.313596] [bohr:17106:0]            topo.c:737  UCX  TRACE enp4s0: PCIe gen2 1x, effective throughput 429.825 MB/s 3.606 Gb/s
[1780985974.313612] [bohr:17106:0]            topo.c:791  UCX  DEBUG /sys/class/net/enp4s0: PF sysfs path is '/sys/devices/pci0000:00/0000:00:1c.2/0000:04:00.0'
[1780985974.313625] [bohr:17106:0]            topo.c:737  UCX  TRACE enp4s0: PCIe gen2 1x, effective throughput 429.825 MB/s 3.606 Gb/s
[1780985974.313646] [bohr:17106:0]            topo.c:791  UCX  DEBUG /sys/class/net/enp4s0: PF sysfs path is '/sys/devices/pci0000:00/0000:00:1c.2/0000:04:00.0'
[1780985974.313659] [bohr:17106:0]            topo.c:737  UCX  TRACE enp4s0: PCIe gen2 1x, effective throughput 429.825 MB/s 3.606 Gb/s
[1780985974.313675] [bohr:17106:0]            topo.c:791  UCX  DEBUG /sys/class/net/enp4s0: PF sysfs path is '/sys/devices/pci0000:00/0000:00:1c.2/0000:04:00.0'
[1780985974.313688] [bohr:17106:0]            topo.c:737  UCX  TRACE enp4s0: PCIe gen2 1x, effective throughput 429.825 MB/s 3.606 Gb/s
[1780985974.313710] [bohr:17106:0]            topo.c:791  UCX  DEBUG /sys/class/net/enp4s0: PF sysfs path is '/sys/devices/pci0000:00/0000:00:1c.2/0000:04:00.0'
[1780985974.313723] [bohr:17106:0]            topo.c:737  UCX  TRACE enp4s0: PCIe gen2 1x, effective throughput 429.825 MB/s 3.606 Gb/s
[1780985974.313739] [bohr:17106:0]            topo.c:791  UCX  DEBUG /sys/class/net/enp4s0: PF sysfs path is '/sys/devices/pci0000:00/0000:00:1c.2/0000:04:00.0'
[1780985974.313752] [bohr:17106:0]            topo.c:737  UCX  TRACE enp4s0: PCIe gen2 1x, effective throughput 429.825 MB/s 3.606 Gb/s
[1780985974.313770] [bohr:17106:0]            topo.c:791  UCX  DEBUG /sys/class/net/enp4s0: PF sysfs path is '/sys/devices/pci0000:00/0000:00:1c.2/0000:04:00.0'
[1780985974.313784] [bohr:17106:0]            topo.c:737  UCX  TRACE enp4s0: PCIe gen2 1x, effective throughput 429.825 MB/s 3.606 Gb/s
[1780985974.313799] [bohr:17106:0]            topo.c:791  UCX  DEBUG /sys/class/net/enp4s0: PF sysfs path is '/sys/devices/pci0000:00/0000:00:1c.2/0000:04:00.0'
[1780985974.313813] [bohr:17106:0]            topo.c:737  UCX  TRACE enp4s0: PCIe gen2 1x, effective throughput 429.825 MB/s 3.606 Gb/s
[1780985974.313829] [bohr:17106:0]            topo.c:791  UCX  DEBUG /sys/class/net/enp4s0: PF sysfs path is '/sys/devices/pci0000:00/0000:00:1c.2/0000:04:00.0'
[1780985974.313842] [bohr:17106:0]            topo.c:737  UCX  TRACE enp4s0: PCIe gen2 1x, effective throughput 429.825 MB/s 3.606 Gb/s
[1780985974.313857] [bohr:17106:0]            topo.c:791  UCX  DEBUG /sys/class/net/enp4s0: PF sysfs path is '/sys/devices/pci0000:00/0000:00:1c.2/0000:04:00.0'
[1780985974.313870] [bohr:17106:0]            topo.c:737  UCX  TRACE enp4s0: PCIe gen2 1x, effective throughput 429.825 MB/s 3.606 Gb/s
[1780985974.313885] [bohr:17106:0]            topo.c:791  UCX  DEBUG /sys/class/net/enp4s0: PF sysfs path is '/sys/devices/pci0000:00/0000:00:1c.2/0000:04:00.0'
[1780985974.313899] [bohr:17106:0]            topo.c:737  UCX  TRACE enp4s0: PCIe gen2 1x, effective throughput 429.825 MB/s 3.606 Gb/s
[1780985974.313907] [bohr:17106:0]            sock.c:90   UCX  DEBUG ioctl(req=35142, ifr_name=lo) failed: Operation not supported
[1780985974.313908] [bohr:17106:0]         tcp_net.c:61   UCX  DEBUG speed of lo is UNKNOWN, assuming 100 Mbps
[1780985974.313924] [bohr:17106:0]            topo.c:787  UCX  DEBUG /sys/class/net/lo: sysfs path undetected
[1780985974.313924] [bohr:17106:0]            topo.c:744  UCX  DEBUG lo: pci bandwidth undetected, using maximal value
[1780985974.313930] [bohr:17106:0]            sock.c:90   UCX  DEBUG ioctl(req=35142, ifr_name=lo) failed: Operation not supported
[1780985974.313931] [bohr:17106:0]         tcp_net.c:61   UCX  DEBUG speed of lo is UNKNOWN, assuming 100 Mbps
[1780985974.313941] [bohr:17106:0]            topo.c:787  UCX  DEBUG /sys/class/net/lo: sysfs path undetected
[1780985974.313941] [bohr:17106:0]            topo.c:744  UCX  DEBUG lo: pci bandwidth undetected, using maximal value
[1780985974.313946] [bohr:17106:0]            sock.c:90   UCX  DEBUG ioctl(req=35142, ifr_name=lo) failed: Operation not supported
[1780985974.313947] [bohr:17106:0]         tcp_net.c:61   UCX  DEBUG speed of lo is UNKNOWN, assuming 100 Mbps
[1780985974.313957] [bohr:17106:0]            topo.c:787  UCX  DEBUG /sys/class/net/lo: sysfs path undetected
[1780985974.313957] [bohr:17106:0]            topo.c:744  UCX  DEBUG lo: pci bandwidth undetected, using maximal value
[1780985974.313962] [bohr:17106:0]            sock.c:90   UCX  DEBUG ioctl(req=35142, ifr_name=lo) failed: Operation not supported
[1780985974.313963] [bohr:17106:0]         tcp_net.c:61   UCX  DEBUG speed of lo is UNKNOWN, assuming 100 Mbps
[1780985974.313973] [bohr:17106:0]            topo.c:787  UCX  DEBUG /sys/class/net/lo: sysfs path undetected
[1780985974.313973] [bohr:17106:0]            topo.c:744  UCX  DEBUG lo: pci bandwidth undetected, using maximal value
[1780985974.313979] [bohr:17106:0]            sock.c:90   UCX  DEBUG ioctl(req=35142, ifr_name=lo) failed: Operation not supported
[1780985974.313980] [bohr:17106:0]         tcp_net.c:61   UCX  DEBUG speed of lo is UNKNOWN, assuming 100 Mbps
[1780985974.313990] [bohr:17106:0]            topo.c:787  UCX  DEBUG /sys/class/net/lo: sysfs path undetected
[1780985974.313990] [bohr:17106:0]            topo.c:744  UCX  DEBUG lo: pci bandwidth undetected, using maximal value
[1780985974.313995] [bohr:17106:0]            sock.c:90   UCX  DEBUG ioctl(req=35142, ifr_name=lo) failed: Operation not supported
[1780985974.313996] [bohr:17106:0]         tcp_net.c:61   UCX  DEBUG speed of lo is UNKNOWN, assuming 100 Mbps
[1780985974.314007] [bohr:17106:0]            topo.c:787  UCX  DEBUG /sys/class/net/lo: sysfs path undetected
[1780985974.314008] [bohr:17106:0]            topo.c:744  UCX  DEBUG lo: pci bandwidth undetected, using maximal value
[1780985974.314012] [bohr:17106:0]            sock.c:90   UCX  DEBUG ioctl(req=35142, ifr_name=lo) failed: Operation not supported
[1780985974.314013] [bohr:17106:0]         tcp_net.c:61   UCX  DEBUG speed of lo is UNKNOWN, assuming 100 Mbps
[1780985974.314023] [bohr:17106:0]            topo.c:787  UCX  DEBUG /sys/class/net/lo: sysfs path undetected
[1780985974.314023] [bohr:17106:0]            topo.c:744  UCX  DEBUG lo: pci bandwidth undetected, using maximal value
[1780985974.314028] [bohr:17106:0]            sock.c:90   UCX  DEBUG ioctl(req=35142, ifr_name=lo) failed: Operation not supported
[1780985974.314029] [bohr:17106:0]         tcp_net.c:61   UCX  DEBUG speed of lo is UNKNOWN, assuming 100 Mbps
[1780985974.314039] [bohr:17106:0]            topo.c:787  UCX  DEBUG /sys/class/net/lo: sysfs path undetected
[1780985974.314039] [bohr:17106:0]            topo.c:744  UCX  DEBUG lo: pci bandwidth undetected, using maximal value
[1780985974.314044] [bohr:17106:0]            sock.c:90   UCX  DEBUG ioctl(req=35142, ifr_name=lo) failed: Operation not supported
[1780985974.314045] [bohr:17106:0]         tcp_net.c:61   UCX  DEBUG speed of lo is UNKNOWN, assuming 100 Mbps
[1780985974.314055] [bohr:17106:0]            topo.c:787  UCX  DEBUG /sys/class/net/lo: sysfs path undetected
[1780985974.314055] [bohr:17106:0]            topo.c:744  UCX  DEBUG lo: pci bandwidth undetected, using maximal value
[1780985974.314066] [bohr:17106:0]            sock.c:90   UCX  DEBUG ioctl(req=35142, ifr_name=lo) failed: Operation not supported
[1780985974.314067] [bohr:17106:0]         tcp_net.c:61   UCX  DEBUG speed of lo is UNKNOWN, assuming 100 Mbps
[1780985974.314077] [bohr:17106:0]            topo.c:787  UCX  DEBUG /sys/class/net/lo: sysfs path undetected
[1780985974.314077] [bohr:17106:0]            topo.c:744  UCX  DEBUG lo: pci bandwidth undetected, using maximal value
[1780985974.314082] [bohr:17106:0]            sock.c:90   UCX  DEBUG ioctl(req=35142, ifr_name=lo) failed: Operation not supported
[1780985974.314082] [bohr:17106:0]         tcp_net.c:61   UCX  DEBUG speed of lo is UNKNOWN, assuming 100 Mbps
[1780985974.314092] [bohr:17106:0]            topo.c:787  UCX  DEBUG /sys/class/net/lo: sysfs path undetected
[1780985974.314092] [bohr:17106:0]            topo.c:744  UCX  DEBUG lo: pci bandwidth undetected, using maximal value
[1780985974.314097] [bohr:17106:0]            sock.c:90   UCX  DEBUG ioctl(req=35142, ifr_name=lo) failed: Operation not supported
[1780985974.314098] [bohr:17106:0]         tcp_net.c:61   UCX  DEBUG speed of lo is UNKNOWN, assuming 100 Mbps
[1780985974.314108] [bohr:17106:0]            topo.c:787  UCX  DEBUG /sys/class/net/lo: sysfs path undetected
[1780985974.314108] [bohr:17106:0]            topo.c:744  UCX  DEBUG lo: pci bandwidth undetected, using maximal value
[1780985974.314114] [bohr:17106:0]            sock.c:90   UCX  DEBUG ioctl(req=35142, ifr_name=lo) failed: Operation not supported
[1780985974.314115] [bohr:17106:0]         tcp_net.c:61   UCX  DEBUG speed of lo is UNKNOWN, assuming 100 Mbps
[1780985974.314125] [bohr:17106:0]            topo.c:787  UCX  DEBUG /sys/class/net/lo: sysfs path undetected
[1780985974.314125] [bohr:17106:0]            topo.c:744  UCX  DEBUG lo: pci bandwidth undetected, using maximal value
[1780985974.314130] [bohr:17106:0]            sock.c:90   UCX  DEBUG ioctl(req=35142, ifr_name=lo) failed: Operation not supported
[1780985974.314131] [bohr:17106:0]         tcp_net.c:61   UCX  DEBUG speed of lo is UNKNOWN, assuming 100 Mbps
[1780985974.314141] [bohr:17106:0]            topo.c:787  UCX  DEBUG /sys/class/net/lo: sysfs path undetected
[1780985974.314141] [bohr:17106:0]            topo.c:744  UCX  DEBUG lo: pci bandwidth undetected, using maximal value
[1780985974.314146] [bohr:17106:0]            sock.c:90   UCX  DEBUG ioctl(req=35142, ifr_name=lo) failed: Operation not supported
[1780985974.314148] [bohr:17106:0]         tcp_net.c:61   UCX  DEBUG speed of lo is UNKNOWN, assuming 100 Mbps
[1780985974.314157] [bohr:17106:0]            topo.c:787  UCX  DEBUG /sys/class/net/lo: sysfs path undetected
[1780985974.314158] [bohr:17106:0]            topo.c:744  UCX  DEBUG lo: pci bandwidth undetected, using maximal value
[1780985974.314163] [bohr:17106:0]            sock.c:90   UCX  DEBUG ioctl(req=35142, ifr_name=lo) failed: Operation not supported
[1780985974.314164] [bohr:17106:0]         tcp_net.c:61   UCX  DEBUG speed of lo is UNKNOWN, assuming 100 Mbps
[1780985974.314173] [bohr:17106:0]            topo.c:787  UCX  DEBUG /sys/class/net/lo: sysfs path undetected
[1780985974.314174] [bohr:17106:0]            topo.c:744  UCX  DEBUG lo: pci bandwidth undetected, using maximal value
[1780985974.314179] [bohr:17106:0]            sock.c:90   UCX  DEBUG ioctl(req=35142, ifr_name=lo) failed: Operation not supported
[1780985974.314179] [bohr:17106:0]         tcp_net.c:61   UCX  DEBUG speed of lo is UNKNOWN, assuming 100 Mbps
[1780985974.314189] [bohr:17106:0]            topo.c:787  UCX  DEBUG /sys/class/net/lo: sysfs path undetected
[1780985974.314189] [bohr:17106:0]            topo.c:744  UCX  DEBUG lo: pci bandwidth undetected, using maximal value
[1780985974.314195] [bohr:17106:0]            sock.c:90   UCX  DEBUG ioctl(req=35142, ifr_name=lo) failed: Operation not supported
[1780985974.314196] [bohr:17106:0]         tcp_net.c:61   UCX  DEBUG speed of lo is UNKNOWN, assuming 100 Mbps
[1780985974.314206] [bohr:17106:0]            topo.c:787  UCX  DEBUG /sys/class/net/lo: sysfs path undetected
[1780985974.314206] [bohr:17106:0]            topo.c:744  UCX  DEBUG lo: pci bandwidth undetected, using maximal value
[1780985974.314211] [bohr:17106:0]            sock.c:90   UCX  DEBUG ioctl(req=35142, ifr_name=lo) failed: Operation not supported
[1780985974.314211] [bohr:17106:0]         tcp_net.c:61   UCX  DEBUG speed of lo is UNKNOWN, assuming 100 Mbps
[1780985974.314221] [bohr:17106:0]            topo.c:787  UCX  DEBUG /sys/class/net/lo: sysfs path undetected
[1780985974.314221] [bohr:17106:0]            topo.c:744  UCX  DEBUG lo: pci bandwidth undetected, using maximal value
[1780985974.314226] [bohr:17106:0]            sock.c:90   UCX  DEBUG ioctl(req=35142, ifr_name=lo) failed: Operation not supported
[1780985974.314227] [bohr:17106:0]         tcp_net.c:61   UCX  DEBUG speed of lo is UNKNOWN, assuming 100 Mbps
[1780985974.314237] [bohr:17106:0]            topo.c:787  UCX  DEBUG /sys/class/net/lo: sysfs path undetected
[1780985974.314237] [bohr:17106:0]            topo.c:744  UCX  DEBUG lo: pci bandwidth undetected, using maximal value
[1780985974.314242] [bohr:17106:0]            sock.c:90   UCX  DEBUG ioctl(req=35142, ifr_name=lo) failed: Operation not supported
[1780985974.314242] [bohr:17106:0]         tcp_net.c:61   UCX  DEBUG speed of lo is UNKNOWN, assuming 100 Mbps
[1780985974.314252] [bohr:17106:0]            topo.c:787  UCX  DEBUG /sys/class/net/lo: sysfs path undetected
[1780985974.314253] [bohr:17106:0]            topo.c:744  UCX  DEBUG lo: pci bandwidth undetected, using maximal value
[1780985974.314262] [bohr:17106:0]           mpool.c:194  UCX  DEBUG mpool ucp_reg_bufs destroyed
[1780985974.314264] [bohr:17106:0]           mpool.c:194  UCX  DEBUG mpool ucp_am_bufs destroyed
[1780985974.314264] [bohr:17106:0]           mpool.c:194  UCX  DEBUG mpool ucp_am_bufs destroyed
[1780985974.314264] [bohr:17106:0]           mpool.c:194  UCX  DEBUG mpool ucp_am_bufs destroyed
[1780985974.314265] [bohr:17106:0]           mpool.c:194  UCX  DEBUG mpool ucp_rkeys destroyed
[1780985974.314266] [bohr:17106:0]           mpool.c:194  UCX  DEBUG mpool ucp_requests destroyed
[1780985974.314269] [bohr:17106:0]           mpool.c:194  UCX  DEBUG mpool self_msg_desc destroyed
[1780985974.314277] [bohr:17106:0]           async.c:156  UCX  DEBUG removed async handler 0x62856f89ac60 [id=12 ref 1] ???() from hash
[1780985974.314278] [bohr:17106:0]           async.c:546  UCX  DEBUG removing async handler 0x62856f89ac60 [id=12 ref 1] ???()
[1780985974.314282] [bohr:17106:0]           async.c:562  UCX  TRACE waiting for 0x62856f89ac60 [id=12 ref 1] ???() completion (called=0)
[1780985974.314282] [bohr:17106:0]           async.c:171  UCX  DEBUG release async handler 0x62856f89ac60 [id=12 ref 0] ???()
[1780985974.314283] [bohr:17106:0]       tcp_iface.c:838  UCX  DEBUG tcp_iface 0x62856f8c4e20: destroying
[1780985974.314287] [bohr:17106:0]           async.c:156  UCX  DEBUG removed async handler 0x62856f8a6230 [id=13 ref 1] ???() from hash
[1780985974.314288] [bohr:17106:0]           async.c:546  UCX  DEBUG removing async handler 0x62856f8a6230 [id=13 ref 1] ???()
[1780985974.314289] [bohr:17106:0]           async.c:562  UCX  TRACE waiting for 0x62856f8a6230 [id=13 ref 1] ???() completion (called=0)
[1780985974.314290] [bohr:17106:0]           async.c:171  UCX  DEBUG release async handler 0x62856f8a6230 [id=13 ref 0] ???()
[1780985974.314292] [bohr:17106:0]           mpool.c:194  UCX  DEBUG mpool uct_tcp_iface_rx_buf_mp destroyed
[1780985974.314292] [bohr:17106:0]           mpool.c:194  UCX  DEBUG mpool uct_tcp_iface_tx_buf_mp destroyed
[1780985974.314298] [bohr:17106:0]           async.c:156  UCX  DEBUG removed async handler 0x62856f8a9ac0 [id=14 ref 1] ???() from hash
[1780985974.314298] [bohr:17106:0]           async.c:546  UCX  DEBUG removing async handler 0x62856f8a9ac0 [id=14 ref 1] ???()
[1780985974.314299] [bohr:17106:0]           async.c:562  UCX  TRACE waiting for 0x62856f8a9ac0 [id=14 ref 1] ???() completion (called=0)
[1780985974.314299] [bohr:17106:0]           async.c:171  UCX  DEBUG release async handler 0x62856f8a9ac0 [id=14 ref 0] ???()
[1780985974.314300] [bohr:17106:0]       tcp_iface.c:838  UCX  DEBUG tcp_iface 0x62856f8c55a0: destroying
[1780985974.314300] [bohr:17106:0]           async.c:156  UCX  DEBUG removed async handler 0x62856f8a6560 [id=15 ref 1] ???() from hash
[1780985974.314301] [bohr:17106:0]           async.c:546  UCX  DEBUG removing async handler 0x62856f8a6560 [id=15 ref 1] ???()
[1780985974.314302] [bohr:17106:0]           async.c:562  UCX  TRACE waiting for 0x62856f8a6560 [id=15 ref 1] ???() completion (called=0)
[1780985974.314302] [bohr:17106:0]           async.c:171  UCX  DEBUG release async handler 0x62856f8a6560 [id=15 ref 0] ???()
[1780985974.314302] [bohr:17106:0]           mpool.c:194  UCX  DEBUG mpool uct_tcp_iface_rx_buf_mp destroyed
[1780985974.314303] [bohr:17106:0]           mpool.c:194  UCX  DEBUG mpool uct_tcp_iface_tx_buf_mp destroyed
[1780985974.314305] [bohr:17106:0]           async.c:156  UCX  DEBUG removed async handler 0x62856f8875b0 [id=16 ref 1] ???() from hash
[1780985974.314306] [bohr:17106:0]           async.c:546  UCX  DEBUG removing async handler 0x62856f8875b0 [id=16 ref 1] ???()
[1780985974.314307] [bohr:17106:0]           async.c:562  UCX  TRACE waiting for 0x62856f8875b0 [id=16 ref 1] ???() completion (called=0)
[1780985974.314307] [bohr:17106:0]           async.c:171  UCX  DEBUG release async handler 0x62856f8875b0 [id=16 ref 0] ???()
[1780985974.314434] [bohr:17106:0]           mpool.c:194  UCX  DEBUG mpool mm_recv_desc destroyed
[1780985974.314443] [bohr:17106:0]           async.c:156  UCX  DEBUG removed async handler 0x62856f8b61a0 [id=18 ref 1] ???() from hash
[1780985974.314444] [bohr:17106:0]           async.c:546  UCX  DEBUG removing async handler 0x62856f8b61a0 [id=18 ref 1] ???()
[1780985974.314444] [bohr:17106:0]           async.c:562  UCX  TRACE waiting for 0x62856f8b61a0 [id=18 ref 1] ???() completion (called=0)
[1780985974.314445] [bohr:17106:0]           async.c:171  UCX  DEBUG release async handler 0x62856f8b61a0 [id=18 ref 0] ???()
[1780985974.314640] [bohr:17106:0]           mpool.c:194  UCX  DEBUG mpool mm_recv_desc destroyed
[1780985974.314647] [bohr:17106:0]           mpool.c:194  UCX  DEBUG mpool uct_scopy_iface_tx_mp destroyed
[1780985974.314714] [bohr:17106:0]           async.c:156  UCX  DEBUG removed async handler 0x62856f8a7520 [id=7 ref 1] ???() from hash
[1780985974.314715] [bohr:17106:0]      Note: The following floating-point exceptions are signalling: IEEE_UNDERFLOW_FLAG IEEE_DENORMAL
     async.c:546  UCX  DEBUG removing async handler 0x62856f8a7520 [id=7 ref 1] ???()
[1780985974.314922] [bohr:17106:0]           async.c:562  UCX  TRACE waiting for 0x62856f8a7520 [id=7 ref 1] ???() completion (called=0)
[1780985974.314923] [bohr:17106:0]           async.c:171  UCX  DEBUG release async handler 0x62856f8a7520 [id=7 ref 0] ???()
[1780985974.314925] [bohr:17106:0]         pgtable.c:618  UCX  DEBUG purge empty page table
[1780985974.314926] [bohr:17106:0]           mpool.c:194  UCX  DEBUG mpool rcache_mp destroyed
