Authorization required, but no authorization protocol specified

Authorization required, but no authorization protocol specified

Authorization required, but no authorization protocol specified

Authorization required, but no authorization protocol specified


     Program PWSCF v.7.3 starts on  9Jun2026 at  4:30:35 

     This program is part of the open-source Quantum ESPRESSO suite
     for quantum simulation of materials; please cite
         "P. Giannozzi et al., J. Phys.:Condens. Matter 21 395502 (2009);
         "P. Giannozzi et al., J. Phys.:Condens. Matter 29 465901 (2017);
         "P. Giannozzi et al., J. Chem. Phys. 152 154105 (2020);
          URL http://www.quantum-espresso.org", 
     in publications or presentations arising from this work. More details at
     http://www.quantum-espresso.org/quote

     Parallel version (MPI), running on     1 processors

     MPI processes distributed on     1 nodes
     85800 MiB available memory on the printing compute node when the environment starts

     Waiting for input...
     Reading input from standard input

     Current dimensions of program PWSCF are:
     Max number of different atomic species (ntypx) = 10
     Max number of k-points (npk) =  40000
     Max angular momentum in pseudopotentials (lmaxx) =  4
     file Mo.pbe-spn-kjpaw_psl.1.0.0.UPF: wavefunction(s)  4S 4D renormalized
     file S.pbe-n-kjpaw_psl.1.0.0.UPF: wavefunction(s)  3S 3P renormalized

     IMPORTANT: XC functional enforced from input :
     Exchange-correlation= VDW-DF2-B86R
                           (   1   4  26   0   2   0   0)
     Any further DFT definition will be discarded
     Please, verify this is what you really want


     Subspace diagonalization in iterative solution of the eigenvalue problem:
     a serial algorithm will be used


     G-vector sticks info
     --------------------
     sticks:   dense  smooth     PW     G-vecs:    dense   smooth      PW
     Sum        1573     769    223               478405   168563   26075

     Using Slab Decomposition



     bravais-lattice index     =            4
     lattice parameter (alat)  =       5.9715  a.u.
     unit-cell volume          =    1750.7440 (a.u.)^3
     number of atoms/cell      =           12
     number of atomic types    =            2
     number of electrons       =       104.00
     number of Kohn-Sham states=           62
     kinetic-energy cutoff     =      80.0000  Ry
     charge density cutoff     =     640.0000  Ry
     scf convergence threshold =      1.0E-08
     mixing beta               =       0.2000
     number of iterations used =            8  local-TF  mixing
     Exchange-correlation= VDW-DF2-B86R
                           (   1   4  26   0   2   0   0)

     celldm(1)=   5.971535  celldm(2)=   0.000000  celldm(3)=   9.493671
     celldm(4)=   0.000000  celldm(5)=   0.000000  celldm(6)=   0.000000

     crystal axes: (cart. coord. in units of alat)
               a(1) = (   1.000000   0.000000   0.000000 )  
               a(2) = (  -0.500000   0.866025   0.000000 )  
               a(3) = (   0.000000   0.000000   9.493671 )  

     reciprocal axes: (cart. coord. in units 2 pi/alat)
               b(1) = (  1.000000  0.577350 -0.000000 )  
               b(2) = (  0.000000  1.154701  0.000000 )  
               b(3) = (  0.000000 -0.000000  0.105333 )  


     PseudoPot. # 1 for Mo read from file:
     ./pseudo/Mo.pbe-spn-kjpaw_psl.1.0.0.UPF
     MD5 check sum: 4396e0c640fcce5c25f020efccf1ab12
     Pseudo is Projector augmented-wave + core cor, Zval = 14.0
     Generated using &quot;atomic&quot; code by A. Dal Corso  v.6.3
     Shape of augmentation charge: PSQ
     Using radial grid of 1229 points,  6 beta functions with: 
                l(1) =   0
                l(2) =   0
                l(3) =   1
                l(4) =   1
                l(5) =   2
                l(6) =   2
     Q(r) pseudized with 0 coefficients 


     PseudoPot. # 2 for S  read from file:
     ./pseudo/S.pbe-n-kjpaw_psl.1.0.0.UPF
     MD5 check sum: fb45dfebcf3e72a4e1bd4a866ec2e262
     Pseudo is Projector augmented-wave + core cor, Zval =  6.0
     Generated using &quot;atomic&quot; code by A. Dal Corso  v.6.3
     Shape of augmentation charge: PSQ
     Using radial grid of 1151 points,  6 beta functions with: 
                l(1) =   0
                l(2) =   0
                l(3) =   1
                l(4) =   1
                l(5) =   2
                l(6) =   2
     Q(r) pseudized with 0 coefficients 


     atomic species   valence    mass     pseudopotential
     Mo               14.00    95.96000     Mo( 1.00)
     S                 6.00    32.06000     S ( 1.00)

      6 Sym. Ops. (no inversion) found



   Cartesian axes

     site n.     atom                  positions (alat units)
         1        S      tau(   1) = (  -0.0000005   0.5773503  -0.9967195  )
         2        Mo     tau(   2) = (   0.0000000   0.0000000  -0.4993332  )
         3        S      tau(   3) = (  -0.0000005   0.5773503  -0.0017175  )
         4        S      tau(   4) = (   0.5000003   0.2886747   0.9835827  )
         5        Mo     tau(   5) = (  -0.0000005   0.5773503   1.4818950  )
         6        S      tau(   6) = (   0.5000003   0.2886747   1.9798512  )
         7        S      tau(   7) = (   0.0000000   0.0000000   2.9586848  )
         8        Mo     tau(   8) = (   0.5000003   0.2886747   3.4569999  )
         9        S      tau(   9) = (   0.0000000   0.0000000   3.9548385  )
        10        S      tau(  10) = (  -0.0000005   0.5773503   6.1232933  )
        11        Mo     tau(  11) = (   0.0000000   0.0000000   6.6209298  )
        12        S      tau(  12) = (  -0.0000005   0.5773503   7.1180640  )

     number of k points=    30  Methfessel-Paxton smearing, width (Ry)=  0.0200
                       cart. coord. in units 2pi/alat
        k(    1) = (   0.0000000   0.0000000   0.0000000), wk =   0.0078125
        k(    2) = (   0.0000000   0.0721688   0.0000000), wk =   0.0468750
        k(    3) = (   0.0000000   0.1443376   0.0000000), wk =   0.0468750
        k(    4) = (   0.0000000   0.2165064   0.0000000), wk =   0.0468750
        k(    5) = (   0.0000000   0.2886751   0.0000000), wk =   0.0468750
        k(    6) = (   0.0000000   0.3608439   0.0000000), wk =   0.0468750
        k(    7) = (   0.0000000   0.4330127   0.0000000), wk =   0.0468750
        k(    8) = (   0.0000000   0.5051815   0.0000000), wk =   0.0468750
        k(    9) = (   0.0000000  -0.5773503   0.0000000), wk =   0.0234375
        k(   10) = (   0.0625000   0.1082532   0.0000000), wk =   0.0468750
        k(   11) = (   0.0625000   0.1804220   0.0000000), wk =   0.0937500
        k(   12) = (   0.0625000   0.2525907   0.0000000), wk =   0.0937500
        k(   13) = (   0.0625000   0.3247595   0.0000000), wk =   0.0937500
        k(   14) = (   0.0625000   0.3969283   0.0000000), wk =   0.0937500
        k(   15) = (   0.0625000   0.4690971   0.0000000), wk =   0.0937500
        k(   16) = (   0.0625000   0.5412659   0.0000000), wk =   0.0937500
        k(   17) = (   0.1250000   0.2165064   0.0000000), wk =   0.0468750
        k(   18) = (   0.1250000   0.2886751   0.0000000), wk =   0.0937500
        k(   19) = (   0.1250000   0.3608439   0.0000000), wk =   0.0937500
        k(   20) = (   0.1250000   0.4330127   0.0000000), wk =   0.0937500
        k(   21) = (   0.1250000   0.5051815   0.0000000), wk =   0.0937500
        k(   22) = (   0.1250000   0.5773503   0.0000000), wk =   0.0468750
        k(   23) = (   0.1875000   0.3247595   0.0000000), wk =   0.0468750
        k(   24) = (   0.1875000   0.3969283   0.0000000), wk =   0.0937500
        k(   25) = (   0.1875000   0.4690971   0.0000000), wk =   0.0937500
        k(   26) = (   0.1875000   0.5412659   0.0000000), wk =   0.0937500
        k(   27) = (   0.2500000   0.4330127   0.0000000), wk =   0.0468750
        k(   28) = (   0.2500000   0.5051815   0.0000000), wk =   0.0937500
        k(   29) = (   0.2500000   0.5773503   0.0000000), wk =   0.0468750
        k(   30) = (   0.3125000   0.5412659   0.0000000), wk =   0.0468750

     Dense  grid:   478405 G-vectors     FFT dimensions: (  50,  50, 480)

     Smooth grid:   168563 G-vectors     FFT dimensions: (  36,  36, 324)

     Estimated max dynamical RAM per process >       2.35 GB

     Initial potential from superposition of free atoms

     starting charge     103.9962, renormalised to     104.0000


     %%%%%%%%%%%%%%%%%%%%%%%%%%%%%%%%%%%%%%%%%%%%%%%%%%%%%%%%%%%%%%%%%%%%%%%%
     %                                                                      %
     % You are using vdW-DF, which was implemented by the Thonhauser group. %
     % Please cite the following two papers that made this development      %
     % possible and the two reviews that describe the various versions:     %
     %                                                                      %
     %   T. Thonhauser et al., PRL 115, 136402 (2015).                      %
     %   T. Thonhauser et al., PRB 76, 125112 (2007).                       %
     %   K. Berland et al., Rep. Prog. Phys. 78, 066501 (2015).             %
     %   D.C. Langreth et al., J. Phys.: Condens. Matter 21, 084203 (2009). %
     %                                                                      %
     % If you are calculating stress with vdW-DF, please also cite:         %
     %                                                                      %
     %   R. Sabatini et al., J. Phys.: Condens. Matter 24, 424209 (2012).   %
     %                                                                      %
     %%%%%%%%%%%%%%%%%%%%%%%%%%%%%%%%%%%%%%%%%%%%%%%%%%%%%%%%%%%%%%%%%%%%%%%%

     %%%%%%%%%%%%%%%%%%%%%%%%%%%%%%%%%%%%%%%%%%%%%%%%%%%%%%%%%%%%%%%%%%%%%%%%
     %                                                                      %
     %  vdW-DF NEWS:                                                        %
     %                                                                      %
     %  * vdW-DF3 is now available. DOI: 10.1021/acs.jctc.0c00471           %
     %    use with input_dft = 'vdW-DF3-opt1' or 'vdW-DF3-opt2'             %
     %                                                                      %
     %  * Unscreened and range-separated hybrid vdW-DF-cx functionals       %
     %    DOI: 10.1063/1.4986522 and 10.1088/1361-648X/ac2ad2               %
     %    use with input_dft = 'vdW-DF-cx0'    and 'vdW-DF-ahcx'            %
     %  * Unscreened and range-separated hybrid vdW-DF2-b86r functionals    %
     %    DOI: 10.1063/1.4986522 and DOI: 10.1103/PhysRevX.12.041003        %
     %    use with input_dft = 'vdW-DF2-br0' and 'vdW-DF2-ahbr'             %
     %                                                                      %
     %%%%%%%%%%%%%%%%%%%%%%%%%%%%%%%%%%%%%%%%%%%%%%%%%%%%%%%%%%%%%%%%%%%%%%%%


     Starting wfcs are   72 randomized atomic wfcs
     Checking if some PAW data can be deallocated... 

     total cpu time spent up to now is       85.8 secs

     Self-consistent Calculation

     iteration #  1     ecut=    80.00 Ry     beta= 0.20
     Davidson diagonalization with overlap
     ethr =  1.00E-02,  avg # of iterations =  2.2

     Threshold (ethr) on eigenvalues was too large:
     Diagonalizing with lowered threshold

     Davidson diagonalization with overlap
     ethr =  3.06E-04,  avg # of iterations =  3.0

     total cpu time spent up to now is      339.0 secs

     total energy              =   -1978.46065331 Ry
     estimated scf accuracy    <       0.43643227 Ry

     iteration #  2     ecut=    80.00 Ry     beta= 0.20
     Davidson diagonalization with overlap
     ethr =  4.20E-04,  avg # of iterations =  1.0

     total cpu time spent up to now is      436.8 secs

     total energy              =   -1978.28157390 Ry
     estimated scf accuracy    <       0.36444815 Ry

     iteration #  3     ecut=    80.00 Ry     beta= 0.20
     Davidson diagonalization with overlap
     ethr =  3.50E-04,  avg # of iterations =  2.0

     total cpu time spent up to now is      567.0 secs

     total energy              =   -1978.36196525 Ry
     estimated scf accuracy    <       0.04901288 Ry

     iteration #  4     ecut=    80.00 Ry     beta= 0.20
     Davidson diagonalization with overlap
     ethr =  4.71E-05,  avg # of iterations =  2.2

     total cpu time spent up to now is      693.0 secs

     total energy              =   -1978.36555623 Ry
     estimated scf accuracy    <       0.01556254 Ry

     iteration #  5     ecut=    80.00 Ry     beta= 0.20
     Davidson diagonalization with overlap
     ethr =  1.50E-05,  avg # of iterations =  4.9

     total cpu time spent up to now is      814.3 secs

     total energy              =   -1978.36654664 Ry
     estimated scf accuracy    <       0.00405140 Ry

     iteration #  6     ecut=    80.00 Ry     beta= 0.20
     Davidson diagonalization with overlap
     ethr =  3.90E-06,  avg # of iterations =  4.9

     total cpu time spent up to now is      927.0 secs

     total energy              =   -1978.36549665 Ry
     estimated scf accuracy    <       0.00283647 Ry

     iteration #  7     ecut=    80.00 Ry     beta= 0.20
     Davidson diagonalization with overlap
     c_bands:  1 eigenvalues not converged
     ethr =  2.73E-06,  avg # of iterations =  7.7

     total cpu time spent up to now is     1081.7 secs

     total energy              =   -1978.36525605 Ry
     estimated scf accuracy    <       0.00674981 Ry

     iteration #  8     ecut=    80.00 Ry     beta= 0.20
     Davidson diagonalization with overlap
     c_bands:  1 eigenvalues not converged
     ethr =  2.73E-06,  avg # of iterations =  3.3

     total cpu time spent up to now is     1199.2 secs

     total energy              =   -1978.36546832 Ry
     estimated scf accuracy    <       0.00093807 Ry

     iteration #  9     ecut=    80.00 Ry     beta= 0.20
     Davidson diagonalization with overlap
     ethr =  9.02E-07,  avg # of iterations =  6.5

     total cpu time spent up to now is     1342.7 secs

     total energy              =   -1978.36569998 Ry
     estimated scf accuracy    <       0.00212583 Ry

     iteration # 10     ecut=    80.00 Ry     beta= 0.20
     Davidson diagonalization with overlap
     ethr =  9.02E-07,  avg # of iterations =  2.0

     total cpu time spent up to now is     1453.3 secs

     total energy              =   -1978.36558379 Ry
     estimated scf accuracy    <       0.00126494 Ry

     iteration # 11     ecut=    80.00 Ry     beta= 0.20
     Davidson diagonalization with overlap
     ethr =  9.02E-07,  avg # of iterations =  1.8

     total cpu time spent up to now is     1560.3 secs

     total energy              =   -1978.36554358 Ry
     estimated scf accuracy    <       0.00047332 Ry

     iteration # 12     ecut=    80.00 Ry     beta= 0.20
     Davidson diagonalization with overlap
     ethr =  4.55E-07,  avg # of iterations =  4.0

     total cpu time spent up to now is     1680.1 secs

     total energy              =   -1978.36561271 Ry
     estimated scf accuracy    <       0.00009136 Ry

     iteration # 13     ecut=    80.00 Ry     beta= 0.20
     Davidson diagonalization with overlap
     ethr =  8.78E-08,  avg # of iterations =  2.5

     total cpu time spent up to now is     1800.6 secs

     total energy              =   -1978.36561676 Ry
     estimated scf accuracy    <       0.00007564 Ry

     iteration # 14     ecut=    80.00 Ry     beta= 0.20
     Davidson diagonalization with overlap
     ethr =  7.27E-08,  avg # of iterations =  1.8

     total cpu time spent up to now is     1906.5 secs

     total energy              =   -1978.36559089 Ry
     estimated scf accuracy    <       0.00006285 Ry

     iteration # 15     ecut=    80.00 Ry     beta= 0.20
     Davidson diagonalization with overlap
     ethr =  6.04E-08,  avg # of iterations =  3.0

     total cpu time spent up to now is     2028.9 secs

     total energy              =   -1978.36560211 Ry
     estimated scf accuracy    <       0.00010519 Ry

     iteration # 16     ecut=    80.00 Ry     beta= 0.20
     Davidson diagonalization with overlap
     ethr =  6.04E-08,  avg # of iterations =  2.4

     total cpu time spent up to now is     2145.3 secs

     total energy              =   -1978.36561070 Ry
     estimated scf accuracy    <       0.00003806 Ry

     iteration # 17     ecut=    80.00 Ry     beta= 0.20
     Davidson diagonalization with overlap
     ethr =  3.66E-08,  avg # of iterations =  2.2

     total cpu time spent up to now is     2256.4 secs

     total energy              =   -1978.36561133 Ry
     estimated scf accuracy    <       0.00002684 Ry

     iteration # 18     ecut=    80.00 Ry     beta= 0.20
     Davidson diagonalization with overlap
     ethr =  2.58E-08,  avg # of iterations =  2.3

     total cpu time spent up to now is     2371.0 secs

     total energy              =   -1978.36559943 Ry
     estimated scf accuracy    <       0.00003846 Ry

     iteration # 19     ecut=    80.00 Ry     beta= 0.20
     Davidson diagonalization with overlap
     ethr =  2.58E-08,  avg # of iterations =  5.6

     total cpu time spent up to now is     2519.1 secs

     total energy              =   -1978.36561060 Ry
     estimated scf accuracy    <       0.00007609 Ry

     iteration # 20     ecut=    80.00 Ry     beta= 0.20
     Davidson diagonalization with overlap
     ethr =  2.58E-08,  avg # of iterations =  2.2

     total cpu time spent up to now is     2626.5 secs

     total energy              =   -1978.36559977 Ry
     estimated scf accuracy    <       0.00003229 Ry

     iteration # 21     ecut=    80.00 Ry     beta= 0.20
     Davidson diagonalization with overlap
     ethr =  2.58E-08,  avg # of iterations =  3.9

     total cpu time spent up to now is     2752.9 secs

     total energy              =   -1978.36560601 Ry
     estimated scf accuracy    <       0.00001158 Ry

     iteration # 22     ecut=    80.00 Ry     beta= 0.20
     Davidson diagonalization with overlap
     ethr =  1.11E-08,  avg # of iterations =  2.0

     total cpu time spent up to now is     2860.0 secs

     total energy              =   -1978.36560723 Ry
     estimated scf accuracy    <       0.00000399 Ry

     iteration # 23     ecut=    80.00 Ry     beta= 0.20
     Davidson diagonalization with overlap
     ethr =  3.83E-09,  avg # of iterations =  2.0

     total cpu time spent up to now is     2965.6 secs

     total energy              =   -1978.36560701 Ry
     estimated scf accuracy    <       0.00000388 Ry

     iteration # 24     ecut=    80.00 Ry     beta= 0.20
     Davidson diagonalization with overlap
     ethr =  3.73E-09,  avg # of iterations =  2.1

     total cpu time spent up to now is     3075.4 secs

     total energy              =   -1978.36560618 Ry
     estimated scf accuracy    <       0.00000502 Ry

     iteration # 25     ecut=    80.00 Ry     beta= 0.20
     Davidson diagonalization with overlap
     ethr =  3.73E-09,  avg # of iterations =  2.7

     total cpu time spent up to now is     3194.3 secs

     total energy              =   -1978.36560658 Ry
     estimated scf accuracy    <       0.00000337 Ry

     iteration # 26     ecut=    80.00 Ry     beta= 0.20
     Davidson diagonalization with overlap
     ethr =  3.24E-09,  avg # of iterations =  1.0

     total cpu time spent up to now is     3292.4 secs

     total energy              =   -1978.36560639 Ry
     estimated scf accuracy    <       0.00000271 Ry

     iteration # 27     ecut=    80.00 Ry     beta= 0.20
     Davidson diagonalization with overlap
     ethr =  2.61E-09,  avg # of iterations =  2.1

     total cpu time spent up to now is     3401.1 secs

     total energy              =   -1978.36560605 Ry
     estimated scf accuracy    <       0.00000203 Ry

     iteration # 28     ecut=    80.00 Ry     beta= 0.20
     Davidson diagonalization with overlap
     ethr =  1.95E-09,  avg # of iterations =  3.8

     total cpu time spent up to now is     3524.5 secs

     total energy              =   -1978.36560567 Ry
     estimated scf accuracy    <       0.00000400 Ry

     iteration # 29     ecut=    80.00 Ry     beta= 0.20
     Davidson diagonalization with overlap
     ethr =  1.95E-09,  avg # of iterations =  2.7

     total cpu time spent up to now is     3641.6 secs

     total energy              =   -1978.36560603 Ry
     estimated scf accuracy    <       0.00000078 Ry

     iteration # 30     ecut=    80.00 Ry     beta= 0.20
     Davidson diagonalization with overlap
     ethr =  7.47E-10,  avg # of iterations =  1.2

     total cpu time spent up to now is     3741.3 secs

     total energy              =   -1978.36560584 Ry
     estimated scf accuracy    <       0.00000065 Ry

     iteration # 31     ecut=    80.00 Ry     beta= 0.20
     Davidson diagonalization with overlap
     ethr =  6.28E-10,  avg # of iterations =  2.1

     total cpu time spent up to now is     3853.5 secs

     total energy              =   -1978.36560591 Ry
     estimated scf accuracy    <       0.00000028 Ry

     iteration # 32     ecut=    80.00 Ry     beta= 0.20
     Davidson diagonalization with overlap
     ethr =  2.74E-10,  avg # of iterations =  2.1

     total cpu time spent up to now is     3963.5 secs

     total energy              =   -1978.36560594 Ry
     estimated scf accuracy    <       0.00000023 Ry

     iteration # 33     ecut=    80.00 Ry     beta= 0.20
     Davidson diagonalization with overlap
     ethr =  2.25E-10,  avg # of iterations =  1.8

     total cpu time spent up to now is     4070.2 secs

     total energy              =   -1978.36560595 Ry
     estimated scf accuracy    <       0.00000023 Ry

     iteration # 34     ecut=    80.00 Ry     beta= 0.20
     Davidson diagonalization with overlap
     ethr =  2.21E-10,  avg # of iterations =  1.1

     total cpu time spent up to now is     4169.1 secs

     total energy              =   -1978.36560594 Ry
     estimated scf accuracy    <       0.00000018 Ry

     iteration # 35     ecut=    80.00 Ry     beta= 0.20
     Davidson diagonalization with overlap
     ethr =  1.74E-10,  avg # of iterations =  1.9

     total cpu time spent up to now is     4276.0 secs

     total energy              =   -1978.36560594 Ry
     estimated scf accuracy    <       0.00000018 Ry

     iteration # 36     ecut=    80.00 Ry     beta= 0.20
     Davidson diagonalization with overlap
     ethr =  1.73E-10,  avg # of iterations =  1.5

     total cpu time spent up to now is     4377.9 secs

     total energy              =   -1978.36560592 Ry
     estimated scf accuracy    <       0.00000016 Ry

     iteration # 37     ecut=    80.00 Ry     beta= 0.20
     Davidson diagonalization with overlap
     ethr =  1.49E-10,  avg # of iterations =  1.7

     total cpu time spent up to now is     4483.0 secs

     total energy              =   -1978.36560591 Ry
     estimated scf accuracy    <       0.00000016 Ry

     iteration # 38     ecut=    80.00 Ry     beta= 0.20
     Davidson diagonalization with overlap
     ethr =  1.49E-10,  avg # of iterations =  2.7

     total cpu time spent up to now is     4598.5 secs

     total energy              =   -1978.36560590 Ry
     estimated scf accuracy    <       0.00000019 Ry

     iteration # 39     ecut=    80.00 Ry     beta= 0.20
     Davidson diagonalization with overlap
     ethr =  1.49E-10,  avg # of iterations =  1.8

     total cpu time spent up to now is     4703.1 secs

     total energy              =   -1978.36560589 Ry
     estimated scf accuracy    <       0.00000011 Ry

     iteration # 40     ecut=    80.00 Ry     beta= 0.20
     Davidson diagonalization with overlap
     ethr =  1.01E-10,  avg # of iterations =  3.1

     total cpu time spent up to now is     4820.0 secs

     total energy              =   -1978.36560586 Ry
     estimated scf accuracy    <       0.00000014 Ry

     iteration # 41     ecut=    80.00 Ry     beta= 0.20
     Davidson diagonalization with overlap
     ethr =  1.01E-10,  avg # of iterations =  3.1

     total cpu time spent up to now is     4943.7 secs

     total energy              =   -1978.36560586 Ry
     estimated scf accuracy    <       0.00000008 Ry

     iteration # 42     ecut=    80.00 Ry     beta= 0.20
     Davidson diagonalization with overlap
     ethr =  8.03E-11,  avg # of iterations =  3.0

     total cpu time spent up to now is     5064.1 secs

     total energy              =   -1978.36560585 Ry
     estimated scf accuracy    <       0.00000006 Ry

     iteration # 43     ecut=    80.00 Ry     beta= 0.20
     Davidson diagonalization with overlap
     ethr =  5.61E-11,  avg # of iterations =  3.0

     total cpu time spent up to now is     5184.7 secs

     total energy              =   -1978.36560586 Ry
     estimated scf accuracy    <       0.00000002 Ry

     iteration # 44     ecut=    80.00 Ry     beta= 0.20
     Davidson diagonalization with overlap
     ethr =  2.39E-11,  avg # of iterations =  2.0

     total cpu time spent up to now is     5293.6 secs

     total energy              =   -1978.36560586 Ry
     estimated scf accuracy    <       0.00000002 Ry

     iteration # 45     ecut=    80.00 Ry     beta= 0.20
     Davidson diagonalization with overlap
     ethr =  1.98E-11,  avg # of iterations =  2.1

     total cpu time spent up to now is     5402.0 secs

     End of self-consistent calculation

          k = 0.0000 0.0000 0.0000 ( 21311 PWs)   bands (ev):

   -53.4985 -53.4583 -53.4402 -53.4166 -27.6724 -27.6328 -27.6140 -27.5910
   -27.4350 -27.4350 -27.3948 -27.3948 -27.3780 -27.3780 -27.3541 -27.3541
    -6.8467  -6.7518  -6.7150  -6.6577  -5.6130  -5.4580  -5.4270  -5.3255
     1.3520   1.6743   1.7636   2.0384   4.7790   4.7790   4.7834   4.8169
     4.8169   4.8280   4.8280   4.8505   4.8505   5.3691   5.5673   5.8933
     5.8933   5.9312   5.9312   5.9474   5.9474   5.9694   5.9694   6.2248
     6.9755   7.2925   7.5409   7.8549  10.1229  10.1229  10.1700  10.1700
    10.2070  10.2070  10.2218  10.2218  10.3458  10.3462

          k = 0.0000 0.0722 0.0000 ( 21283 PWs)   bands (ev):

   -53.4969 -53.4567 -53.4386 -53.4150 -27.6694 -27.6298 -27.6110 -27.5880
   -27.4506 -27.4386 -27.4103 -27.3983 -27.3935 -27.3815 -27.3697 -27.3577
    -6.7871  -6.6925  -6.6556  -6.5986  -5.5854  -5.4327  -5.4021  -5.3023
     1.4208   1.7420   1.8325   2.1064   4.6392   4.6515   4.6813   4.6937
     4.7164   4.8412   4.8791   4.8906   4.9130   5.1381   5.2680   5.5722
     5.7960   5.8344   5.8508   5.8731   5.9936   6.0829   6.1501   6.4643
     6.9782   7.2746   7.5042   7.7746  10.0492  10.0892  10.1136  10.1382
    10.1828  10.2071  10.2239  10.2452  10.2529  10.2893

          k = 0.0000 0.1443 0.0000 ( 21263 PWs)   bands (ev):

   -53.4925 -53.4523 -53.4342 -53.4106 -27.6607 -27.6211 -27.6023 -27.5793
   -27.4946 -27.4544 -27.4486 -27.4376 -27.4138 -27.4083 -27.3915 -27.3677
    -6.6131  -6.5196  -6.4824  -6.4264  -5.5047  -5.3589  -5.3296  -5.2351
     1.6126   1.9286   2.0224   2.2916   4.2892   4.3258   4.3375   4.3477
     4.3761   4.7197   4.8048   5.0203   5.0557   5.0583   5.0707   5.0932
     5.5445   5.5840   5.6007   5.6239   6.0516   6.2103   6.3121   6.6151
     6.9499   7.1828   7.3464   7.5162   9.7592   9.8193   9.8657   9.9243
     9.9610  10.0351  10.0613  10.0636  10.1094  10.1376

          k = 0.0000 0.2165 0.0000 ( 21233 PWs)   bands (ev):

   -53.4858 -53.4456 -53.4276 -53.4039 -27.6478 -27.6082 -27.5893 -27.5663
   -27.5600 -27.5198 -27.5031 -27.4793 -27.4636 -27.4233 -27.4065 -27.3827
    -6.3396  -6.2485  -6.2110  -6.1570  -5.3782  -5.2438  -5.2163  -5.1304
     1.8726   2.1712   2.2680   2.5180   3.8515   3.8934   3.9203   3.9241
     3.9933   4.2602   4.3187   4.5097   5.2176   5.2567   5.2772   5.2915
     5.3026   5.3355   5.3458   5.3701   5.9636   6.1585   6.2632   6.5325
     6.8082   6.9504   7.0234   7.1061   9.3751   9.5101   9.6062   9.8212
     9.8430   9.9231   9.9533   9.9594  10.0030  10.0637

          k = 0.0000 0.2887 0.0000 ( 21197 PWs)   bands (ev):

   -53.4780 -53.4378 -53.4197 -53.3961 -27.6363 -27.6324 -27.5961 -27.5928
   -27.5794 -27.5739 -27.5556 -27.5510 -27.4812 -27.4409 -27.4242 -27.4003
    -5.9920  -5.9056  -5.8679  -5.8176  -5.2184  -5.0994  -5.0741  -4.9998
     2.0728   2.3170   2.4036   2.5825   3.4493   3.5193   3.5844   3.6063
     3.6748   3.7941   3.8592   3.9694   4.8895   4.9311   4.9494   4.9737
     5.6175   5.6594   5.6753   5.7006   5.7482   5.9596   6.0564   6.2882
     6.5367   6.6175   6.6425   6.6959   9.2398   9.4292   9.5396   9.6549
     9.7329   9.7664   9.8102   9.8177  10.1715  10.3123

          k = 0.0000 0.3608 0.0000 ( 21187 PWs)   bands (ev):

   -53.4701 -53.4299 -53.4118 -53.3882 -27.7117 -27.6715 -27.6549 -27.6311
   -27.6170 -27.5774 -27.5585 -27.5355 -27.4987 -27.4585 -27.4417 -27.4179
    -5.6085  -5.5302  -5.4924  -5.4485  -5.0444  -4.9445  -4.9211  -4.8609
     2.0368   2.1877   2.2474   2.3300   3.0844   3.2047   3.3163   3.3733
     3.4416   3.5282   3.5735   3.6650   4.6010   4.6435   4.6619   4.6869
     5.5134   5.7257   5.8147   5.9357   5.9846   6.0035   6.0135   6.0330
     6.3184   6.3937   6.4133   6.4651   9.3571   9.5516   9.5521   9.6197
     9.6484   9.6499   9.6885   9.9069  10.5014  10.6529

          k = 0.0000 0.4330 0.0000 ( 21140 PWs)   bands (ev):

   -53.4634 -53.4232 -53.4051 -53.3815 -27.7749 -27.7347 -27.7182 -27.6944
   -27.6039 -27.5643 -27.5454 -27.5224 -27.5136 -27.4733 -27.4566 -27.4327
    -5.2441  -5.1775  -5.1401  -5.1056  -4.8821  -4.8038  -4.7812  -4.7361
     1.8051   1.8944   1.9433   1.9795   2.7472   2.8558   2.9259   2.9776
     3.3330   3.4461   3.4822   3.5847   4.3801   4.4232   4.4417   4.4671
     5.3387   5.5417   5.6263   5.7983   6.1886   6.2487   6.2707   6.3068
     6.3365   6.4265   6.4558   6.5194   9.5475   9.6007   9.6197   9.6269
     9.6576   9.7825   9.8520  10.0431  10.8104  10.9545

          k = 0.0000 0.5052 0.0000 ( 21078 PWs)   bands (ev):

   -53.4590 -53.4187 -53.4007 -53.3770 -27.8168 -27.7766 -27.7602 -27.7364
   -27.5952 -27.5556 -27.5366 -27.5235 -27.5137 -27.4832 -27.4665 -27.4426
    -4.9710  -4.9178  -4.8814  -4.8577  -4.7631  -4.7055  -4.6817  -4.6496
     1.5777   1.6417   1.6909   1.7118   2.5107   2.5932   2.6584   2.6965
     3.2296   3.3426   3.3808   3.4717   4.2423   4.2858   4.3044   4.3300
     5.2435   5.4358   5.5172   5.6673   6.3417   6.4124   6.4368   6.4794
     6.5242   6.6124   6.6499   6.7104   9.5974   9.6405   9.6627   9.6877
     9.9127  10.0241  10.0665  10.1744  11.0020  11.1303

          k = 0.0000-0.5774 0.0000 ( 21006 PWs)   bands (ev):

   -53.4574 -53.4172 -53.3991 -53.3755 -27.8314 -27.7913 -27.7748 -27.7511
   -27.5921 -27.5525 -27.5336 -27.5269 -27.5106 -27.4867 -27.4699 -27.4461
    -4.8667  -4.8206  -4.7850  -4.7670  -4.7185  -4.6711  -4.6455  -4.6189
     1.4860   1.5443   1.5945   1.6125   2.4260   2.4972   2.5634   2.5975
     3.1815   3.2940   3.3316   3.4191   4.1956   4.2392   4.2578   4.2835
     5.2150   5.4021   5.4821   5.6233   6.3913   6.4664   6.4916   6.5370
     6.6410   6.7117   6.7493   6.8020   9.6264   9.6670   9.6872   9.7108
    10.0690  10.1425  10.1668  10.2191  11.0625  11.1783

          k = 0.0625 0.1083 0.0000 ( 21269 PWs)   bands (ev):

   -53.4939 -53.4537 -53.4356 -53.4120 -27.6635 -27.6239 -27.6051 -27.5821
   -27.4799 -27.4458 -27.4397 -27.4229 -27.4055 -27.3991 -27.3887 -27.3649
    -6.6703  -6.5763  -6.5393  -6.4829  -5.5312  -5.3831  -5.3534  -5.2572
     1.5517   1.8698   1.9625   2.2338   4.4001   4.4330   4.4423   4.4556
     4.4801   4.8492   4.9460   4.9601   4.9981   5.0099   5.0321   5.2208
     5.5812   5.6191   5.6362   5.6581   6.0889   6.2257   6.3200   6.6189
     6.9666   7.2206   7.4083   7.6049   9.8858   9.9178   9.9238   9.9637
     9.9808  10.0316  10.0489  10.1088  10.1379  10.2029

          k = 0.0625 0.1804 0.0000 ( 21194 PWs)   bands (ev):

   -53.4884 -53.4482 -53.4301 -53.4065 -27.6527 -27.6131 -27.5943 -27.5713
   -27.5334 -27.4932 -27.4765 -27.4595 -27.4526 -27.4192 -27.4025 -27.3786
    -6.4464  -6.3542  -6.3168  -6.2619  -5.4274  -5.2885  -5.2603  -5.1710
     1.7817   2.0897   2.1861   2.4473   4.0162   4.0526   4.0768   4.0835
     4.1428   4.4656   4.5354   4.7614   5.1756   5.2046   5.2248   5.2276
     5.2418   5.2625   5.2703   5.2931   6.1393   6.3013   6.4022   6.6590
     6.8842   7.0589   7.1664   7.2670   9.4862   9.5918   9.6666   9.8086
     9.8480   9.9120   9.9439   9.9821  10.0152  10.0306

          k = 0.0625 0.2526 0.0000 ( 21202 PWs)   bands (ev):

   -53.4811 -53.4409 -53.4228 -53.3992 -27.6386 -27.6026 -27.5990 -27.5801
   -27.5624 -27.5571 -27.5457 -27.5219 -27.4775 -27.4372 -27.4204 -27.3966
    -6.1352  -6.0466  -6.0089  -5.9569  -5.2836  -5.1581  -5.1319  -5.0527
     2.0254   2.3010   2.3957   2.6159   3.6212   3.6699   3.7044   3.7163
     3.8135   4.0341   4.0868   4.2370   4.8370   4.8807   4.8953   4.9270
     5.4434   5.4830   5.4996   5.5228   6.0368   6.2045   6.2961   6.5057
     6.6755   6.7700   6.8023   6.8552   9.2196   9.3873   9.4826   9.6546
     9.7764   9.8280   9.8492   9.8831   9.9655  10.0902

          k = 0.0625 0.3248 0.0000 ( 21194 PWs)   bands (ev):

   -53.4732 -53.4330 -53.4150 -53.3914 -27.6766 -27.6364 -27.6232 -27.6198
   -27.5960 -27.5836 -27.5647 -27.5417 -27.4968 -27.4566 -27.4398 -27.4160
    -5.7681  -5.6859  -5.6481  -5.6011  -5.1154  -5.0070  -4.9829  -4.9165
     2.1153   2.3104   2.3820   2.5048   3.2806   3.3710   3.5004   3.5233
     3.5588   3.6018   3.7012   3.7361   4.5302   4.5876   4.6045   4.6464
     5.6763   5.7166   5.7424   5.7623   5.8253   5.9818   6.0646   6.2386
     6.4492   6.5068   6.5242   6.5664   9.1827   9.3665   9.4460   9.5676
     9.7073   9.7654   9.7827   9.9053  10.2299  10.3740

          k = 0.0625 0.3969 0.0000 ( 21151 PWs)   bands (ev):

   -53.4660 -53.4258 -53.4077 -53.3841 -27.7443 -27.7041 -27.6876 -27.6638
   -27.6090 -27.5693 -27.5504 -27.5275 -27.5147 -27.4744 -27.4577 -27.4338
    -5.3910  -5.3188  -5.2810  -5.2421  -4.9449  -4.8569  -4.8342  -4.7824
     1.9618   2.0765   2.1282   2.1824   2.9122   3.0227   3.0970   3.1469
     3.4047   3.5111   3.5464   3.6535   4.3307   4.3916   4.4104   4.4502
     5.5623   5.7247   5.7919   5.8225   5.8760   5.8845   5.9141   5.9894
     6.4599   6.5084   6.5243   6.5623   9.3168   9.4671   9.5190   9.5961
     9.7512   9.8091   9.8414   9.9896  10.5726  10.7142

          k = 0.0625 0.4691 0.0000 ( 21105 PWs)   bands (ev):

   -53.4604 -53.4202 -53.4021 -53.3785 -27.7956 -27.7554 -27.7389 -27.7151
   -27.5980 -27.5584 -27.5395 -27.5283 -27.5165 -27.4880 -27.4713 -27.4474
    -5.0670  -5.0080  -4.9709  -4.9426  -4.8010  -4.7347  -4.7119  -4.6745
     1.7253   1.7995   1.8482   1.8749   2.5969   2.6807   2.7413   2.7777
     3.3017   3.4148   3.4571   3.5501   4.2241   4.2736   4.2967   4.3260
     5.3705   5.5362   5.6097   5.7424   5.9437   6.0009   6.0308   6.0735
     6.6328   6.6843   6.7047   6.7461   9.5105   9.5972   9.6285   9.6703
     9.8869   9.9634   9.9990  10.1165  10.8871  11.0166

          k = 0.0625 0.5413 0.0000 ( 21084 PWs)   bands (ev):

   -53.4574 -53.4172 -53.3991 -53.3755 -27.8232 -27.7830 -27.7666 -27.7428
   -27.5921 -27.5525 -27.5356 -27.5336 -27.5106 -27.4953 -27.4786 -27.4548
    -4.8727  -4.8252  -4.7894  -4.7706  -4.7162  -4.6671  -4.6421  -4.6146
     1.5660   1.6251   1.6757   1.6942   2.4191   2.4852   2.5462   2.5768
     3.2123   3.3265   3.3668   3.4536   4.1823   4.2188   4.2457   4.2665
     5.2653   5.4338   5.5079   5.6351   6.0329   6.1001   6.1317   6.1724
     6.7860   6.8435   6.8692   6.9140   9.6257   9.6632   9.6881   9.7093
    10.0632  10.1398  10.1680  10.2307  11.1096  11.2101

          k = 0.1250 0.2165 0.0000 ( 21179 PWs)   bands (ev):

   -53.4822 -53.4420 -53.4240 -53.4003 -27.6407 -27.6011 -27.5886 -27.5823
   -27.5593 -27.5484 -27.5317 -27.5079 -27.4783 -27.4381 -27.4213 -27.3975
    -6.1844  -6.0951  -6.0574  -6.0048  -5.3060  -5.1781  -5.1516  -5.0707
     2.0062   2.2922   2.3893   2.6238   3.6952   3.7290   3.7640   3.7733
     3.9105   4.1893   4.2469   4.4243   4.6989   4.7431   4.7520   4.7864
     5.3642   5.4021   5.4198   5.4416   6.2225   6.3665   6.4558   6.6375
     6.7375   6.8397   6.8756   6.9232   9.2079   9.3646   9.4509   9.6152
     9.7705   9.8018   9.8418   9.8543   9.8840   9.9752

          k = 0.1250 0.2887 0.0000 ( 21199 PWs)   bands (ev):

   -53.4750 -53.4348 -53.4167 -53.3931 -27.6519 -27.6265 -27.6117 -27.5951
   -27.5869 -27.5713 -27.5680 -27.5451 -27.5016 -27.4614 -27.4446 -27.4208
    -5.8521  -5.7680  -5.7302  -5.6817  -5.1521  -5.0394  -5.0149  -4.9452
     2.1635   2.3908   2.4719   2.6291   3.4395   3.4905   3.5811   3.5998
     3.6837   3.8050   3.8601   3.9182   4.2641   4.3451   4.3705   4.4678
     5.4664   5.5071   5.5319   5.5535   6.1499   6.2713   6.3463   6.4757
     6.5548   6.5880   6.6112   6.6420   9.0482   9.2385   9.3240   9.4883
     9.7669   9.8039   9.8268   9.8872   9.9699  10.1039

          k = 0.1250 0.3608 0.0000 ( 21195 PWs)   bands (ev):

   -53.4677 -53.4275 -53.4094 -53.3858 -27.7141 -27.6739 -27.6574 -27.6336
   -27.6123 -27.5727 -27.5538 -27.5308 -27.5253 -27.4850 -27.4683 -27.4445
    -5.4872  -5.4116  -5.3737  -5.3320  -4.9841  -4.8899  -4.8670  -4.8107
     2.1171   2.2624   2.3190   2.3972   3.1123   3.2017   3.2757   3.3011
     3.4965   3.5819   3.6227   3.7186   4.0668   4.1979   4.2280   4.3356
     5.4074   5.4543   5.4834   5.5064   5.9301   6.0323   6.0973   6.1995
     6.5134   6.5523   6.5724   6.6018   9.0846   9.2928   9.3761   9.5545
     9.8386   9.8819   9.8994   9.9771  10.2262  10.3664

          k = 0.1250 0.4330 0.0000 ( 21113 PWs)   bands (ev):

   -53.4615 -53.4213 -53.4032 -53.3796 -27.7663 -27.7261 -27.7096 -27.6858
   -27.6002 -27.5606 -27.5455 -27.5417 -27.5187 -27.5052 -27.4885 -27.4647
    -5.1427  -5.0791  -5.0416  -5.0096  -4.8268  -4.7535  -4.7312  -4.6892
     1.9376   2.0312   2.0800   2.1194   2.7013   2.7644   2.8155   2.8382
     3.4256   3.5330   3.5904   3.6736   4.0375   4.1659   4.1901   4.2786
     5.3509   5.4183   5.4526   5.4899   5.6553   5.7533   5.8135   5.9076
     6.6523   6.6939   6.7119   6.7425   9.2924   9.4884   9.5603   9.7227
     9.9480   9.9965  10.0038  10.0592  10.5426  10.6726

          k = 0.1250 0.5052 0.0000 ( 21081 PWs)   bands (ev):

   -53.4574 -53.4172 -53.3991 -53.3755 -27.8008 -27.7606 -27.7442 -27.7204
   -27.5921 -27.5590 -27.5525 -27.5336 -27.5187 -27.5106 -27.5020 -27.4782
    -4.8867  -4.8362  -4.7998  -4.7791  -4.7106  -4.6579  -4.6341  -4.6044
     1.7754   1.8412   1.8923   1.9140   2.4071   2.4563   2.5071   2.5288
     3.3069   3.4248   3.4725   3.5529   4.0870   4.1811   4.2089   4.2593
     5.3448   5.4323   5.4789   5.4990   5.5227   5.5513   5.5974   5.6962
     6.8381   6.8894   6.9091   6.9469   9.5139   9.6228   9.6582   9.7233
    10.0968  10.1628  10.1904  10.2613  10.8215  10.9222

          k = 0.1250 0.5774 0.0000 ( 21108 PWs)   bands (ev):

   -53.4559 -53.4157 -53.3977 -53.3740 -27.8129 -27.7727 -27.7563 -27.7325
   -27.5893 -27.5637 -27.5497 -27.5307 -27.5235 -27.5078 -27.5068 -27.4829
    -4.7895  -4.7457  -4.7104  -4.6964  -4.6663  -4.6243  -4.5986  -4.5740
     1.7126   1.7683   1.8218   1.8389   2.3022   2.3474   2.3989   2.4207
     3.2468   3.3659   3.4105   3.4913   4.1360   4.1896   4.2257   4.2532
     5.2883   5.4185   5.4407   5.4965   5.5046   5.5320   5.5595   5.6383
     6.9296   6.9882   7.0105   7.0529   9.5931   9.6290   9.6548   9.6795
    10.2073  10.2863  10.3147  10.3639  10.9338  11.0464

          k = 0.1875 0.3248 0.0000 ( 21195 PWs)   bands (ev):

   -53.4683 -53.4281 -53.4100 -53.3864 -27.7006 -27.6604 -27.6438 -27.6200
   -27.6135 -27.5739 -27.5550 -27.5321 -27.5320 -27.4918 -27.4751 -27.4513
    -5.5206  -5.4439  -5.4059  -5.3634  -4.9974  -4.9010  -4.8780  -4.8202
     2.1830   2.3439   2.4032   2.4943   3.2408   3.3097   3.3667   3.3864
     3.5392   3.6135   3.6614   3.7175   3.9210   4.0744   4.1264   4.2665
     5.2336   5.2787   5.3105   5.3321   6.0958   6.1734   6.2291   6.3136
     6.5187   6.5614   6.5838   6.6134   8.9961   9.2226   9.3152   9.5292
     9.8620   9.8941   9.9201   9.9629  10.0733  10.2106

          k = 0.1875 0.3969 0.0000 ( 21153 PWs)   bands (ev):

   -53.4621 -53.4219 -53.4038 -53.3802 -27.7425 -27.7023 -27.6858 -27.6620
   -27.6014 -27.5629 -27.5618 -27.5429 -27.5226 -27.5199 -27.5059 -27.4821
    -5.1842  -5.1181  -5.0804  -5.0465  -4.8396  -4.7624  -4.7403  -4.6956
     2.0981   2.2124   2.2613   2.3160   2.7962   2.8248   2.8710   2.8813
     3.5610   3.6328   3.7357   3.7687   3.9225   4.0634   4.1134   4.2405
     4.9143   4.9708   5.0023   5.0314   5.8695   5.9270   5.9607   6.0419
     6.6216   6.6698   6.6887   6.7217   9.1505   9.3960   9.4930   9.7580
     9.9756  10.0090  10.0351  10.0553  10.2676  10.3979

          k = 0.1875 0.4691 0.0000 ( 21101 PWs)   bands (ev):

   -53.4574 -53.4172 -53.3991 -53.3755 -27.7730 -27.7328 -27.7163 -27.6925
   -27.5922 -27.5878 -27.5525 -27.5476 -27.5336 -27.5309 -27.5106 -27.5071
    -4.9002  -4.8470  -4.8101  -4.7875  -4.7052  -4.6489  -4.6260  -4.5941
     2.0128   2.0972   2.1476   2.1798   2.4007   2.4287   2.4712   2.4846
     3.4758   3.5947   3.6527   3.7008   3.9847   4.1381   4.1675   4.2727
     4.7281   4.8180   4.8545   4.9161   5.5678   5.6438   5.6724   5.7531
     6.8231   6.8681   6.8847   6.9154   9.3701   9.5394   9.5978   9.7233
    10.1388  10.1953  10.2246  10.2974  10.4830  10.5805

          k = 0.1875 0.5413 0.0000 ( 21112 PWs)   bands (ev):

   -53.4548 -53.4146 -53.3965 -53.3729 -27.7890 -27.7488 -27.7323 -27.7085
   -27.6018 -27.5872 -27.5615 -27.5475 -27.5448 -27.5286 -27.5210 -27.5056
    -4.7323  -4.6898  -4.6547  -4.6454  -4.6224  -4.5855  -4.5603  -4.5370
     1.9765   2.0329   2.0943   2.1120   2.1851   2.2157   2.2546   2.2728
     3.3329   3.4589   3.5056   3.5745   4.1150   4.2147   4.2573   4.3072
     4.6831   4.7987   4.8365   4.9061   5.3593   5.4364   5.4680   5.5511
     7.0066   7.0578   7.0762   7.1125   9.4437   9.5015   9.5269   9.5620
    10.3239  10.4148  10.4727  10.5480  10.5983  10.6853

          k = 0.2500 0.4330 0.0000 ( 21125 PWs)   bands (ev):

   -53.4574 -53.4172 -53.3991 -53.3755 -27.7585 -27.7183 -27.7018 -27.6780
   -27.6027 -27.5922 -27.5625 -27.5526 -27.5458 -27.5336 -27.5220 -27.5106
    -4.9057  -4.8514  -4.8144  -4.7910  -4.7029  -4.6452  -4.6226  -4.5898
     2.1210   2.2194   2.2689   2.3056   2.4003   2.4224   2.4570   2.4667
     3.6584   3.6975   3.7850   3.8279   3.9910   4.1278   4.1658   4.2897
     4.4148   4.4652   4.4892   4.5117   5.6405   5.6834   5.7128   5.7924
     6.8065   6.8522   6.8676   6.8979   9.3096   9.4987   9.5670   9.7150
    10.1499  10.1974  10.2366  10.3045  10.3523  10.4585

          k = 0.2500 0.5052 0.0000 ( 21117 PWs)   bands (ev):

   -53.4542 -53.4140 -53.3959 -53.3723 -27.7632 -27.7230 -27.7065 -27.6827
   -27.6353 -27.5951 -27.5860 -27.5784 -27.5546 -27.5464 -27.5274 -27.5044
    -4.7043  -4.6616  -4.6266  -4.6199  -4.5966  -4.5621  -4.5377  -4.5146
     2.0925   2.1167   2.1631   2.1691   2.2406   2.3161   2.3562   2.3898
     3.5031   3.6272   3.6668   3.6933   4.0518   4.1172   4.1859   4.2243
     4.2474   4.2882   4.3398   4.4047   5.3622   5.4180   5.4501   5.5279
     7.0474   7.0910   7.1071   7.1360   9.3104   9.3852   9.4140   9.4621
    10.2903  10.3513  10.3859  10.4656  10.5519  10.6206

          k = 0.2500 0.5774 0.0000 ( 21116 PWs)   bands (ev):

   -53.4531 -53.4129 -53.3948 -53.3712 -27.7630 -27.7229 -27.7064 -27.6826
   -27.6485 -27.6083 -27.5917 -27.5838 -27.5679 -27.5442 -27.5253 -27.5023
    -4.6286  -4.5919  -4.5717  -4.5581  -4.5491  -4.5298  -4.5066  -4.4869
     1.9934   2.0160   2.0604   2.0676   2.3265   2.3741   2.4247   2.4400
     3.3488   3.4704   3.5090   3.5598   4.0141   4.1184   4.1950   4.2183
     4.2921   4.3687   4.3952   4.4377   5.2435   5.2958   5.3034   5.3952
     7.1736   7.2197   7.2372   7.2686   9.2418   9.2793   9.2998   9.3214
    10.3148  10.3805  10.3999  10.4971  10.7113  10.7539

          k = 0.3125 0.5413 0.0000 ( 21100 PWs)   bands (ev):

   -53.4525 -53.4123 -53.3942 -53.3706 -27.7420 -27.7018 -27.6853 -27.6770
   -27.6615 -27.6368 -27.6201 -27.5963 -27.5827 -27.5430 -27.5241 -27.5011
    -4.5916  -4.5582  -4.5478  -4.5253  -4.5236  -4.5062  -4.4869  -4.4677
     1.9260   1.9482   1.9897   1.9982   2.5501   2.6126   2.6629   2.6834
     3.3575   3.3711   3.4247   3.4498   3.8350   3.8687   3.8751   3.9287
     4.3426   4.4252   4.4571   4.4938   5.1550   5.2137   5.2364   5.3220
     7.2561   7.2984   7.3156   7.3431   9.1258   9.1645   9.1830   9.2056
    10.2521  10.2908  10.3085  10.4162  10.8105  10.8589

     the Fermi energy is     8.3623 ev

!    total energy              =   -1978.36560586 Ry
     total all-electron energy =    -38771.686451 Ry
     estimated scf accuracy    <          2.9E-09 Ry
     smearing contrib. (-TS)   =       0.00003390 Ry
     internal energy E=F+TS    =   -1978.36563976 Ry

     The total energy is F=E-TS. E is the sum of the following terms:
     one-electron contribution =   -1220.50692862 Ry
     hartree contribution      =     652.51214814 Ry
     xc contribution           =    -119.23010742 Ry
     ewald contribution        =     -21.28867859 Ry
     one-center paw contrib.   =   -1269.85207327 Ry

     convergence has been achieved in  45 iterations

     Writing all to output data dir ./tmp/cleave/cleave_dz019_dz3p8/mos2_cleave.save/ :
     XML data file, charge density, pseudopotentials, collected wavefunctions

     init_run     :     84.78s CPU     85.68s WALL (       1 calls)
     electrons    :   5234.23s CPU   5316.21s WALL (       1 calls)

     Called by init_run:
     wfcinit      :     41.03s CPU     41.17s WALL (       1 calls)
     potinit      :     41.56s CPU     41.80s WALL (       1 calls)
     hinit0       :      0.32s CPU      0.33s WALL (       1 calls)

     Called by electrons:
     c_bands      :   4400.01s CPU   4426.08s WALL (      46 calls)
     sum_band     :    642.08s CPU    668.00s WALL (      46 calls)
     v_of_rho     :    118.89s CPU    127.03s WALL (      46 calls)
     newd         :     80.38s CPU    102.59s WALL (      46 calls)
     PAW_pot      :     18.02s CPU     18.03s WALL (      46 calls)
     mix_rho      :     17.17s CPU     17.51s WALL (      46 calls)
     vdW_kernel   :     39.41s CPU     39.42s WALL (       1 calls)

     Called by c_bands:
     init_us_2    :     19.98s CPU     20.00s WALL (    2790 calls)
     init_us_2:cp :     19.97s CPU     20.00s WALL (    2790 calls)
     cegterg      :   4201.29s CPU   4227.08s WALL (    1380 calls)

     Called by *egterg:
     cdiaghg      :     12.27s CPU     12.28s WALL (    5073 calls)
     h_psi        :   2251.73s CPU   2261.76s WALL (    5133 calls)
     s_psi        :    683.62s CPU    683.90s WALL (    5133 calls)
     g_psi        :     10.48s CPU     10.48s WALL (    3723 calls)

     Called by h_psi:
     h_psi:calbec :    883.22s CPU    883.46s WALL (    5133 calls)
     vloc_psi     :    680.59s CPU    681.29s WALL (    5133 calls)
     add_vuspsi   :    683.29s CPU    683.49s WALL (    5133 calls)

     General routines
     calbec       :   1270.29s CPU   1270.67s WALL (    6513 calls)
     fft          :     33.82s CPU     33.84s WALL (    2897 calls)
     ffts         :      8.23s CPU      8.23s WALL (    2826 calls)
     fftw         :    632.52s CPU    633.07s WALL (  475424 calls)
     interpolate  :      0.71s CPU      0.71s WALL (      46 calls)

     Parallel routines

     PWSCF        :      1h28m CPU      1h30m WALL


   This run was terminated on:   6: 0:37   9Jun2026            

=------------------------------------------------------------------------------=
   JOB DONE.
=------------------------------------------------------------------------------=
Note: The following floating-point exceptions are signalling: IEEE_UNDERFLOW_FLAG IEEE_DENORMAL
