Authorization required, but no authorization protocol specified

Authorization required, but no authorization protocol specified

Authorization required, but no authorization protocol specified

Authorization required, but no authorization protocol specified

Authorization required, but no authorization protocol specified

Authorization required, but no authorization protocol specified

Authorization required, but no authorization protocol specified

Authorization required, but no authorization protocol specified


     Program PWSCF v.7.3 starts on  5Jun2026 at  8:28:41 

     This program is part of the open-source Quantum ESPRESSO suite
     for quantum simulation of materials; please cite
         "P. Giannozzi et al., J. Phys.:Condens. Matter 21 395502 (2009);
         "P. Giannozzi et al., J. Phys.:Condens. Matter 29 465901 (2017);
         "P. Giannozzi et al., J. Chem. Phys. 152 154105 (2020);
          URL http://www.quantum-espresso.org", 
     in publications or presentations arising from this work. More details at
     http://www.quantum-espresso.org/quote

     Parallel version (MPI), running on     1 processors

     MPI processes distributed on     1 nodes
     58786 MiB available memory on the printing compute node when the environment starts

     Waiting for input...
     Reading input from standard input

     Current dimensions of program PWSCF are:
     Max number of different atomic species (ntypx) = 10
     Max number of k-points (npk) =  40000
     Max angular momentum in pseudopotentials (lmaxx) =  4
     file Mo.pbe-spn-kjpaw_psl.1.0.0.UPF: wavefunction(s)  4S 4D renormalized
     file S.pbe-n-kjpaw_psl.1.0.0.UPF: wavefunction(s)  3S 3P renormalized

     IMPORTANT: XC functional enforced from input :
     Exchange-correlation= VDW-DF2-B86R
                           (   1   4  26   0   2   0   0)
     Any further DFT definition will be discarded
     Please, verify this is what you really want


     Subspace diagonalization in iterative solution of the eigenvalue problem:
     a serial algorithm will be used


     G-vector sticks info
     --------------------
     sticks:   dense  smooth     PW     G-vecs:    dense   smooth      PW
     Sum        1573     769    223               478405   168563   26075

     Using Slab Decomposition



     bravais-lattice index     =            4
     lattice parameter (alat)  =       5.9715  a.u.
     unit-cell volume          =    1750.7440 (a.u.)^3
     number of atoms/cell      =           12
     number of atomic types    =            2
     number of electrons       =       104.00
     number of Kohn-Sham states=           62
     kinetic-energy cutoff     =      80.0000  Ry
     charge density cutoff     =     640.0000  Ry
     scf convergence threshold =      1.0E-08
     mixing beta               =       0.3000
     number of iterations used =            8  local-TF  mixing
     energy convergence thresh.=      1.0E-04
     force convergence thresh. =      1.0E-04
     Exchange-correlation= VDW-DF2-B86R
                           (   1   4  26   0   2   0   0)
     nstep                     =           50


     celldm(1)=   5.971535  celldm(2)=   0.000000  celldm(3)=   9.493671
     celldm(4)=   0.000000  celldm(5)=   0.000000  celldm(6)=   0.000000

     crystal axes: (cart. coord. in units of alat)
               a(1) = (   1.000000   0.000000   0.000000 )  
               a(2) = (  -0.500000   0.866025   0.000000 )  
               a(3) = (   0.000000   0.000000   9.493671 )  

     reciprocal axes: (cart. coord. in units 2 pi/alat)
               b(1) = (  1.000000  0.577350 -0.000000 )  
               b(2) = (  0.000000  1.154701  0.000000 )  
               b(3) = (  0.000000 -0.000000  0.105333 )  


     PseudoPot. # 1 for Mo read from file:
     ./pseudo/Mo.pbe-spn-kjpaw_psl.1.0.0.UPF
     MD5 check sum: 4396e0c640fcce5c25f020efccf1ab12
     Pseudo is Projector augmented-wave + core cor, Zval = 14.0
     Generated using &quot;atomic&quot; code by A. Dal Corso  v.6.3
     Shape of augmentation charge: PSQ
     Using radial grid of 1229 points,  6 beta functions with: 
                l(1) =   0
                l(2) =   0
                l(3) =   1
                l(4) =   1
                l(5) =   2
                l(6) =   2
     Q(r) pseudized with 0 coefficients 


     PseudoPot. # 2 for S  read from file:
     ./pseudo/S.pbe-n-kjpaw_psl.1.0.0.UPF
     MD5 check sum: fb45dfebcf3e72a4e1bd4a866ec2e262
     Pseudo is Projector augmented-wave + core cor, Zval =  6.0
     Generated using &quot;atomic&quot; code by A. Dal Corso  v.6.3
     Shape of augmentation charge: PSQ
     Using radial grid of 1151 points,  6 beta functions with: 
                l(1) =   0
                l(2) =   0
                l(3) =   1
                l(4) =   1
                l(5) =   2
                l(6) =   2
     Q(r) pseudized with 0 coefficients 


     atomic species   valence    mass     pseudopotential
     Mo               14.00    95.96000     Mo( 1.00)
     S                 6.00    32.06000     S ( 1.00)

      6 Sym. Ops. (no inversion) found



   Cartesian axes

     site n.     atom                  positions (alat units)
         1        S      tau(   1) = (  -0.0000005   0.5773506   0.4746835  )
         2        Mo     tau(   2) = (   0.0000000   0.0000000   0.7674047  )
         3        S      tau(   3) = (  -0.0000005   0.5773506   1.0601269  )
         4        S      tau(   4) = (   0.5000005   0.2886748   1.6060130  )
         5        Mo     tau(   5) = (  -0.0000005   0.5773506   1.8987342  )
         6        S      tau(   6) = (   0.5000005   0.2886748   2.1914554  )
         7        S      tau(   7) = (   0.0000000   0.0000000   2.7373415  )
         8        Mo     tau(   8) = (   0.5000005   0.2886748   3.0300636  )
         9        S      tau(   9) = (   0.0000000   0.0000000   3.3227848  )
        10        S      tau(  10) = (  -0.0000005   0.5773506   3.8686709  )
        11        Mo     tau(  11) = (   0.0000000   0.0000000   4.1613921  )
        12        S      tau(  12) = (  -0.0000005   0.5773506   4.4541142  )

     number of k points=    30  Methfessel-Paxton smearing, width (Ry)=  0.0200
                       cart. coord. in units 2pi/alat
        k(    1) = (   0.0000000   0.0000000   0.0000000), wk =   0.0078125
        k(    2) = (   0.0000000   0.0721688   0.0000000), wk =   0.0468750
        k(    3) = (   0.0000000   0.1443376   0.0000000), wk =   0.0468750
        k(    4) = (   0.0000000   0.2165064   0.0000000), wk =   0.0468750
        k(    5) = (   0.0000000   0.2886751   0.0000000), wk =   0.0468750
        k(    6) = (   0.0000000   0.3608439   0.0000000), wk =   0.0468750
        k(    7) = (   0.0000000   0.4330127   0.0000000), wk =   0.0468750
        k(    8) = (   0.0000000   0.5051815   0.0000000), wk =   0.0468750
        k(    9) = (   0.0000000  -0.5773503   0.0000000), wk =   0.0234375
        k(   10) = (   0.0625000   0.1082532   0.0000000), wk =   0.0468750
        k(   11) = (   0.0625000   0.1804220   0.0000000), wk =   0.0937500
        k(   12) = (   0.0625000   0.2525907   0.0000000), wk =   0.0937500
        k(   13) = (   0.0625000   0.3247595   0.0000000), wk =   0.0937500
        k(   14) = (   0.0625000   0.3969283   0.0000000), wk =   0.0937500
        k(   15) = (   0.0625000   0.4690971   0.0000000), wk =   0.0937500
        k(   16) = (   0.0625000   0.5412659   0.0000000), wk =   0.0937500
        k(   17) = (   0.1250000   0.2165064   0.0000000), wk =   0.0468750
        k(   18) = (   0.1250000   0.2886751   0.0000000), wk =   0.0937500
        k(   19) = (   0.1250000   0.3608439   0.0000000), wk =   0.0937500
        k(   20) = (   0.1250000   0.4330127   0.0000000), wk =   0.0937500
        k(   21) = (   0.1250000   0.5051815   0.0000000), wk =   0.0937500
        k(   22) = (   0.1250000   0.5773503   0.0000000), wk =   0.0468750
        k(   23) = (   0.1875000   0.3247595   0.0000000), wk =   0.0468750
        k(   24) = (   0.1875000   0.3969283   0.0000000), wk =   0.0937500
        k(   25) = (   0.1875000   0.4690971   0.0000000), wk =   0.0937500
        k(   26) = (   0.1875000   0.5412659   0.0000000), wk =   0.0937500
        k(   27) = (   0.2500000   0.4330127   0.0000000), wk =   0.0468750
        k(   28) = (   0.2500000   0.5051815   0.0000000), wk =   0.0937500
        k(   29) = (   0.2500000   0.5773503   0.0000000), wk =   0.0468750
        k(   30) = (   0.3125000   0.5412659   0.0000000), wk =   0.0468750

     Dense  grid:   478405 G-vectors     FFT dimensions: (  50,  50, 480)

     Smooth grid:   168563 G-vectors     FFT dimensions: (  36,  36, 324)

     Estimated max dynamical RAM per process >       2.45 GB

     Initial potential from superposition of free atoms

     starting charge     103.9962, renormalised to     104.0000

     negative rho (up, down):  9.852E-05 0.000E+00


     %%%%%%%%%%%%%%%%%%%%%%%%%%%%%%%%%%%%%%%%%%%%%%%%%%%%%%%%%%%%%%%%%%%%%%%%
     %                                                                      %
     % You are using vdW-DF, which was implemented by the Thonhauser group. %
     % Please cite the following two papers that made this development      %
     % possible and the two reviews that describe the various versions:     %
     %                                                                      %
     %   T. Thonhauser et al., PRL 115, 136402 (2015).                      %
     %   T. Thonhauser et al., PRB 76, 125112 (2007).                       %
     %   K. Berland et al., Rep. Prog. Phys. 78, 066501 (2015).             %
     %   D.C. Langreth et al., J. Phys.: Condens. Matter 21, 084203 (2009). %
     %                                                                      %
     % If you are calculating stress with vdW-DF, please also cite:         %
     %                                                                      %
     %   R. Sabatini et al., J. Phys.: Condens. Matter 24, 424209 (2012).   %
     %                                                                      %
     %%%%%%%%%%%%%%%%%%%%%%%%%%%%%%%%%%%%%%%%%%%%%%%%%%%%%%%%%%%%%%%%%%%%%%%%

     %%%%%%%%%%%%%%%%%%%%%%%%%%%%%%%%%%%%%%%%%%%%%%%%%%%%%%%%%%%%%%%%%%%%%%%%
     %                                                                      %
     %  vdW-DF NEWS:                                                        %
     %                                                                      %
     %  * vdW-DF3 is now available. DOI: 10.1021/acs.jctc.0c00471           %
     %    use with input_dft = 'vdW-DF3-opt1' or 'vdW-DF3-opt2'             %
     %                                                                      %
     %  * Unscreened and range-separated hybrid vdW-DF-cx functionals       %
     %    DOI: 10.1063/1.4986522 and 10.1088/1361-648X/ac2ad2               %
     %    use with input_dft = 'vdW-DF-cx0'    and 'vdW-DF-ahcx'            %
     %  * Unscreened and range-separated hybrid vdW-DF2-b86r functionals    %
     %    DOI: 10.1063/1.4986522 and DOI: 10.1103/PhysRevX.12.041003        %
     %    use with input_dft = 'vdW-DF2-br0' and 'vdW-DF2-ahbr'             %
     %                                                                      %
     %%%%%%%%%%%%%%%%%%%%%%%%%%%%%%%%%%%%%%%%%%%%%%%%%%%%%%%%%%%%%%%%%%%%%%%%


     Starting wfcs are   72 randomized atomic wfcs
     Checking if some PAW data can be deallocated... 

     total cpu time spent up to now is       86.8 secs

     Self-consistent Calculation

     iteration #  1     ecut=    80.00 Ry     beta= 0.30
     Davidson diagonalization with overlap
     ethr =  1.00E-02,  avg # of iterations =  4.2

     total cpu time spent up to now is      249.6 secs

     total energy              =   -1974.79589255 Ry
     estimated scf accuracy    <       1.44627513 Ry

     iteration #  2     ecut=    80.00 Ry     beta= 0.30
     Davidson diagonalization with overlap
     ethr =  1.39E-03,  avg # of iterations =  2.8

     total cpu time spent up to now is      366.6 secs

     total energy              =   -1974.65488252 Ry
     estimated scf accuracy    <       0.88515807 Ry

     iteration #  3     ecut=    80.00 Ry     beta= 0.30
     Davidson diagonalization with overlap
     ethr =  8.51E-04,  avg # of iterations =  3.6

     total cpu time spent up to now is      486.0 secs

     total energy              =   -1974.69703839 Ry
     estimated scf accuracy    <       0.23940986 Ry

     iteration #  4     ecut=    80.00 Ry     beta= 0.30
     Davidson diagonalization with overlap
     ethr =  2.30E-04,  avg # of iterations =  5.8

     total cpu time spent up to now is      619.6 secs

     total energy              =   -1974.70734398 Ry
     estimated scf accuracy    <       0.08722279 Ry

     iteration #  5     ecut=    80.00 Ry     beta= 0.30
     Davidson diagonalization with overlap
     ethr =  8.39E-05,  avg # of iterations =  3.9

     total cpu time spent up to now is      735.2 secs

     total energy              =   -1974.71316783 Ry
     estimated scf accuracy    <       0.02791660 Ry

     iteration #  6     ecut=    80.00 Ry     beta= 0.30
     Davidson diagonalization with overlap
     ethr =  2.68E-05,  avg # of iterations =  8.6

     total cpu time spent up to now is      858.5 secs

     total energy              =   -1974.70790669 Ry
     estimated scf accuracy    <       0.02001918 Ry

     iteration #  7     ecut=    80.00 Ry     beta= 0.30
     Davidson diagonalization with overlap
     ethr =  1.92E-05,  avg # of iterations =  4.3

     total cpu time spent up to now is      978.9 secs

     total energy              =   -1974.70819664 Ry
     estimated scf accuracy    <       0.00843398 Ry

     iteration #  8     ecut=    80.00 Ry     beta= 0.30
     Davidson diagonalization with overlap
     ethr =  8.11E-06,  avg # of iterations =  4.4

     negative rho (up, down):  3.340E-03 0.000E+00

     total cpu time spent up to now is     1094.9 secs

     total energy              =   -1974.70670951 Ry
     estimated scf accuracy    <       0.00587036 Ry

     iteration #  9     ecut=    80.00 Ry     beta= 0.30
     Davidson diagonalization with overlap
     ethr =  5.64E-06,  avg # of iterations =  2.2

     negative rho (up, down):  1.224E-02 0.000E+00

     total cpu time spent up to now is     1203.3 secs

     total energy              =   -1974.70608244 Ry
     estimated scf accuracy    <       0.00821877 Ry

     iteration # 10     ecut=    80.00 Ry     beta= 0.30
     Davidson diagonalization with overlap
     ethr =  5.64E-06,  avg # of iterations =  4.9

     negative rho (up, down):  1.072E-02 0.000E+00

     total cpu time spent up to now is     1318.6 secs

     total energy              =   -1974.70569224 Ry
     estimated scf accuracy    <       0.00367190 Ry

     iteration # 11     ecut=    80.00 Ry     beta= 0.30
     Davidson diagonalization with overlap
     ethr =  3.53E-06,  avg # of iterations =  2.4

     negative rho (up, down):  1.352E-02 0.000E+00

     total cpu time spent up to now is     1431.6 secs

     total energy              =   -1974.70597580 Ry
     estimated scf accuracy    <       0.00173502 Ry

     iteration # 12     ecut=    80.00 Ry     beta= 0.30
     Davidson diagonalization with overlap
     c_bands:  1 eigenvalues not converged
     c_bands:  1 eigenvalues not converged
     ethr =  1.67E-06,  avg # of iterations =  8.7

     negative rho (up, down):  1.005E-02 0.000E+00

     total cpu time spent up to now is     1577.7 secs

     total energy              =   -1974.70485202 Ry
     estimated scf accuracy    <       0.00311719 Ry

     iteration # 13     ecut=    80.00 Ry     beta= 0.30
     Davidson diagonalization with overlap
     ethr =  1.67E-06,  avg # of iterations =  3.4

     negative rho (up, down):  8.644E-03 0.000E+00

     total cpu time spent up to now is     1733.4 secs

     total energy              =   -1974.70549808 Ry
     estimated scf accuracy    <       0.00070573 Ry

     iteration # 14     ecut=    80.00 Ry     beta= 0.30
     Davidson diagonalization with overlap
     c_bands:  1 eigenvalues not converged
     ethr =  6.79E-07,  avg # of iterations =  4.0

     negative rho (up, down):  4.100E-03 0.000E+00

     total cpu time spent up to now is     1852.3 secs

     total energy              =   -1974.70568500 Ry
     estimated scf accuracy    <       0.00010234 Ry

     iteration # 15     ecut=    80.00 Ry     beta= 0.30
     Davidson diagonalization with overlap
     ethr =  9.84E-08,  avg # of iterations =  2.7

     negative rho (up, down):  2.472E-03 0.000E+00

     total cpu time spent up to now is     1983.9 secs

     total energy              =   -1974.70570883 Ry
     estimated scf accuracy    <       0.00003936 Ry

     iteration # 16     ecut=    80.00 Ry     beta= 0.30
     Davidson diagonalization with overlap
     ethr =  3.78E-08,  avg # of iterations =  1.9

     negative rho (up, down):  1.172E-03 0.000E+00

     total cpu time spent up to now is     2093.7 secs

     total energy              =   -1974.70571925 Ry
     estimated scf accuracy    <       0.00001223 Ry

     iteration # 17     ecut=    80.00 Ry     beta= 0.30
     Davidson diagonalization with overlap
     ethr =  1.18E-08,  avg # of iterations =  3.3

     negative rho (up, down):  3.640E-04 0.000E+00

     total cpu time spent up to now is     2232.1 secs

     total energy              =   -1974.70572856 Ry
     estimated scf accuracy    <       0.00000497 Ry

     iteration # 18     ecut=    80.00 Ry     beta= 0.30
     Davidson diagonalization with overlap
     ethr =  4.78E-09,  avg # of iterations =  3.6

     negative rho (up, down):  2.087E-04 0.000E+00

     total cpu time spent up to now is     2375.7 secs

     total energy              =   -1974.70572857 Ry
     estimated scf accuracy    <       0.00000315 Ry

     iteration # 19     ecut=    80.00 Ry     beta= 0.30
     Davidson diagonalization with overlap
     ethr =  3.03E-09,  avg # of iterations =  3.0

     negative rho (up, down):  1.811E-04 0.000E+00

     total cpu time spent up to now is     2517.4 secs

     total energy              =   -1974.70572935 Ry
     estimated scf accuracy    <       0.00000054 Ry

     iteration # 20     ecut=    80.00 Ry     beta= 0.30
     Davidson diagonalization with overlap
     ethr =  5.19E-10,  avg # of iterations =  3.2

     negative rho (up, down):  1.357E-04 0.000E+00

     total cpu time spent up to now is     2634.6 secs

     total energy              =   -1974.70573002 Ry
     estimated scf accuracy    <       0.00000055 Ry

     iteration # 21     ecut=    80.00 Ry     beta= 0.30
     Davidson diagonalization with overlap
     ethr =  5.19E-10,  avg # of iterations =  3.0

     negative rho (up, down):  1.196E-04 0.000E+00

     total cpu time spent up to now is     2775.7 secs

     total energy              =   -1974.70573068 Ry
     estimated scf accuracy    <       0.00000009 Ry

     iteration # 22     ecut=    80.00 Ry     beta= 0.30
     Davidson diagonalization with overlap
     ethr =  8.50E-11,  avg # of iterations =  2.6

     negative rho (up, down):  8.898E-05 0.000E+00

     total cpu time spent up to now is     2887.3 secs

     total energy              =   -1974.70573102 Ry
     estimated scf accuracy    <       0.00000005 Ry

     iteration # 23     ecut=    80.00 Ry     beta= 0.30
     Davidson diagonalization with overlap
     ethr =  4.61E-11,  avg # of iterations =  3.2

     negative rho (up, down):  1.035E-04 0.000E+00

     total cpu time spent up to now is     3006.9 secs

     total energy              =   -1974.70573006 Ry
     estimated scf accuracy    <       0.00000002 Ry

     iteration # 24     ecut=    80.00 Ry     beta= 0.30
     Davidson diagonalization with overlap
     ethr =  2.16E-11,  avg # of iterations =  4.5

     negative rho (up, down):  1.116E-04 0.000E+00

     total cpu time spent up to now is     3156.1 secs

     total energy              =   -1974.70572982 Ry
     estimated scf accuracy    <       0.00000004 Ry

     iteration # 25     ecut=    80.00 Ry     beta= 0.30
     Davidson diagonalization with overlap
     ethr =  2.16E-11,  avg # of iterations =  2.3

     negative rho (up, down):  1.080E-04 0.000E+00

     total cpu time spent up to now is     3282.7 secs

     End of self-consistent calculation

          k = 0.0000 0.0000 0.0000 ( 21311 PWs)   bands (ev):

   -52.5829 -52.5479 -52.5144 -52.4850 -27.2558 -27.2557 -27.2215 -27.2215
   -27.2114 -27.2114 -27.1746 -27.1745 -27.0459 -26.9826 -26.8537 -26.8103
   -12.5734 -12.2245 -11.8101 -11.5373  -7.3617  -6.4618  -5.2956  -2.8387
    -2.4583  -0.9714  -0.9714  -0.8254  -0.8254  -0.7040  -0.7040  -0.6073
    -0.6073  -0.1207   1.6896   2.8849   2.8849   3.2390   3.2391   3.3567
     3.6536   3.6536   3.8422   3.8422   8.6977   9.0426   9.0925   9.0925
     9.2369   9.5961   9.6853   9.7209   9.7209   9.8757   9.8757  10.1442
    10.2671  10.5775  10.5775  10.9225  11.6409  11.7079

          k = 0.0000 0.0722 0.0000 ( 21283 PWs)   bands (ev):

   -52.5801 -52.5451 -52.5115 -52.4821 -27.2932 -27.2626 -27.2588 -27.2488
   -27.2284 -27.2183 -27.2117 -27.1814 -27.0395 -26.9771 -26.8485 -26.8049
   -12.4885 -12.1425 -11.7308 -11.4599  -7.3466  -6.4503  -5.2849  -2.9030
    -2.4856  -1.0275  -0.8848  -0.8724  -0.7361  -0.7352  -0.6476  -0.6079
    -0.5086  -0.2006   1.5263   2.7353   2.9790   3.0763   3.1415   3.4609
     3.5925   3.7450   3.8064   3.9677   8.2521   8.4152   8.6707   9.2428
     9.5202   9.6454   9.7883   9.8244   9.8631   9.9974  10.0165  10.2863
    10.5556  10.7384  10.7530  11.0534  11.6954  11.7513

          k = 0.0000 0.1443 0.0000 ( 21263 PWs)   bands (ev):

   -52.5719 -52.5369 -52.5033 -52.4739 -27.3984 -27.3634 -27.3536 -27.3159
   -27.2822 -27.2478 -27.2378 -27.2008 -27.0213 -26.9616 -26.8334 -26.7895
   -12.2468 -11.9097 -11.5075 -11.2434  -7.3019  -6.4189  -5.2612  -3.0977
    -2.5658  -1.1625  -1.0016  -0.9134  -0.6593  -0.6314  -0.4755  -0.3263
    -0.2894  -0.2169   1.2037   2.3934   2.7102   2.8824   3.2079   3.4092
     3.5791   3.6858   3.8429   4.3326   7.3519   7.7174   8.0402   9.2211
     9.4816   9.6094   9.9292   9.9343  10.0616  10.3535  10.4962  10.6740
    11.0306  11.1327  11.1433  11.3243  11.5837  11.7670

          k = 0.0000 0.2165 0.0000 ( 21233 PWs)   bands (ev):

   -52.5596 -52.5247 -52.4911 -52.4617 -27.5516 -27.5158 -27.5063 -27.4679
   -27.3113 -27.2768 -27.2668 -27.2297 -26.9941 -26.9387 -26.8108 -26.7663
   -11.8836 -11.5633 -11.1809 -10.9319  -7.2290  -6.3755  -5.2454  -3.4165
    -2.6834  -1.3170  -1.2518  -1.0544  -0.5710  -0.2493  -0.2324  -0.0682
     0.1172   0.2541   0.9099   2.0048   2.3708   2.5620   3.1473   3.2388
     3.4835   3.4994   4.1141   4.5784   6.5123   7.1353   7.5860   8.5981
     9.2083   9.5696   9.6921  10.0140  10.0982  10.5539  10.7562  11.1728
    11.4076  11.6045  11.6379  11.8804  11.9517  12.1870

          k = 0.0000 0.2887 0.0000 ( 21197 PWs)   bands (ev):

   -52.5451 -52.5102 -52.4765 -52.4472 -27.7266 -27.6898 -27.6806 -27.6414
   -27.3454 -27.3107 -27.3008 -27.2635 -26.9616 -26.9117 -26.7840 -26.7388
   -11.4516 -11.1579 -10.8100 -10.5884  -7.1299  -6.3272  -5.2565  -3.8284
    -2.7978  -1.5334  -1.3629  -1.0940  -0.3927  -0.0708   0.2706   0.4285
     0.6526   0.7173   0.8778   1.6887   2.0504   2.2880   2.8816   3.0576
     3.2445   3.4565   4.2095   4.5159   6.0356   6.6303   7.4052   7.9910
     8.9892   9.1560   9.2449   9.8799   9.9849  10.0511  10.9355  11.1556
    11.4054  11.6519  11.8050  11.9658  12.2267  12.3985

          k = 0.0000 0.3608 0.0000 ( 21187 PWs)   bands (ev):

   -52.5305 -52.4957 -52.4619 -52.4326 -27.8958 -27.8581 -27.8492 -27.8093
   -27.3793 -27.3443 -27.3345 -27.2971 -26.9286 -26.8850 -26.7570 -26.7112
   -11.0121 -10.7557 -10.4598 -10.2796  -7.0076  -6.2752  -5.2990  -4.2807
    -2.8511  -1.6729  -1.3761  -1.0473  -0.2071   0.2252   0.6707   0.7934
     0.8789   0.9652   1.6007   1.7582   1.7738   2.1997   2.6882   2.8996
     3.0224   3.3104   4.0977   4.3317   5.9067   6.2567   7.1020   7.6575
     8.7333   8.7875   9.0605   9.3963   9.5450   9.7230  10.2399  10.4870
    10.6582  10.8291  10.8931  11.2459  12.7138  12.7430

          k = 0.0000 0.4330 0.0000 ( 21140 PWs)   bands (ev):

   -52.5181 -52.4833 -52.4495 -52.4203 -28.0352 -27.9966 -27.9880 -27.9475
   -27.4078 -27.3726 -27.3628 -27.3254 -26.9002 -26.8625 -26.7340 -26.6875
   -10.6263 -10.4161 -10.1869 -10.0560  -6.8710  -6.2147  -5.3603  -4.7131
    -2.7920  -1.7282  -1.3806  -0.9835  -0.0835   0.4932   0.8225   0.8411
     1.0544   1.2670   1.6630   2.2382   2.3226   2.4934   2.6851   2.7928
     2.8746   3.1958   3.8819   4.2826   5.8136   6.1853   6.7633   7.3522
     8.3749   8.4599   8.7083   8.9544   9.0372   9.3212   9.5387   9.7510
     9.7556   9.9712  10.0949  10.2419  13.1549  13.2000

          k = 0.0000 0.5052 0.0000 ( 21078 PWs)   bands (ev):

   -52.5098 -52.4750 -52.4412 -52.4120 -28.1263 -28.0873 -28.0788 -28.0380
   -27.4267 -27.3914 -27.3817 -27.3441 -26.8809 -26.8478 -26.7186 -26.6717
   -10.3497 -10.1883 -10.0271  -9.9351  -6.7487  -6.1486  -5.4125  -5.0568
    -2.6104  -1.8391  -1.3694  -1.0109   0.0210   0.6649   0.7199   1.0082
     1.0567   1.4928   1.7771   2.5031   2.6290   2.7381   2.9360   3.0203
     3.0854   3.1652   3.7675   4.2734   5.7922   6.2274   6.7939   7.1023
     7.8674   8.0333   8.1245   8.2619   8.4556   8.6127   9.1133   9.2139
     9.4265   9.4790   9.6840   9.9352  13.4216  13.6913

          k = 0.0000-0.5774 0.0000 ( 21006 PWs)   bands (ev):

   -52.5068 -52.4721 -52.4383 -52.4091 -28.1580 -28.1188 -28.1103 -28.0694
   -27.4333 -27.3979 -27.3883 -27.3507 -26.8740 -26.8426 -26.7132 -26.6661
   -10.2422 -10.1084  -9.9806  -9.9001  -6.6962  -6.1132  -5.4266  -5.2048
    -2.4491  -1.9885  -1.3186  -1.0718   0.0766   0.6750   0.7317   1.0414
     1.0848   1.5466   1.8652   2.5344   2.7016   2.7207   3.0689   3.1719
     3.2421   3.3385   3.7401   4.2749   5.7824   6.3466   6.8495   7.2475
     7.6056   7.6846   7.7622   7.8628   8.0321   8.4399   8.8477   9.0979
     9.1635   9.4176   9.7062   9.9095  13.5050  13.6623

          k = 0.0625 0.1083 0.0000 ( 21269 PWs)   bands (ev):

   -52.5745 -52.5396 -52.5060 -52.4766 -27.3636 -27.3288 -27.3190 -27.2815
   -27.2767 -27.2424 -27.2324 -27.1954 -27.0272 -26.9666 -26.8383 -26.7945
   -12.3252 -11.9850 -11.5794 -11.3129  -7.3166  -6.4288  -5.2676  -3.0323
    -2.5391  -1.1176  -0.9583  -0.8670  -0.7059  -0.6697  -0.5522  -0.4138
    -0.3633  -0.2370   1.2912   2.5554   2.6696   2.9706   3.2376   3.4076
     3.5831   3.6835   3.9142   4.2077   7.6399   7.9091   8.0985   9.3227
     9.4924   9.6107   9.7869  10.0334  10.1297  10.2504  10.3685  10.5241
    10.8452  10.9643  11.1024  11.2687  11.4409  11.7914

          k = 0.0625 0.1804 0.0000 ( 21194 PWs)   bands (ev):

   -52.5643 -52.5294 -52.4958 -52.4664 -27.4903 -27.4549 -27.4452 -27.4071
   -27.3035 -27.2691 -27.2591 -27.2220 -27.0045 -26.9474 -26.8195 -26.7752
   -12.0223 -11.6950 -11.3039 -11.0483  -7.2574  -6.3910  -5.2478  -3.2880
    -2.6366  -1.2489  -1.1510  -1.0339  -0.6285  -0.3816  -0.3598  -0.1790
    -0.0429   0.0829   1.0033   2.1551   2.3616   2.7099   3.0265   3.3231
     3.5379   3.7028   4.1984   4.5084   6.8277   7.2997   7.5359   8.7754
     9.2550   9.6685   9.8324  10.0716  10.4081  10.5830  10.6430  10.9231
    11.1470  11.3750  11.4479  11.6898  11.8399  12.0248

          k = 0.0625 0.2526 0.0000 ( 21202 PWs)   bands (ev):

   -52.5509 -52.5160 -52.4824 -52.4530 -27.6510 -27.6146 -27.6053 -27.5665
   -27.3384 -27.3037 -27.2938 -27.2566 -26.9746 -26.9225 -26.7948 -26.7499
   -11.6236 -11.3178 -10.9538 -10.7194  -7.1702  -6.3445  -5.2454  -3.6504
    -2.7490  -1.4269  -1.3317  -1.0979  -0.4921  -0.2516   0.0765   0.2623
     0.4470   0.5795   0.8177   1.7437   2.0598   2.3796   2.7298   3.1481
     3.3773   3.8153   4.3816   4.6632   6.1627   6.7468   7.2398   8.1113
     8.9615   9.3124   9.5029   9.9341  10.3011  10.5099  10.9374  11.2204
    11.3847  11.7266  11.8582  11.9315  12.0744  12.1172

          k = 0.0625 0.3248 0.0000 ( 21194 PWs)   bands (ev):

   -52.5363 -52.5015 -52.4678 -52.4385 -27.8194 -27.7821 -27.7730 -27.7335
   -27.3759 -27.3410 -27.3311 -27.2938 -26.9419 -26.8956 -26.7679 -26.7223
   -11.1856 -10.9118 -10.5911 -10.3913  -7.0566  -6.2931  -5.2726  -4.0783
    -2.8267  -1.6021  -1.3602  -1.0732  -0.3155  -0.0035   0.5119   0.6278
     0.7288   0.9238   1.3046   1.5422   1.8155   2.1511   2.4605   2.9882
     3.2586   3.7494   4.3492   4.5569   5.8808   6.3425   7.0721   7.5744
     8.6648   8.9619   9.1615   9.5173   9.8467  10.0912  10.5633  10.7830
    10.9793  11.1443  11.3780  11.7394  12.4044  12.4614

          k = 0.0625 0.3969 0.0000 ( 21151 PWs)   bands (ev):

   -52.5228 -52.4880 -52.4543 -52.4250 -27.9703 -27.9322 -27.9234 -27.8832
   -27.4103 -27.3751 -27.3654 -27.3279 -26.9112 -26.8711 -26.7429 -26.6966
   -10.7700 -10.5381 -10.2775 -10.1240  -6.9214  -6.2345  -5.3259  -4.5183
    -2.8150  -1.6759  -1.3484  -0.9837  -0.1965   0.3074   0.5636   0.8606
     0.9955   1.0460   1.5565   1.9800   2.0794   2.1947   2.3883   2.8589
     3.2094   3.6148   4.1500   4.4621   5.7535   6.1851   6.7300   7.2687
     8.2948   8.6409   8.8729   9.0888   9.2144   9.6115   9.7731   9.9091
     9.9652  10.4611  10.7927  11.0894  12.7996  13.1591

          k = 0.0625 0.4691 0.0000 ( 21105 PWs)   bands (ev):

   -52.5125 -52.4777 -52.4439 -52.4147 -28.0830 -28.0442 -28.0356 -27.9950
   -27.4364 -27.4011 -27.3914 -27.3538 -26.8873 -26.8525 -26.7236 -26.6768
   -10.4348 -10.2515 -10.0606  -9.9531  -6.7813  -6.1662  -5.3862  -4.9105
    -2.6796  -1.7269  -1.3523  -0.9487  -0.1202   0.4765   0.6830   0.8091
     1.0367   1.2383   1.6873   2.2292   2.4467   2.6770   2.7106   2.9216
     3.2356   3.5643   4.0278   4.4100   5.6645   6.1529   6.5618   6.9640
     7.7611   7.9992   8.2540   8.5261   8.8401   8.9849   9.2713   9.5010
     9.6159  10.0144  10.1031  10.2471  13.1182  13.4730

          k = 0.0625 0.5413 0.0000 ( 21084 PWs)   bands (ev):

   -52.5068 -52.4721 -52.4383 -52.4091 -28.1430 -28.1039 -28.0954 -28.0546
   -27.4505 -27.4150 -27.4054 -27.3677 -26.8741 -26.8426 -26.7132 -26.6661
   -10.2354 -10.0954  -9.9616  -9.8783  -6.6818  -6.1053  -5.4207  -5.1726
    -2.4588  -1.9008  -1.3003  -1.0213  -0.0507   0.5483   0.6937   0.8176
     1.1278   1.2915   1.8515   2.2959   2.5937   2.9010   2.9818   3.2356
     3.3594   3.6209   3.9863   4.3941   5.6278   6.1806   6.5765   6.9437
     7.3292   7.3623   7.6216   7.8021   8.6370   8.9170   9.1596   9.3164
     9.4614   9.6049   9.6489   9.9305  13.1910  13.5606

          k = 0.1250 0.2165 0.0000 ( 21179 PWs)   bands (ev):

   -52.5529 -52.5180 -52.4844 -52.4550 -27.6201 -27.5840 -27.5746 -27.5359
   -27.3401 -27.3056 -27.2956 -27.2584 -26.9792 -26.9263 -26.7985 -26.7538
   -11.6829 -11.3731 -11.0038 -10.7651  -7.1829  -6.3496  -5.2413  -3.5846
    -2.7256  -1.3655  -1.3153  -1.1066  -0.5304  -0.3670   0.0176   0.2050
     0.3916   0.5009   0.8361   1.8106   1.9177   2.4476   2.6667   3.0555
     3.4891   4.0911   4.5813   4.7100   6.2416   6.7142   7.0315   8.1321
     8.9790   9.3193   9.6057   9.9703  10.7113  10.8024  10.9006  11.0572
    11.2219  11.5163  11.7033  11.8793  12.0606  12.2000

          k = 0.1250 0.2887 0.0000 ( 21199 PWs)   bands (ev):

   -52.5395 -52.5046 -52.4710 -52.4416 -27.7670 -27.7302 -27.7210 -27.6818
   -27.3852 -27.3504 -27.3406 -27.3032 -26.9491 -26.9014 -26.7737 -26.7283
   -11.2754 -10.9925 -10.6591 -10.4488  -7.0780  -6.2983  -5.2555  -3.9567
    -2.7928  -1.5238  -1.3321  -1.0942  -0.3813  -0.2510   0.3994   0.4801
     0.6778   0.8564   1.1790   1.4892   1.6755   2.1035   2.3485   2.9143
     3.4895   4.3222   4.7077   4.8861   5.7829   6.2360   6.7330   7.4858
     8.6310   8.9582   9.2864   9.5114  10.1320  10.5420  10.6768  10.8848
    11.2072  11.3535  11.4880  11.7040  12.0446  12.1725

          k = 0.1250 0.3608 0.0000 ( 21195 PWs)   bands (ev):

   -52.5260 -52.4912 -52.4575 -52.4282 -27.9092 -27.8716 -27.8626 -27.8228
   -27.4309 -27.3957 -27.3860 -27.3484 -26.9185 -26.8768 -26.7488 -26.7027
   -10.8568 -10.6106 -10.3291 -10.1595  -6.9439  -6.2376  -5.2947  -4.3652
    -2.7912  -1.5938  -1.2881  -0.9810  -0.3256   0.0267   0.2922   0.7362
     0.8377   0.9431   1.3928   1.8356   1.8782   1.9906   2.2363   2.8486
     3.5688   4.2943   4.5751   4.9017   5.5553   6.0770   6.5556   6.9597
     8.2285   8.5258   8.8703   9.1299   9.2284   9.7847   9.8045  10.0510
    10.6458  11.0995  11.3376  11.5860  12.4345  12.5704

          k = 0.1250 0.4330 0.0000 ( 21113 PWs)   bands (ev):

   -52.5145 -52.4798 -52.4460 -52.4168 -28.0266 -27.9882 -27.9795 -27.9392
   -27.4695 -27.4341 -27.4245 -27.3867 -26.8922 -26.8561 -26.7275 -26.6808
   -10.4860 -10.2847 -10.0688  -9.9451  -6.7891  -6.1652  -5.3512  -4.7648
    -2.6813  -1.5988  -1.2611  -0.8580  -0.3409   0.1659   0.3671   0.6761
     0.8117   1.0211   1.5004   2.0162   2.2060   2.4645   2.5055   2.9379
     3.7065   4.2044   4.4905   4.8079   5.4313   6.0223   6.2911   6.6763
     7.6646   7.8289   8.1237   8.4362   8.8357   9.1182   9.3562   9.7756
    10.1685  10.6401  10.9234  11.0961  12.8706  13.1678

          k = 0.1250 0.5052 0.0000 ( 21081 PWs)   bands (ev):

   -52.5069 -52.4721 -52.4383 -52.4091 -28.1035 -28.0647 -28.0561 -28.0155
   -27.4953 -27.4597 -27.4501 -27.4122 -26.8744 -26.8425 -26.7132 -26.6661
   -10.2177 -10.0642  -9.9161  -9.8255  -6.6457  -6.0872  -5.4029  -5.0934
    -2.4583  -1.6946  -1.2376  -0.9048  -0.2988   0.1785   0.5079   0.6437
     0.8086   1.1499   1.6642   2.0648   2.3968   2.7530   2.9099   3.2072
     3.8532   4.2008   4.4799   4.7338   5.3884   5.8269   6.1450   6.4986
     7.0774   7.1208   7.4090   7.7551   8.8502   8.9860   9.3338   9.6966
     9.8798  10.2174  10.4015  10.5116  13.1419  13.5499

          k = 0.1250 0.5774 0.0000 ( 21108 PWs)   bands (ev):

   -52.5042 -52.4695 -52.4356 -52.4064 -28.1302 -28.0913 -28.0827 -28.0421
   -27.5043 -27.4686 -27.4591 -27.4211 -26.8680 -26.8378 -26.7081 -26.6610
   -10.1124  -9.9870  -9.8724  -9.7893  -6.5823  -6.0451  -5.4198  -5.2390
    -2.2658  -1.8631  -1.1675  -0.9977  -0.2738   0.1739   0.5915   0.6625
     0.7889   1.2365   1.7619   2.0568   2.4565   2.8258   3.0842   3.3734
     3.9200   4.2132   4.4658   4.7084   5.3875   5.7498   6.0614   6.3934
     6.8271   6.8335   7.2354   7.4614   8.9203   9.0163   9.4345   9.5744
     9.8604  10.0031  10.1083  10.2354  13.2359  13.5798

          k = 0.1875 0.3248 0.0000 ( 21195 PWs)   bands (ev):

   -52.5271 -52.4923 -52.4586 -52.4293 -27.8827 -27.8453 -27.8362 -27.7966
   -27.4434 -27.4083 -27.3985 -27.3609 -26.9211 -26.8788 -26.7508 -26.7048
   -10.8857 -10.6344 -10.3455 -10.1699  -6.9498  -6.2367  -5.2819  -4.3053
    -2.7742  -1.5522  -1.2505  -0.9898  -0.3424  -0.1571   0.2028   0.6534
     0.7784   0.8907   1.3336   1.7994   1.8469   1.8808   2.1966   2.8454
     3.6949   4.6896   4.8388   5.1692   5.4542   5.8777   6.3327   6.8647
     8.2154   8.5074   8.8391   9.1077   9.2481   9.8165   9.9208  10.0065
    11.1358  11.2622  11.5655  11.6330  12.1343  12.3307

          k = 0.1875 0.3969 0.0000 ( 21153 PWs)   bands (ev):

   -52.5157 -52.4809 -52.4471 -52.4179 -27.9832 -27.9454 -27.9364 -27.8964
   -27.5010 -27.4656 -27.4559 -27.4181 -26.8950 -26.8581 -26.7295 -26.6830
   -10.5085 -10.2971 -10.0668  -9.9329  -6.7873  -6.1594  -5.3261  -4.6692
    -2.6596  -1.5145  -1.1454  -0.7944  -0.4499  -0.1677   0.1829   0.5186
     0.6336   0.9237   1.3554   1.9446   2.0685   2.3426   2.3965   2.9659
     3.9662   4.7179   4.9366   5.2492   5.2933   5.7455   6.1900   6.3299
     7.6105   7.7032   7.9824   8.3487   8.6961   9.2707   9.5013   9.6697
    10.8808  11.0649  11.3812  11.4893  12.6176  12.7505

          k = 0.1875 0.4691 0.0000 ( 21101 PWs)   bands (ev):

   -52.5069 -52.4722 -52.4383 -52.4091 -28.0571 -28.0188 -28.0100 -27.9698
   -27.5468 -27.5111 -27.5015 -27.4634 -26.8746 -26.8424 -26.7132 -26.6662
   -10.1987 -10.0331  -9.8709  -9.7725  -6.6072  -6.0711  -5.3814  -5.0107
    -2.4353  -1.4983  -1.1268  -0.7903  -0.4465  -0.1914   0.2486   0.4287
     0.5723   1.0703   1.4223   1.9363   2.2234   2.6180   2.7337   3.1909
     4.2481   4.7536   4.9603   5.1381   5.3035   5.5878   5.8333   6.2375
     6.8877   6.9299   7.1983   7.5645   8.5525   9.0261   9.4869   9.7617
    10.6098  10.8526  11.0754  11.1734  13.0909  13.2671

          k = 0.1875 0.5413 0.0000 ( 21112 PWs)   bands (ev):

   -52.5021 -52.4674 -52.4336 -52.4044 -28.0961 -28.0576 -28.0489 -28.0085
   -27.5720 -27.5361 -27.5266 -27.4884 -26.8635 -26.8341 -26.7043 -26.6571
   -10.0105  -9.8884  -9.7833  -9.6960  -6.4685  -5.9951  -5.4269  -5.2498
    -2.1440  -1.6654  -1.0863  -0.9532  -0.3873  -0.1972   0.2918   0.4656
     0.6992   1.2464   1.4364   1.9353   2.2428   2.6662   2.9673   3.3636
     4.4520   4.7279   4.8869   5.0895   5.3441   5.4218   5.6380   5.9493
     6.4470   6.6924   6.8333   7.1614   8.5754   8.9794   9.5887   9.9057
    10.4786  10.6644  10.7893  10.8757  13.3578  13.6362

          k = 0.2500 0.4330 0.0000 ( 21125 PWs)   bands (ev):

   -52.5069 -52.4722 -52.4383 -52.4091 -28.0349 -27.9969 -27.9880 -27.9479
   -27.5710 -27.5353 -27.5258 -27.4876 -26.8748 -26.8424 -26.7132 -26.6662
   -10.1906 -10.0202  -9.8523  -9.7504  -6.5905  -6.0651  -5.3716  -4.9749
    -2.4203  -1.4450  -1.0231  -0.6944  -0.5143  -0.3937   0.2224   0.2928
     0.4369   1.0240   1.3365   1.8946   2.1586   2.5670   2.6434   3.1864
     4.3815   4.9681   5.1528   5.2708   5.3614   5.6101   5.8073   6.0633
     6.7651   6.8337   7.0426   7.4839   8.4187   9.2130   9.5091   9.6793
    10.9897  11.0324  11.3433  11.3920  13.0212  13.1216

          k = 0.2500 0.5052 0.0000 ( 21117 PWs)   bands (ev):

   -52.5010 -52.4663 -52.4325 -52.4033 -28.0636 -28.0255 -28.0166 -27.9766
   -27.6234 -27.5874 -27.5780 -27.5396 -26.8611 -26.8321 -26.7022 -26.6549
    -9.9536  -9.8290  -9.7268  -9.6360  -6.3830  -5.9778  -5.4335  -5.2377
    -2.1002  -1.4955  -1.0737  -0.7919  -0.6011  -0.2389   0.0763   0.3972
     0.6198   0.9865   1.4321   1.8067   2.1482   2.5595   2.7209   3.2717
     4.7245   4.9777   5.0858   5.1815   5.3064   5.6132   5.7403   5.9898
     6.2134   6.3564   6.5616   6.8376   8.2768   9.2256   9.6131   9.8659
    11.0543  11.1304  11.2430  11.2921  13.4130  13.4406

          k = 0.2500 0.5774 0.0000 ( 21116 PWs)   bands (ev):

   -52.4989 -52.4642 -52.4304 -52.4012 -28.0724 -28.0344 -28.0254 -27.9854
   -27.6429 -27.6069 -27.5975 -27.5589 -26.8562 -26.8285 -26.6984 -26.6510
    -9.8563  -9.7638  -9.6927  -9.5975  -6.2730  -5.9412  -5.4841  -5.3425
    -1.8534  -1.6302  -1.1364  -0.8450  -0.6032  -0.2559   0.0864   0.5145
     0.8552   0.9306   1.4731   1.7207   2.0818   2.4637   2.7892   3.2814
     4.7445   4.8994   5.0137   5.1884   5.3712   5.5785   5.6893   5.9325
     6.0259   6.3444   6.4698   6.6013   8.2487   9.2426   9.7035   9.8945
    11.1069  11.1760  11.2138  11.2755  13.4636  13.5831

          k = 0.3125 0.5413 0.0000 ( 21100 PWs)   bands (ev):

   -52.4978 -52.4631 -52.4293 -52.4001 -28.0582 -28.0205 -28.0114 -27.9716
   -27.6738 -27.6377 -27.6283 -27.5897 -26.8537 -26.8265 -26.6963 -26.6489
    -9.7974  -9.7199  -9.6612  -9.5604  -6.1518  -5.9602  -5.5177  -5.3681
    -1.7807  -1.5828  -1.1216  -0.7511  -0.7112  -0.3938   0.1507   0.6174
     0.6821   1.0857   1.2930   1.6848   2.0041   2.4891   2.5333   3.1628
     4.8110   4.9347   5.0165   5.1231   5.5389   5.8187   5.9352   5.9674
     6.0322   6.0381   6.1824   6.3493   8.1090   9.4914   9.6559   9.8183
    11.3794  11.4050  11.4399  11.4717  13.4197  13.5187

     the Fermi energy is     9.1977 ev

!    total energy              =   -1974.70572992 Ry
     total all-electron energy =    -38768.026575 Ry
     estimated scf accuracy    <          6.5E-09 Ry
     smearing contrib. (-TS)   =      -0.00047420 Ry
     internal energy E=F+TS    =   -1974.70525572 Ry

     The total energy is F=E-TS. E is the sum of the following terms:
     one-electron contribution =  -11730.64317010 Ry
     hartree contribution      =    5907.90829636 Ry
     xc contribution           =    -125.87375994 Ry
     ewald contribution        =    5244.35527895 Ry
     one-center paw contrib.   =   -1270.45190099 Ry

     convergence has been achieved in  25 iterations

     negative rho (up, down):  1.080E-04 0.000E+00

     Forces acting on atoms (cartesian axes, Ry/au):

     atom    1 type  2   force =     0.00000000    0.00000000   -0.70865453
     atom    2 type  1   force =     0.00000000    0.00000000    0.00352307
     atom    3 type  2   force =     0.00000000    0.00000000    0.55269061
     atom    4 type  2   force =     0.00000000   -0.00000000   -0.54804514
     atom    5 type  1   force =     0.00000000    0.00000000   -0.03962702
     atom    6 type  2   force =     0.00000000    0.00000000    0.57144527
     atom    7 type  2   force =     0.00000000   -0.00000000   -0.54899016
     atom    8 type  1   force =     0.00000000   -0.00000000   -0.00750381
     atom    9 type  2   force =     0.00000000    0.00000000    0.56787335
     atom   10 type  2   force =     0.00000000    0.00000000   -0.57668886
     atom   11 type  1   force =     0.00000000    0.00000000   -0.03175935
     atom   12 type  2   force =     0.00000000   -0.00000000    0.76573658

     Total force =     1.726268     Total SCF correction =     0.000264

     BFGS Geometry Optimization
     Energy error            =      0.0E+00 Ry
     Gradient error          =      7.7E-01 Ry/Bohr

     number of scf cycles    =   1
     number of bfgs steps    =   0

     energy             new  =   -1974.7057299175 Ry

     new trust radius        =       0.5000000000 bohr
     new conv_thr            =       0.0000000100 Ry


ATOMIC_POSITIONS (crystal)
S                0.3333330000        0.6666670000        0.0418378408
Mo               0.0000000000        0.0000000000        0.0808738782
S                0.3333330000        0.6666670000        0.1180324939
S                0.6666670000        0.3333330000        0.1628544117
Mo               0.3333330000        0.6666670000        0.1995435829
S                0.6666670000        0.3333330000        0.2374151069
S               -0.0000000000       -0.0000000000        0.2820101272
Mo               0.6666670000        0.3333330000        0.3190802724
S                0.0000000000        0.0000000000        0.3565406661
S                0.3333330000        0.6666670000        0.4008577984
Mo               0.0000000000        0.0000000000        0.4379675013
S                0.3333330000        0.6666670000        0.4779863202



     Writing config-only to output data dir ./tmp/relax/mos2_slab.save/ :
     XML data file
     NEW-OLD atomic charge density approx. for the potential

     negative rho (up, down):  1.050E-04 0.000E+00

     total cpu time spent up to now is     3337.9 secs

     Self-consistent Calculation

     iteration #  1     ecut=    80.00 Ry     beta= 0.30
     Davidson diagonalization with overlap
     c_bands:  2 eigenvalues not converged
     c_bands:  1 eigenvalues not converged
     c_bands:  1 eigenvalues not converged
     c_bands:  2 eigenvalues not converged
     c_bands:  2 eigenvalues not converged
     c_bands:  1 eigenvalues not converged
     c_bands:  1 eigenvalues not converged
     c_bands:  1 eigenvalues not converged
     c_bands:  2 eigenvalues not converged
     c_bands:  2 eigenvalues not converged
     c_bands:  2 eigenvalues not converged
     c_bands:  2 eigenvalues not converged
     c_bands:  1 eigenvalues not converged
     c_bands:  1 eigenvalues not converged
     c_bands:  1 eigenvalues not converged
     c_bands:  2 eigenvalues not converged
     c_bands:  2 eigenvalues not converged
     c_bands:  2 eigenvalues not converged
     c_bands:  1 eigenvalues not converged
     c_bands:  2 eigenvalues not converged
     c_bands:  2 eigenvalues not converged
     c_bands:  1 eigenvalues not converged
     c_bands:  2 eigenvalues not converged
     c_bands:  1 eigenvalues not converged
     c_bands:  1 eigenvalues not converged
     ethr =  1.00E-06,  avg # of iterations = 19.6

     negative rho (up, down):  1.666E-03 0.000E+00

     total cpu time spent up to now is     3900.7 secs

     total energy              =   -1975.97026651 Ry
     estimated scf accuracy    <       0.39922812 Ry

     iteration #  2     ecut=    80.00 Ry     beta= 0.30
     Davidson diagonalization with overlap
     ethr =  3.84E-04,  avg # of iterations =  1.0

     negative rho (up, down):  5.961E-03 0.000E+00

     total cpu time spent up to now is     4001.2 secs

     total energy              =   -1975.94284326 Ry
     estimated scf accuracy    <       0.18198761 Ry

     iteration #  3     ecut=    80.00 Ry     beta= 0.30
     Davidson diagonalization with overlap
     ethr =  1.75E-04,  avg # of iterations =  2.0

     negative rho (up, down):  8.407E-03 0.000E+00

     total cpu time spent up to now is     4115.3 secs

     total energy              =   -1975.95482892 Ry
     estimated scf accuracy    <       0.05293410 Ry

     iteration #  4     ecut=    80.00 Ry     beta= 0.30
     Davidson diagonalization with overlap
     ethr =  5.09E-05,  avg # of iterations =  1.7

     negative rho (up, down):  1.329E-02 0.000E+00

     total cpu time spent up to now is     4218.6 secs

     total energy              =   -1975.95195485 Ry
     estimated scf accuracy    <       0.02367190 Ry

     iteration #  5     ecut=    80.00 Ry     beta= 0.30
     Davidson diagonalization with overlap
     c_bands:  1 eigenvalues not converged
     ethr =  2.28E-05,  avg # of iterations =  4.1

     negative rho (up, down):  1.405E-02 0.000E+00

     total cpu time spent up to now is     4333.9 secs

     total energy              =   -1975.95343276 Ry
     estimated scf accuracy    <       0.00300302 Ry

     iteration #  6     ecut=    80.00 Ry     beta= 0.30
     Davidson diagonalization with overlap
     ethr =  2.89E-06,  avg # of iterations = 10.0

     negative rho (up, down):  1.307E-02 0.000E+00

     total cpu time spent up to now is     4472.4 secs

     total energy              =   -1975.95328189 Ry
     estimated scf accuracy    <       0.00219893 Ry

     iteration #  7     ecut=    80.00 Ry     beta= 0.30
     Davidson diagonalization with overlap
     ethr =  2.11E-06,  avg # of iterations =  3.1

     negative rho (up, down):  1.312E-02 0.000E+00

     total cpu time spent up to now is     4594.2 secs

     total energy              =   -1975.95329503 Ry
     estimated scf accuracy    <       0.00202404 Ry

     iteration #  8     ecut=    80.00 Ry     beta= 0.30
     Davidson diagonalization with overlap
     ethr =  1.95E-06,  avg # of iterations =  3.1

     negative rho (up, down):  1.126E-02 0.000E+00

     total cpu time spent up to now is     4705.4 secs

     total energy              =   -1975.95316531 Ry
     estimated scf accuracy    <       0.00085244 Ry

     iteration #  9     ecut=    80.00 Ry     beta= 0.30
     Davidson diagonalization with overlap
     ethr =  8.20E-07,  avg # of iterations =  2.6

     negative rho (up, down):  8.205E-03 0.000E+00

     total cpu time spent up to now is     4827.7 secs

     total energy              =   -1975.95327655 Ry
     estimated scf accuracy    <       0.00043150 Ry

     iteration # 10     ecut=    80.00 Ry     beta= 0.30
     Davidson diagonalization with overlap
     ethr =  4.15E-07,  avg # of iterations =  1.6

     negative rho (up, down):  5.406E-03 0.000E+00

     total cpu time spent up to now is     4931.1 secs

     total energy              =   -1975.95322959 Ry
     estimated scf accuracy    <       0.00019257 Ry

     iteration # 11     ecut=    80.00 Ry     beta= 0.30
     Davidson diagonalization with overlap
     ethr =  1.85E-07,  avg # of iterations =  2.7

     negative rho (up, down):  3.619E-03 0.000E+00

     total cpu time spent up to now is     5050.9 secs

     total energy              =   -1975.95325922 Ry
     estimated scf accuracy    <       0.00016880 Ry

     iteration # 12     ecut=    80.00 Ry     beta= 0.30
     Davidson diagonalization with overlap
     ethr =  1.62E-07,  avg # of iterations =  2.0

     negative rho (up, down):  9.781E-04 0.000E+00

     total cpu time spent up to now is     5163.9 secs

     total energy              =   -1975.95328795 Ry
     estimated scf accuracy    <       0.00004222 Ry

     iteration # 13     ecut=    80.00 Ry     beta= 0.30
     Davidson diagonalization with overlap
     ethr =  4.06E-08,  avg # of iterations =  3.2

     negative rho (up, down):  7.094E-04 0.000E+00

     total cpu time spent up to now is     5293.8 secs

     total energy              =   -1975.95329513 Ry
     estimated scf accuracy    <       0.00006058 Ry

     iteration # 14     ecut=    80.00 Ry     beta= 0.30
     Davidson diagonalization with overlap
     ethr =  4.06E-08,  avg # of iterations =  2.2

     negative rho (up, down):  4.261E-04 0.000E+00

     total cpu time spent up to now is     5407.0 secs

     total energy              =   -1975.95329907 Ry
     estimated scf accuracy    <       0.00000999 Ry

     iteration # 15     ecut=    80.00 Ry     beta= 0.30
     Davidson diagonalization with overlap
     ethr =  9.60E-09,  avg # of iterations =  2.6

     negative rho (up, down):  1.637E-04 0.000E+00

     total cpu time spent up to now is     5533.7 secs

     total energy              =   -1975.95330076 Ry
     estimated scf accuracy    <       0.00000173 Ry

     iteration # 16     ecut=    80.00 Ry     beta= 0.30
     Davidson diagonalization with overlap
     ethr =  1.66E-09,  avg # of iterations =  2.6

     negative rho (up, down):  1.152E-04 0.000E+00

     total cpu time spent up to now is     5648.5 secs

     total energy              =   -1975.95330159 Ry
     estimated scf accuracy    <       0.00000044 Ry

     iteration # 17     ecut=    80.00 Ry     beta= 0.30
     Davidson diagonalization with overlap
     ethr =  4.26E-10,  avg # of iterations =  3.6

     negative rho (up, down):  1.009E-04 0.000E+00

     total cpu time spent up to now is     5776.9 secs

     total energy              =   -1975.95330256 Ry
     estimated scf accuracy    <       0.00000018 Ry

     iteration # 18     ecut=    80.00 Ry     beta= 0.30
     Davidson diagonalization with overlap
     ethr =  1.73E-10,  avg # of iterations =  2.2

     negative rho (up, down):  8.168E-05 0.000E+00

     total cpu time spent up to now is     5889.3 secs

     total energy              =   -1975.95330300 Ry
     estimated scf accuracy    <       0.00000011 Ry

     iteration # 19     ecut=    80.00 Ry     beta= 0.30
     Davidson diagonalization with overlap
     ethr =  1.01E-10,  avg # of iterations =  2.6

     negative rho (up, down):  7.837E-05 0.000E+00

     total cpu time spent up to now is     6003.8 secs

     total energy              =   -1975.95330302 Ry
     estimated scf accuracy    <       0.00000004 Ry

     iteration # 20     ecut=    80.00 Ry     beta= 0.30
     Davidson diagonalization with overlap
     ethr =  3.80E-11,  avg # of iterations =  2.7

     negative rho (up, down):  8.223E-05 0.000E+00

     total cpu time spent up to now is     6116.5 secs

     total energy              =   -1975.95330332 Ry
     estimated scf accuracy    <       0.00000002 Ry

     iteration # 21     ecut=    80.00 Ry     beta= 0.30
     Davidson diagonalization with overlap
     ethr =  2.33E-11,  avg # of iterations =  2.8

     negative rho (up, down):  8.610E-05 0.000E+00

     total cpu time spent up to now is     6237.1 secs

     total energy              =   -1975.95330309 Ry
     estimated scf accuracy    <       0.00000001 Ry

     iteration # 22     ecut=    80.00 Ry     beta= 0.30
     Davidson diagonalization with overlap
     ethr =  1.28E-11,  avg # of iterations =  2.3

     negative rho (up, down):  9.863E-05 0.000E+00

     total cpu time spent up to now is     6351.7 secs

     End of self-consistent calculation

          k = 0.0000 0.0000 0.0000 ( 21311 PWs)   bands (ev):

   -53.2241 -52.9812 -52.9173 -52.8976 -27.8063 -27.6926 -27.5670 -27.4771
   -27.4771 -27.2938 -27.2821 -27.2821 -27.2652 -27.2651 -27.2029 -27.2029
   -12.3331 -11.7435 -10.8318  -8.7934  -8.0161  -6.7457  -5.3015  -3.2713
    -2.2615   0.0855   0.1890   0.1890   0.4883   0.4883   0.9475   0.9475
     1.3538   1.3538   2.1628   2.2928   2.2928   2.9482   2.9482   3.6506
     3.6506   3.9798   3.9799   4.0031   6.1501   7.0339   7.3635   7.5942
     7.5942   7.6846   8.0615   8.0713   8.0713   8.3885   8.3885   9.0659
     9.6129   9.6129  10.3157  10.5251  10.5251  11.3297

          k = 0.0000 0.0722 0.0000 ( 21283 PWs)   bands (ev):

   -53.2219 -52.9789 -52.9150 -52.8953 -27.8012 -27.6869 -27.5624 -27.5020
   -27.4822 -27.3099 -27.2932 -27.2876 -27.2864 -27.2704 -27.2304 -27.2084
   -12.2565 -11.6754 -10.7788  -8.7273  -7.9710  -6.7220  -5.2984  -3.3434
    -2.2631  -0.0962   0.0402   0.2263   0.3541   0.5084   0.9014   0.9497
     1.3118   1.4416   1.8575   2.2116   2.4017   2.9105   3.0876   3.4790
     3.6135   3.8295   3.9519   4.2740   6.0848   6.6176   6.7465   7.5159
     7.7123   7.9997   8.0716   8.3489   8.4702   8.5593   8.6668   9.1979
     9.6755   9.7345  10.1805  10.4198  10.4544  11.1766

          k = 0.0000 0.1443 0.0000 ( 21263 PWs)   bands (ev):

   -53.2157 -52.9723 -52.9086 -52.8887 -27.7869 -27.6705 -27.5734 -27.5484
   -27.4968 -27.3870 -27.3647 -27.3080 -27.3034 -27.2854 -27.2742 -27.2241
   -12.0327 -11.4769 -10.6246  -8.5435  -7.8436  -6.6595  -5.3038  -3.5743
    -2.2834  -0.4839  -0.3394   0.0049   0.3233   0.5406   0.7607   0.8681
     1.2137   1.4204   1.7057   2.1737   2.5765   2.7420   2.8289   3.4689
     3.4969   3.7686   3.8548   4.5552   5.7657   6.0660   6.3241   7.4276
     7.9070   7.9201   8.2033   8.3761   8.9248   8.9456   9.2828   9.6780
    10.0036  10.0645  10.1268  10.5010  10.5125  10.8880

          k = 0.0000 0.2165 0.0000 ( 21233 PWs)   bands (ev):

   -53.2064 -52.9624 -52.8990 -52.8789 -27.7661 -27.6765 -27.6462 -27.5330
   -27.5186 -27.4968 -27.4718 -27.4217 -27.3268 -27.3077 -27.2532 -27.2474
   -11.6781 -11.1633 -10.3820  -8.2840  -7.6576  -6.5833  -5.3553  -3.9791
    -2.3596  -0.9549  -0.7665  -0.4312   0.4180   0.5143   0.5931   0.6410
     0.9591   1.2890   2.1402   2.2777   2.4097   2.6807   2.8381   3.1027
     3.3404   3.6797   3.9240   4.5243   5.4416   5.9669   6.1151   7.3420
     7.4127   7.8813   8.3109   8.5311   8.8903   9.3016   9.6840   9.9708
    10.3261  10.4293  10.5894  10.8635  10.8875  11.3755

          k = 0.0000 0.2887 0.0000 ( 21197 PWs)   bands (ev):

   -53.1954 -52.9508 -52.8877 -52.8672 -27.8000 -27.7379 -27.6350 -27.6250
   -27.5892 -27.5513 -27.5442 -27.5020 -27.3542 -27.3339 -27.2748 -27.2282
   -11.2178 -10.7577 -10.0679  -8.0174  -7.4556  -6.5281  -5.4894  -4.5261
    -2.5133  -1.4913  -1.1127  -0.8204   0.2256   0.3807   0.4450   0.6172
     0.7315   1.4108   1.9391   2.6274   2.7169   2.8496   2.8677   3.0236
     3.2323   3.4689   3.8454   4.2535   5.2367   6.0652   6.2663   6.7817
     7.3226   7.8169   7.9763   8.6673   8.8129   9.3951   9.6083  10.2598
    10.4994  10.8936  10.9925  11.2117  11.4332  11.7733

          k = 0.0000 0.3608 0.0000 ( 21187 PWs)   bands (ev):

   -53.1844 -52.9391 -52.8764 -52.8555 -27.9167 -27.7628 -27.7218 -27.7197
   -27.6757 -27.5819 -27.5696 -27.4786 -27.3815 -27.3599 -27.3019 -27.2031
   -10.6851 -10.2895  -9.7026  -7.8318  -7.3023  -6.5250  -5.7028  -5.1302
    -2.7105  -1.9995  -1.4163  -1.0832  -0.0834   0.2147   0.3053   0.6568
     0.6855   1.4690   1.9383   2.4488   2.8503   3.1164   3.1866   3.3726
     3.4791   3.5091   3.6083   4.1344   5.0615   6.0862   6.1906   6.7244
     7.3586   7.6371   7.8401   8.6289   8.6586   9.1021   9.6636  10.1943
    10.4371  10.8654  10.9991  11.1742  11.5663  11.9929

          k = 0.0000 0.4330 0.0000 ( 21140 PWs)   bands (ev):

   -53.1751 -52.9291 -52.8667 -52.8455 -28.0146 -27.8693 -27.8222 -27.7925
   -27.6873 -27.5910 -27.5576 -27.4582 -27.4045 -27.3819 -27.3249 -27.1817
   -10.1262  -9.8001  -9.3195  -7.8039  -7.2824  -6.6014  -5.9365  -5.6498
    -2.8849  -2.4179  -1.6562  -1.2394  -0.3280   0.0542   0.2018   0.6535
     0.7521   1.4476   2.0552   2.4241   2.9546   2.9946   3.2019   3.4337
     3.7520   4.0736   4.1091   4.1777   4.9743   5.8870   6.2203   6.8615
     7.4370   7.6113   7.9776   8.4683   8.5734   8.9661   9.4604   9.6696
    10.0771  10.3818  10.4380  10.4579  11.7678  12.2343

          k = 0.0000 0.5052 0.0000 ( 21078 PWs)   bands (ev):

   -53.1688 -52.9225 -52.8602 -52.8389 -28.0792 -27.9393 -27.8886 -27.8612
   -27.6740 -27.6053 -27.5407 -27.4444 -27.4198 -27.3965 -27.3401 -27.1673
    -9.6217  -9.3688  -9.0020  -7.9136  -7.4170  -6.8076  -6.1185  -5.8932
    -2.9870  -2.7037  -1.8039  -1.3245  -0.4814  -0.0563   0.1442   0.6322
     0.8394   1.5121   1.9990   2.4361   2.8841   3.1438   3.2352   3.4095
     4.0310   4.0533   4.5654   4.7797   4.9842   5.8381   6.3487   6.9904
     7.4884   7.8572   8.1591   8.4753   8.5555   8.8458   9.2017   9.2031
     9.5034   9.5470   9.7298   9.8613  11.8916  12.1276

          k = 0.0000-0.5774 0.0000 ( 21006 PWs)   bands (ev):

   -53.1666 -52.9201 -52.8580 -52.8365 -28.1017 -27.9637 -27.9118 -27.8854
   -27.6690 -27.6103 -27.5347 -27.4396 -27.4251 -27.4016 -27.3454 -27.1622
    -9.3739  -9.1729  -8.8928  -7.9888  -7.5165  -6.9652  -6.1693  -5.9417
    -3.0122  -2.8125  -1.8531  -1.3518  -0.5335  -0.0952   0.1263   0.6215
     0.8773   1.5656   1.9659   2.3972   2.8448   3.2443   3.2494   3.4356
     4.0062   4.1355   4.7617   5.0078   5.0343   5.8329   6.4584   7.0728
     7.5632   8.0704   8.2464   8.5575   8.6741   8.7398   8.9302   9.0255
     9.0833   9.1893   9.4006   9.5983  11.9257  12.0816

          k = 0.0625 0.1083 0.0000 ( 21269 PWs)   bands (ev):

   -53.2177 -52.9744 -52.9107 -52.8909 -27.7915 -27.6758 -27.5555 -27.5471
   -27.4928 -27.3614 -27.3405 -27.2990 -27.2822 -27.2813 -27.2786 -27.2198
   -12.1063 -11.5421 -10.6752  -8.6023  -7.8847  -6.6788  -5.2995  -3.4949
    -2.2736  -0.3644  -0.2129   0.1240   0.2950   0.4752   0.8118   0.8706
     1.3513   1.4687   1.6270   2.2188   2.3835   2.7817   3.1595   3.3055
     3.5744   3.7386   3.9238   4.5066   5.9003   6.1929   6.3383   7.3611
     7.9986   8.0192   8.1185   8.5426   8.6976   8.8102   9.1182   9.5518
     9.8421   9.9673  10.1811  10.3793  10.4381  10.9483

          k = 0.0625 0.1804 0.0000 ( 21194 PWs)   bands (ev):

   -53.2100 -52.9662 -52.9027 -52.8826 -27.7739 -27.6555 -27.6348 -27.5374
   -27.5128 -27.4540 -27.4287 -27.3759 -27.3204 -27.3018 -27.2612 -27.2412
   -11.8170 -11.2860 -10.4768  -8.3799  -7.7272  -6.6089  -5.3280  -3.8124
    -2.3194  -0.7492  -0.6034  -0.2278   0.3281   0.3679   0.5388   0.7971
     1.1582   1.4032   1.8939   2.2233   2.4033   2.6174   3.0090   3.2479
     3.3828   3.5506   4.1093   4.6548   5.5666   5.8805   6.0171   7.2851
     7.6112   8.0615   8.3933   8.6476   8.9801   9.1610   9.4257   9.7884
    10.1222  10.3934  10.4919  10.5678  10.8083  10.9751

          k = 0.0625 0.2526 0.0000 ( 21202 PWs)   bands (ev):

   -53.1998 -52.9554 -52.8923 -52.8719 -27.7584 -27.7367 -27.6301 -27.5787
   -27.5411 -27.5390 -27.5101 -27.4951 -27.3485 -27.3286 -27.2692 -27.2382
   -11.4090 -10.9260 -10.1981  -8.1147  -7.5309  -6.5422  -5.4218  -4.2869
    -2.4305  -1.2308  -0.9605  -0.6326   0.1391   0.2656   0.3642   0.6751
     0.9307   1.4389   2.0282   2.3428   2.5711   2.7525   2.8566   3.0825
     3.3107   3.4597   4.1167   4.5027   5.3359   5.8858   5.9906   7.0300
     7.2204   8.0212   8.2148   8.7016   9.0492   9.5347   9.5630  10.0986
    10.1845  10.6498  10.9476  11.0742  11.2123  11.3573

          k = 0.0625 0.3248 0.0000 ( 21194 PWs)   bands (ev):

   -53.1888 -52.9438 -52.8809 -52.8602 -27.8628 -27.7249 -27.7040 -27.6677
   -27.6237 -27.5905 -27.5671 -27.4881 -27.3788 -27.3574 -27.2993 -27.2132
   -10.9111 -10.4876  -9.8569  -7.8851  -7.3486  -6.5118  -5.5996  -4.8615
    -2.6027  -1.7386  -1.2637  -0.9737  -0.1690   0.1152   0.3069   0.5530
     0.8211   1.5009   1.9050   2.4298   2.7247   3.0682   3.1419   3.1864
     3.2579   3.4992   3.9612   4.3112   5.1607   5.9306   6.2444   6.5620
     7.1888   7.8122   8.0548   8.6161   8.9883   9.2764   9.7788  10.2661
    10.4179  10.8540  11.0281  11.2382  11.5073  11.6356

          k = 0.0625 0.3969 0.0000 ( 21151 PWs)   bands (ev):

   -53.1787 -52.9329 -52.8704 -52.8493 -27.9679 -27.8187 -27.7742 -27.7454
   -27.6923 -27.5929 -27.5671 -27.4660 -27.4065 -27.3839 -27.3270 -27.1899
   -10.3613 -10.0043  -9.4767  -7.7791  -7.2576  -6.5444  -5.8260  -5.4333
    -2.7853  -2.1952  -1.5285  -1.1948  -0.4289  -0.0622   0.2531   0.4973
     0.7826   1.4718   2.0122   2.3473   2.8699   3.1182   3.2385   3.3735
     3.7217   3.8440   3.9974   4.2645   5.0365   5.9244   6.1326   6.6741
     7.3176   7.5330   8.1132   8.5130   8.7539   9.1200   9.6251   9.9310
    10.3268  10.4395  10.6709  10.8954  11.7875  12.0935

          k = 0.0625 0.4691 0.0000 ( 21105 PWs)   bands (ev):

   -53.1708 -52.9246 -52.8623 -52.8410 -28.0473 -27.9049 -27.8559 -27.8273
   -27.6783 -27.6126 -27.5463 -27.4490 -27.4276 -27.4041 -27.3480 -27.1720
    -9.8177  -9.5304  -9.1079  -7.8376  -7.3304  -6.6879  -6.0349  -5.8180
    -2.9183  -2.5497  -1.7200  -1.3195  -0.6095  -0.2191   0.2141   0.4578
     0.8200   1.5031   1.9633   2.4607   2.9717   3.0700   3.2930   3.4641
     3.9615   4.1514   4.3857   4.5390   5.0278   5.8454   6.2164   6.8392
     7.4457   7.5861   8.1934   8.3644   8.6592   8.9768   9.2548   9.4678
     9.5693   9.8788  10.1911  10.5061  11.8845  12.2406

          k = 0.0625 0.5413 0.0000 ( 21084 PWs)   bands (ev):

   -53.1666 -52.9201 -52.8580 -52.8365 -28.0899 -27.9510 -27.8996 -27.8728
   -27.6690 -27.6232 -27.5348 -27.4410 -27.4376 -27.4149 -27.3594 -27.1622
    -9.4031  -9.1867  -8.8771  -7.9597  -7.4846  -6.9264  -6.1424  -5.9345
    -2.9706  -2.7583  -1.8169  -1.3760  -0.7016  -0.3103   0.2034   0.4127
     0.8826   1.5669   1.9149   2.4765   2.9497   3.1329   3.3426   3.5464
     4.0603   4.1442   4.6921   4.9716   5.0753   5.8691   6.3408   6.9722
     7.4834   7.8911   8.2049   8.2859   8.6356   8.7738   8.8862   8.9988
     9.2985   9.4630   9.7601  10.0710  11.9311  12.2454

          k = 0.1250 0.2165 0.0000 ( 21179 PWs)   bands (ev):

   -53.2014 -52.9571 -52.8939 -52.8735 -27.7567 -27.7202 -27.6336 -27.5567
   -27.5404 -27.5202 -27.5109 -27.4718 -27.3499 -27.3301 -27.2708 -27.2417
   -11.4740 -10.9831 -10.2422  -8.1500  -7.5575  -6.5475  -5.3992  -4.1984
    -2.3959  -1.0998  -0.8891  -0.4854  -0.0205   0.1361   0.2515   0.7566
     1.0218   1.5255   2.0323   2.1729   2.4926   2.7500   2.9145   3.0294
     3.3080   3.5761   4.3281   4.7194   5.3445   5.7090   5.7576   7.1342
     7.2164   8.0306   8.4410   8.9772   9.1549   9.4328   9.6331   9.8085
    10.0819  10.4798  10.8623  10.9225  11.2143  11.3356

          k = 0.1250 0.2887 0.0000 ( 21199 PWs)   bands (ev):

   -53.1912 -52.9463 -52.8834 -52.8627 -27.8254 -27.7292 -27.6633 -27.6339
   -27.5987 -27.5778 -27.5736 -27.4930 -27.3864 -27.3651 -27.3072 -27.2186
   -11.0269 -10.5889  -9.9351  -7.9171  -7.3754  -6.5039  -5.5407  -4.6970
    -2.5189  -1.5098  -1.1604  -0.8005  -0.3979  -0.1389   0.0933   0.6559
     0.8797   1.5370   1.9116   2.3885   2.5544   2.8683   3.0427   3.1103
     3.2740   3.8284   4.3547   4.6499   5.1901   5.6347   5.8330   6.6910
     7.0857   8.0194   8.3029   8.7900   9.2324   9.5805   9.9164  10.0041
    10.2982  10.6506  10.9436  11.0161  11.2427  11.6171

          k = 0.1250 0.3608 0.0000 ( 21195 PWs)   bands (ev):

   -53.1810 -52.9355 -52.8729 -52.8519 -27.9228 -27.7699 -27.7282 -27.7157
   -27.6791 -27.6088 -27.5732 -27.4712 -27.4234 -27.4004 -27.3441 -27.1954
   -10.5075 -10.1307  -9.5731  -7.7631  -7.2459  -6.5058  -5.7404  -5.2426
    -2.6693  -1.9296  -1.4053  -1.1422  -0.6583  -0.3380  -0.0432   0.5679
     0.7749   1.4716   1.8951   2.3221   2.7619   3.0047   3.2755   3.3496
     3.4826   4.0967   4.3470   4.6089   5.0988   5.6982   6.0607   6.3181
     7.0461   7.8470   8.3313   8.6531   8.9872   9.4621   9.7690  10.0879
    10.2792  10.5104  10.7038  10.9897  11.5036  11.7985

          k = 0.1250 0.4330 0.0000 ( 21113 PWs)   bands (ev):

   -53.1724 -52.9263 -52.8640 -52.8427 -28.0043 -27.8586 -27.8117 -27.7821
   -27.6810 -27.6381 -27.5506 -27.4566 -27.4506 -27.4304 -27.3755 -27.1755
    -9.9602  -9.6479  -9.1861  -7.7588  -7.2534  -6.5940  -5.9384  -5.7078
    -2.8015  -2.3091  -1.6110  -1.3898  -0.8342  -0.4902  -0.1468   0.5167
     0.7462   1.4594   1.7962   2.4628   2.9416   3.1108   3.3588   3.5058
     3.8922   4.2416   4.5241   4.6656   5.1131   5.8270   5.9859   6.4979
     7.1428   7.6621   8.2844   8.4326   8.7312   9.2671   9.3410   9.5546
     9.8086  10.2679  10.6127  10.9279  12.0120  12.0775

          k = 0.1250 0.5052 0.0000 ( 21081 PWs)   bands (ev):

   -53.1666 -52.9201 -52.8580 -52.8365 -28.0581 -27.9171 -27.8671 -27.8392
   -27.6690 -27.6575 -27.5351 -27.4763 -27.4505 -27.4391 -27.3964 -27.1622
    -9.4627  -9.2169  -8.8532  -7.8848  -7.4078  -6.8353  -6.0735  -5.9148
    -2.8681  -2.5962  -1.7482  -1.5217  -0.9360  -0.6163  -0.1905   0.4598
     0.7964   1.5283   1.7052   2.5793   3.0642   3.1767   3.3291   3.7538
     4.1141   4.3213   4.6210   4.9061   5.2131   5.8875   6.1319   6.7150
     7.2241   7.6886   7.9817   8.0664   8.5155   8.6849   9.1171   9.2925
     9.7229  10.0004  10.4356  10.6819  12.0787  12.4178

          k = 0.1250 0.5774 0.0000 ( 21108 PWs)   bands (ev):

   -53.1646 -52.9180 -52.8559 -52.8344 -28.0768 -27.9375 -27.8864 -27.8594
   -27.6660 -27.6629 -27.5297 -27.4836 -27.4574 -27.4347 -27.4037 -27.1576
    -9.2144  -9.0195  -8.7305  -7.9687  -7.5127  -7.0115  -6.1080  -5.9533
    -2.8671  -2.7231  -1.7943  -1.5633  -0.9669  -0.6710  -0.1963   0.4273
     0.8345   1.5852   1.6596   2.6437   3.0300   3.2277   3.3160   3.8619
     4.1791   4.3261   4.6935   5.0855   5.2588   5.9390   6.2085   6.7930
     7.2044   7.7206   7.8159   7.9522   8.3366   8.3896   9.1228   9.3003
     9.7190   9.8789  10.3037  10.5175  12.1263  12.4644

          k = 0.1875 0.3248 0.0000 ( 21195 PWs)   bands (ev):

   -53.1819 -52.9364 -52.8737 -52.8528 -27.9028 -27.7483 -27.7127 -27.7080
   -27.6628 -27.6186 -27.5751 -27.4730 -27.4338 -27.4107 -27.3547 -27.1973
   -10.5570 -10.1734  -9.6055  -7.7575  -7.2422  -6.4916  -5.7077  -5.1649
    -2.6150  -1.7923  -1.3816  -0.9902  -0.8480  -0.5398  -0.1454   0.5771
     0.7815   1.4468   1.8386   2.3635   2.6968   2.8704   3.2714   3.3477
     3.4198   4.3610   4.5781   4.8603   5.0737   5.5611   5.7011   6.3254
     6.9683   8.1356   8.3782   8.6641   9.1336   9.5159   9.9339  10.1201
    10.2558  10.4437  10.8102  10.9064  11.1516  11.7229

          k = 0.1875 0.3969 0.0000 ( 21153 PWs)   bands (ev):

   -53.1732 -52.9272 -52.8648 -52.8436 -27.9702 -27.8221 -27.7770 -27.7477
   -27.6812 -27.6630 -27.5529 -27.4819 -27.4566 -27.4533 -27.4022 -27.1775
   -10.0343  -9.7090  -9.2275  -7.7089  -7.2086  -6.5424  -5.8808  -5.6141
    -2.7053  -2.0885  -1.6145  -1.3424  -1.0460  -0.7582  -0.3496   0.5059
     0.7582   1.3035   1.7300   2.4732   2.8547   3.0537   3.4025   3.4545
     3.7276   4.5681   4.8345   5.0626   5.1370   5.6417   5.8273   6.0905
     6.8958   7.9908   8.2387   8.5824   8.7496   9.3147   9.5258   9.6377
    10.1455  10.3956  10.7807  11.0943  11.5552  11.9599

          k = 0.1875 0.4691 0.0000 ( 21101 PWs)   bands (ev):

   -53.1666 -52.9201 -52.8580 -52.8366 -28.0196 -27.8762 -27.8278 -27.7991
   -27.6988 -27.6683 -27.5357 -27.5199 -27.4926 -27.4406 -27.4386 -27.1623
    -9.5123  -9.2442  -8.8416  -7.8044  -7.3320  -6.7476  -6.0016  -5.8876
    -2.7592  -2.3696  -1.8355  -1.5841  -1.2037  -0.7900  -0.5152   0.4918
     0.7459   1.2752   1.6446   2.5783   3.0670   3.1759   3.3974   3.7456
     4.0369   4.5025   4.8884   5.1418   5.3384   5.7597   6.0185   6.3533
     6.9429   7.5736   7.7645   7.9268   8.4210   8.8940   9.3458   9.5968
    10.2237  10.4903  10.8352  11.0940  12.0528  12.2635

          k = 0.1875 0.5413 0.0000 ( 21112 PWs)   bands (ev):

   -53.1630 -52.9163 -52.8543 -52.8327 -28.0456 -27.9047 -27.8546 -27.8270
   -27.7186 -27.6605 -27.5411 -27.5272 -27.5118 -27.4610 -27.4312 -27.1540
    -9.1029  -8.8965  -8.5729  -7.9534  -7.5096  -7.0456  -6.0466  -5.9603
    -2.7409  -2.5869  -1.9632  -1.7027  -1.2684  -0.8120  -0.5851   0.4913
     0.7148   1.3741   1.5784   2.7530   2.9818   3.1487   3.5218   4.0268
     4.3178   4.5525   4.7859   5.1075   5.4780   5.8301   6.2850   6.5858
     6.8877   7.2054   7.3890   7.4929   7.9532   8.7353   9.4080   9.6186
    10.4050  10.5429  10.8496  11.0108  12.3559  12.6073

          k = 0.2500 0.4330 0.0000 ( 21125 PWs)   bands (ev):

   -53.1666 -52.9201 -52.8580 -52.8366 -28.0004 -27.8559 -27.8083 -27.7795
   -27.7190 -27.6679 -27.5414 -27.5359 -27.5132 -27.4615 -27.4390 -27.1623
    -9.5308  -9.2549  -8.8391  -7.7698  -7.3008  -6.7123  -5.9735  -5.8710
    -2.7101  -2.2668  -1.8464  -1.6017  -1.3633  -0.9481  -0.5073   0.4479
     0.7819   1.1350   1.6269   2.5532   3.1251   3.1619   3.3923   3.6285
     3.9761   4.6524   5.1032   5.3822   5.4177   5.6176   5.9984   6.0485
     6.8372   7.5640   7.6417   7.8901   8.3834   9.1750   9.3861   9.6310
    10.5084  10.6025  11.0489  11.1446  11.8756  12.2949

          k = 0.2500 0.5052 0.0000 ( 21117 PWs)   bands (ev):

   -53.1622 -52.9154 -52.8534 -52.8318 -28.0144 -27.8722 -27.8230 -27.7953
   -27.7625 -27.6581 -27.5871 -27.5589 -27.5252 -27.5053 -27.4293 -27.1521
    -9.0601  -8.8323  -8.4661  -7.9349  -7.5021  -7.0458  -6.0000  -5.9621
    -2.6704  -2.4347  -2.0820  -1.8013  -1.5530  -0.9840  -0.5551   0.4426
     0.6578   1.2657   1.5138   2.6708   3.0183   3.3381   3.4496   3.9818
     4.2216   4.6856   5.1238   5.3104   5.6031   5.6999   6.2701   6.3432
     6.8702   6.9021   7.0516   7.2116   7.7335   9.1247   9.4946   9.8248
    10.9018  10.9975  11.2192  11.3437  12.3186  12.5996

          k = 0.2500 0.5774 0.0000 ( 21116 PWs)   bands (ev):

   -53.1606 -52.9138 -52.8518 -52.8302 -28.0178 -27.8765 -27.8266 -27.7993
   -27.7793 -27.6547 -27.6048 -27.5759 -27.5301 -27.5140 -27.4258 -27.1485
    -8.8014  -8.6307  -8.3063  -8.0400  -7.6127  -7.2777  -6.0002  -5.9777
    -2.5979  -2.5394  -2.2070  -1.8683  -1.5985  -0.9964  -0.5557   0.4664
     0.5685   1.4052   1.4447   2.6671   3.1013   3.2288   3.4715   4.2477
     4.4008   4.8094   5.0357   5.0950   5.7769   5.7921   6.3362   6.4362
     6.6137   6.7216   6.7708   7.1484   7.4289   9.1207   9.6563   9.7187
    11.1077  11.2221  11.3554  11.4465  12.5509  12.6994

          k = 0.3125 0.5413 0.0000 ( 21100 PWs)   bands (ev):

   -53.1598 -52.9129 -52.8509 -52.8293 -28.0000 -27.8588 -27.8090 -27.8088
   -27.7822 -27.6523 -27.6347 -27.6056 -27.5576 -27.5149 -27.4239 -27.1466
    -8.6688  -8.5138  -8.1969  -8.0689  -7.6618  -7.4076  -5.9820  -5.9786
    -2.5644  -2.5059  -2.2115  -1.9484  -1.8338  -1.0075  -0.5132   0.3996
     0.5492   1.3389   1.5068   2.5637   3.1320   3.3150   3.6228   3.9497
     4.5163   4.8697   5.2770   5.3869   5.7608   5.7716   6.0618   6.3110
     6.4218   6.5815   6.6783   7.1311   7.2347   9.3888   9.5731   9.7780
    11.3997  11.5585  11.6457  11.6793  12.4726  12.9057

     the Fermi energy is     8.5498 ev

!    total energy              =   -1975.95330241 Ry
     total all-electron energy =    -38769.274147 Ry
     estimated scf accuracy    <          4.1E-09 Ry
     smearing contrib. (-TS)   =      -0.00064285 Ry
     internal energy E=F+TS    =   -1975.95265956 Ry

     The total energy is F=E-TS. E is the sum of the following terms:
     one-electron contribution =  -11535.22435994 Ry
     hartree contribution      =    5808.91351688 Ry
     xc contribution           =    -124.39532435 Ry
     ewald contribution        =    5144.99155177 Ry
     one-center paw contrib.   =   -1270.23804392 Ry

     convergence has been achieved in  22 iterations

     negative rho (up, down):  9.863E-05 0.000E+00

     Forces acting on atoms (cartesian axes, Ry/au):

     atom    1 type  2   force =     0.00000000   -0.00000000   -0.37615580
     atom    2 type  1   force =     0.00000000    0.00000000   -0.04551883
     atom    3 type  2   force =     0.00000000    0.00000000    0.14622547
     atom    4 type  2   force =     0.00000000    0.00000000   -0.10773506
     atom    5 type  1   force =     0.00000000    0.00000000   -0.06154948
     atom    6 type  2   force =     0.00000000    0.00000000    0.18103006
     atom    7 type  2   force =     0.00000000    0.00000000   -0.12839080
     atom    8 type  1   force =     0.00000000   -0.00000000   -0.06654353
     atom    9 type  2   force =     0.00000000    0.00000000    0.16514606
     atom   10 type  2   force =     0.00000000   -0.00000000   -0.14145709
     atom   11 type  1   force =     0.00000000    0.00000000    0.04370211
     atom   12 type  2   force =     0.00000000    0.00000000    0.39124689

     Total force =     0.660525     Total SCF correction =     0.000107
     Energy error            =      1.2E+00 Ry
     Gradient error          =      3.9E-01 Ry/Bohr

     number of scf cycles    =   2
     number of bfgs steps    =   1

     energy             old  =   -1974.7057299175 Ry
     energy             new  =   -1975.9533024108 Ry

     CASE: energy            _new < energy            _old

     new trust radius        =       0.4981988068 bohr
     new conv_thr            =       0.0000000100 Ry


ATOMIC_POSITIONS (crystal)
S                0.3333330000        0.6666670000        0.0333204200
Mo               0.0000000000        0.0000000000        0.0796210559
S                0.3333330000        0.6666670000        0.1206538222
S                0.6666670000        0.3333330000        0.1612734914
Mo               0.3333330000        0.6666670000        0.1979599916
S                0.6666670000        0.3333330000        0.2409410034
S               -0.0000000000       -0.0000000000        0.2798670244
Mo               0.6666670000        0.3333330000        0.3172802678
S                0.0000000000        0.0000000000        0.3596413305
S                0.3333330000        0.6666670000        0.3984265007
Mo               0.0000000000        0.0000000000        0.4392409237
S                0.3333330000        0.6666670000        0.4867741687



     Writing config-only to output data dir ./tmp/relax/mos2_slab.save/ :
     XML data file
     NEW-OLD atomic charge density approx. for the potential

     negative rho (up, down):  8.953E-05 0.000E+00

     total cpu time spent up to now is     6409.5 secs

     Self-consistent Calculation

     iteration #  1     ecut=    80.00 Ry     beta= 0.30
     Davidson diagonalization with overlap
     c_bands:  1 eigenvalues not converged
     c_bands:  1 eigenvalues not converged
     c_bands:  1 eigenvalues not converged
     c_bands:  1 eigenvalues not converged
     c_bands:  1 eigenvalues not converged
     c_bands:  1 eigenvalues not converged
     c_bands:  1 eigenvalues not converged
     c_bands:  1 eigenvalues not converged
     c_bands:  1 eigenvalues not converged
     c_bands:  1 eigenvalues not converged
     c_bands:  2 eigenvalues not converged
     c_bands:  1 eigenvalues not converged
     c_bands:  1 eigenvalues not converged
     c_bands:  1 eigenvalues not converged
     c_bands:  1 eigenvalues not converged
     c_bands:  2 eigenvalues not converged
     c_bands:  2 eigenvalues not converged
     c_bands:  2 eigenvalues not converged
     c_bands:  2 eigenvalues not converged
     c_bands:  1 eigenvalues not converged
     ethr =  1.00E-06,  avg # of iterations = 18.8

     negative rho (up, down):  1.497E-04 0.000E+00

     total cpu time spent up to now is     6958.0 secs

     total energy              =   -1976.30751932 Ry
     estimated scf accuracy    <       0.19423895 Ry

     iteration #  2     ecut=    80.00 Ry     beta= 0.30
     Davidson diagonalization with overlap
     ethr =  1.87E-04,  avg # of iterations =  1.0

     negative rho (up, down):  3.094E-04 0.000E+00

     total cpu time spent up to now is     7062.1 secs

     total energy              =   -1976.29960067 Ry
     estimated scf accuracy    <       0.06318086 Ry

     iteration #  3     ecut=    80.00 Ry     beta= 0.30
     Davidson diagonalization with overlap
     ethr =  6.08E-05,  avg # of iterations =  2.0

     negative rho (up, down):  3.905E-04 0.000E+00

     total cpu time spent up to now is     7179.0 secs

     total energy              =   -1976.30370784 Ry
     estimated scf accuracy    <       0.00572588 Ry

     iteration #  4     ecut=    80.00 Ry     beta= 0.30
     Davidson diagonalization with overlap
     ethr =  5.51E-06,  avg # of iterations =  3.0

     negative rho (up, down):  4.893E-04 0.000E+00

     total cpu time spent up to now is     7299.3 secs

     total energy              =   -1976.30390365 Ry
     estimated scf accuracy    <       0.00511877 Ry

     iteration #  5     ecut=    80.00 Ry     beta= 0.30
     Davidson diagonalization with overlap
     ethr =  4.92E-06,  avg # of iterations =  1.1

     negative rho (up, down):  5.625E-04 0.000E+00

     total cpu time spent up to now is     7404.1 secs

     total energy              =   -1976.30387653 Ry
     estimated scf accuracy    <       0.00173888 Ry

     iteration #  6     ecut=    80.00 Ry     beta= 0.30
     Davidson diagonalization with overlap
     ethr =  1.67E-06,  avg # of iterations =  6.9

     negative rho (up, down):  5.783E-04 0.000E+00

     total cpu time spent up to now is     7526.1 secs

     total energy              =   -1976.30397986 Ry
     estimated scf accuracy    <       0.00020947 Ry

     iteration #  7     ecut=    80.00 Ry     beta= 0.30
     Davidson diagonalization with overlap
     ethr =  2.01E-07,  avg # of iterations =  2.9

     negative rho (up, down):  5.659E-04 0.000E+00

     total cpu time spent up to now is     7649.6 secs

     total energy              =   -1976.30400255 Ry
     estimated scf accuracy    <       0.00008161 Ry

     iteration #  8     ecut=    80.00 Ry     beta= 0.30
     Davidson diagonalization with overlap
     ethr =  7.85E-08,  avg # of iterations =  2.2

     negative rho (up, down):  5.150E-04 0.000E+00

     total cpu time spent up to now is     7763.7 secs

     total energy              =   -1976.30399565 Ry
     estimated scf accuracy    <       0.00004912 Ry

     iteration #  9     ecut=    80.00 Ry     beta= 0.30
     Davidson diagonalization with overlap
     ethr =  4.72E-08,  avg # of iterations =  2.1

     negative rho (up, down):  4.555E-04 0.000E+00

     total cpu time spent up to now is     7880.4 secs

     total energy              =   -1976.30399995 Ry
     estimated scf accuracy    <       0.00000616 Ry

     iteration # 10     ecut=    80.00 Ry     beta= 0.30
     Davidson diagonalization with overlap
     ethr =  5.92E-09,  avg # of iterations =  5.1

     negative rho (up, down):  4.152E-04 0.000E+00

     total cpu time spent up to now is     8013.9 secs

     total energy              =   -1976.30400093 Ry
     estimated scf accuracy    <       0.00000183 Ry

     iteration # 11     ecut=    80.00 Ry     beta= 0.30
     Davidson diagonalization with overlap
     ethr =  1.76E-09,  avg # of iterations =  2.1

     negative rho (up, down):  2.858E-04 0.000E+00

     total cpu time spent up to now is     8126.7 secs

     total energy              =   -1976.30400226 Ry
     estimated scf accuracy    <       0.00000143 Ry

     iteration # 12     ecut=    80.00 Ry     beta= 0.30
     Davidson diagonalization with overlap
     ethr =  1.38E-09,  avg # of iterations =  2.2

     negative rho (up, down):  2.359E-04 0.000E+00

     total cpu time spent up to now is     8254.7 secs

     total energy              =   -1976.30400330 Ry
     estimated scf accuracy    <       0.00000059 Ry

     iteration # 13     ecut=    80.00 Ry     beta= 0.30
     Davidson diagonalization with overlap
     ethr =  5.70E-10,  avg # of iterations =  2.0

     negative rho (up, down):  1.788E-04 0.000E+00

     total cpu time spent up to now is     8369.7 secs

     total energy              =   -1976.30400473 Ry
     estimated scf accuracy    <       0.00000027 Ry

     iteration # 14     ecut=    80.00 Ry     beta= 0.30
     Davidson diagonalization with overlap
     ethr =  2.60E-10,  avg # of iterations =  2.2

     negative rho (up, down):  1.604E-04 0.000E+00

     total cpu time spent up to now is     8499.9 secs

     total energy              =   -1976.30400528 Ry
     estimated scf accuracy    <       0.00000022 Ry

     iteration # 15     ecut=    80.00 Ry     beta= 0.30
     Davidson diagonalization with overlap
     ethr =  2.10E-10,  avg # of iterations =  1.0

     negative rho (up, down):  1.336E-04 0.000E+00

     total cpu time spent up to now is     8601.8 secs

     total energy              =   -1976.30400614 Ry
     estimated scf accuracy    <       0.00000013 Ry

     iteration # 16     ecut=    80.00 Ry     beta= 0.30
     Davidson diagonalization with overlap
     ethr =  1.25E-10,  avg # of iterations =  2.0

     negative rho (up, down):  1.164E-04 0.000E+00

     total cpu time spent up to now is     8722.9 secs

     total energy              =   -1976.30400686 Ry
     estimated scf accuracy    <       0.00000006 Ry

     iteration # 17     ecut=    80.00 Ry     beta= 0.30
     Davidson diagonalization with overlap
     ethr =  6.19E-11,  avg # of iterations =  2.0

     negative rho (up, down):  1.007E-04 0.000E+00

     total cpu time spent up to now is     8847.4 secs

     total energy              =   -1976.30400753 Ry
     estimated scf accuracy    <       0.00000004 Ry

     iteration # 18     ecut=    80.00 Ry     beta= 0.30
     Davidson diagonalization with overlap
     ethr =  4.12E-11,  avg # of iterations =  2.1

     negative rho (up, down):  1.036E-04 0.000E+00

     total cpu time spent up to now is     8962.7 secs

     End of self-consistent calculation

          k = 0.0000 0.0000 0.0000 ( 21311 PWs)   bands (ev):

   -53.2336 -53.1451 -52.8943 -52.8029 -27.8119 -27.7166 -27.5871 -27.4741
   -27.3089 -27.3089 -27.3040 -27.3040 -27.0905 -27.0905 -27.0039 -27.0039
   -12.6210 -11.9903 -11.2749  -7.5851  -7.0362  -6.2529  -5.0601  -3.1541
    -1.7264   0.3552   0.3553   0.5115   0.7728   0.7729   1.1767   1.1767
     2.2537   2.2537   2.3541   2.7964   2.7964   3.5865   3.5866   3.9781
     4.3430   4.3430   4.6988   4.6988   5.2100   6.4395   6.6969   6.8529
     7.3016   7.4313   7.4314   7.4899   7.4899   8.2382   8.2382   8.8837
     9.4126   9.4126   9.9726   9.9726  10.0659  11.0451

          k = 0.0000 0.0722 0.0000 ( 21283 PWs)   bands (ev):

   -53.2317 -53.1432 -52.8921 -52.8008 -27.8074 -27.7108 -27.5825 -27.4701
   -27.3297 -27.3244 -27.3134 -27.3084 -27.1155 -27.0956 -27.0290 -27.0091
   -12.5476 -11.9271 -11.2277  -7.5254  -6.9860  -6.2245  -5.0589  -3.2362
    -1.7137   0.1174   0.2108   0.3543   0.6446   0.7326   1.0597   1.1997
     2.0922   2.3230   2.3977   2.8056   2.8729   3.5736   3.6104   3.8240
     4.2933   4.3164   4.5510   4.6699   5.4547   6.1924   6.4263   6.8054
     7.0617   7.4360   7.6114   7.7616   8.0874   8.3782   8.4606   9.0165
     9.4025   9.4926   9.8748   9.9700  10.0937  10.8671

          k = 0.0000 0.1443 0.0000 ( 21263 PWs)   bands (ev):

   -53.2264 -53.1377 -52.8860 -52.7946 -27.7946 -27.6943 -27.5697 -27.4590
   -27.3881 -27.3820 -27.3261 -27.3209 -27.1860 -27.1102 -27.0996 -27.0237
   -12.3316 -11.7410 -11.0878  -7.3610  -6.8438  -6.1482  -5.0733  -3.5042
    -1.7053  -0.4539  -0.2715   0.1790   0.3304   0.5920   0.7893   1.1323
     1.8760   2.2954   2.5546   2.7924   3.0880   3.3504   3.6939   3.7003
     3.9528   4.2448   4.5467   4.5771   5.6373   5.8563   6.2082   6.6927
     6.9913   7.4580   7.9414   8.0098   8.6894   8.6928   8.8331   9.2848
     9.6787   9.7282  10.0257  10.1278  10.1408  10.6484

          k = 0.0000 0.2165 0.0000 ( 21233 PWs)   bands (ev):

   -53.2184 -53.1295 -52.8767 -52.7854 -27.7756 -27.6698 -27.5510 -27.4779
   -27.4669 -27.4384 -27.3451 -27.3395 -27.2894 -27.2035 -27.1320 -27.0454
   -11.9848 -11.4419 -10.8604  -7.1387  -6.6378  -6.0491  -5.1507  -3.9830
    -1.7911  -1.1397  -0.7057  -0.3306   0.1683   0.3711   0.5583   0.9354
     1.6498   2.1585   2.7072   2.9528   3.0503   3.3741   3.4084   3.8132
     3.8665   4.1609   4.4291   4.4417   5.4606   5.8481   6.1880   6.6629
     6.7765   7.5048   7.9243   8.3074   8.6238   9.0198   9.4782   9.4955
    10.0538  10.0545  10.1642  10.4412  10.6161  11.0265

          k = 0.0000 0.2887 0.0000 ( 21197 PWs)   bands (ev):

   -53.2089 -53.1198 -52.8658 -52.7745 -27.7535 -27.6435 -27.5754 -27.5664
   -27.5277 -27.4229 -27.4040 -27.3674 -27.3613 -27.3233 -27.1576 -27.0709
   -11.5256 -11.0448 -10.5537  -6.9474  -6.4316  -5.9527  -5.3325  -4.6319
    -2.0394  -1.7954  -1.0257  -0.6880  -0.1710   0.1613   0.4249   0.7165
     1.4121   2.2071   2.4570   2.8943   3.0580   3.4604   3.6712   3.7270
     4.0276   4.1986   4.2700   4.4137   5.1781   5.9217   6.1960   6.4613
     6.7893   7.6141   7.6703   8.4958   8.6103   9.3221   9.3808   9.9126
    10.1115  10.4661  10.4775  10.7482  11.2693  11.4475

          k = 0.0000 0.3608 0.0000 ( 21187 PWs)   bands (ev):

   -53.1994 -53.1101 -52.8549 -52.7636 -27.7328 -27.6846 -27.6618 -27.6034
   -27.5407 -27.4913 -27.4397 -27.3977 -27.3895 -27.3830 -27.1830 -27.0962
   -10.9789 -10.5711 -10.1813  -6.9231  -6.3863  -5.8955  -5.5333  -5.3099
    -2.3549  -2.2999  -1.2952  -0.8659  -0.4962  -0.0630   0.3273   0.5348
     1.2259   2.1614   2.4676   2.6358   3.0013   3.5009   3.6428   4.0039
     4.1412   4.1901   4.5347   4.7374   4.9570   5.7311   6.1641   6.5498
     6.9360   7.4666   7.8392   8.5648   8.5813   9.3175   9.4525  10.0428
    10.1442  10.6277  10.6820  11.0655  11.3071  11.8437

          k = 0.0000 0.4330 0.0000 ( 21140 PWs)   bands (ev):

   -53.1913 -53.1018 -52.8456 -52.7543 -27.7651 -27.7501 -27.7072 -27.6313
   -27.5810 -27.5363 -27.4782 -27.4082 -27.4014 -27.3803 -27.2045 -27.1176
   -10.3836 -10.0557  -9.7729  -7.1398  -6.6968  -6.2935  -5.5534  -5.4884
    -2.6541  -2.5715  -1.5112  -0.9539  -0.7466  -0.2511   0.2412   0.4026
     1.1326   2.0284   2.2773   2.7715   2.9927   3.3848   3.5267   3.9775
     4.1225   4.5661   4.9201   5.0227   5.2397   5.6358   6.1707   6.6194
     7.0888   7.5807   8.1659   8.5178   8.6915   9.3308   9.4182   9.8497
    10.1677  10.4239  10.5461  10.6971  11.2927  11.9257

          k = 0.0000 0.5052 0.0000 ( 21078 PWs)   bands (ev):

   -53.1860 -53.0962 -52.8394 -52.7481 -27.8196 -27.8010 -27.6986 -27.6944
   -27.6044 -27.5587 -27.4665 -27.4207 -27.4136 -27.3685 -27.2187 -27.1318
    -9.8182  -9.5783  -9.4147  -7.4637  -7.1551  -6.9070  -5.4842  -5.3702
    -2.8161  -2.7238  -1.6476  -0.9990  -0.9024  -0.3733   0.1800   0.3226
     1.1052   1.9881   2.0854   2.6967   3.1192   3.3810   3.4272   3.9501
     4.0355   4.7938   5.0035   5.4553   5.6706   5.7325   6.2398   6.6891
     7.1663   8.0020   8.4812   8.6627   8.8246   9.3154   9.3441   9.6649
     9.8935   9.9382  10.0469  10.1734  11.4266  11.7464

          k = 0.0000-0.5774 0.0000 ( 21006 PWs)   bands (ev):

   -53.1841 -53.0943 -52.8372 -52.7459 -27.8387 -27.8194 -27.7167 -27.6955
   -27.6246 -27.5537 -27.4621 -27.4250 -27.4179 -27.3643 -27.2237 -27.1368
    -9.5164  -9.3405  -9.2975  -7.6149  -7.3915  -7.2083  -5.4474  -5.3194
    -2.8629  -2.7758  -1.6939  -1.0131  -0.9551  -0.4154   0.1578   0.2961
     1.1018   1.9729   2.0322   2.6264   3.1677   3.3911   3.4077   3.9395
     3.9952   4.8648   5.0534   5.6192   5.6858   5.9582   6.3053   6.7268
     7.1906   8.3956   8.6154   8.8891   8.9652   9.2100   9.2381   9.3107
     9.6817   9.7787   9.8554   9.8778  11.4662  11.6668

          k = 0.0625 0.1083 0.0000 ( 21269 PWs)   bands (ev):

   -53.2281 -53.1395 -52.8880 -52.7966 -27.7988 -27.6996 -27.5739 -27.4625
   -27.3687 -27.3628 -27.3226 -27.3174 -27.1625 -27.1062 -27.0761 -27.0196
   -12.4029 -11.8025 -11.1341  -7.4132  -6.8897  -6.1721  -5.0654  -3.4112
    -1.7023  -0.2651  -0.1366   0.3152   0.3617   0.6059   0.7831   1.2312
     1.9947   2.3423   2.3746   2.8817   2.9733   3.4619   3.6636   3.7353
     4.0098   4.2882   4.4620   4.6966   5.6601   5.9001   6.2544   6.6252
     7.0159   7.5400   7.8668   8.0008   8.4358   8.6799   8.7499   9.1550
     9.5630   9.6753   9.9686  10.0258  10.1339  10.5609

          k = 0.0625 0.1804 0.0000 ( 21194 PWs)   bands (ev):

   -53.2214 -53.1327 -52.8803 -52.7889 -27.7829 -27.6791 -27.5580 -27.4535
   -27.4345 -27.4325 -27.3400 -27.3345 -27.2476 -27.1616 -27.1262 -27.0396
   -12.1215 -11.5598 -10.9504  -7.2187  -6.7146  -6.0843  -5.1113  -3.7842
    -1.7356  -0.8532  -0.5541  -0.0941   0.1864   0.3450   0.4613   1.1187
     1.8194   2.2566   2.5433   2.9209   3.0915   3.3258   3.5596   3.7703
     3.8769   4.0708   4.4532   4.6736   5.6221   5.7754   6.1416   6.5497
     6.8698   7.5750   8.0633   8.3213   8.6335   8.9152   9.2082   9.2674
     9.8238  10.0613  10.1814  10.3104  10.4000  10.6365

          k = 0.0625 0.2526 0.0000 ( 21202 PWs)   bands (ev):

   -53.2127 -53.1237 -52.8702 -52.7789 -27.7623 -27.6530 -27.5419 -27.5297
   -27.5206 -27.4278 -27.3631 -27.3568 -27.3555 -27.2709 -27.1523 -27.0657
   -11.7180 -11.2113 -10.6828  -7.0075  -6.5037  -5.9873  -5.2445  -4.3469
    -1.9022  -1.4922  -0.9069  -0.5307  -0.1449   0.1286   0.2565   0.9002
     1.5861   2.2349   2.6070   2.8453   3.1186   3.2898   3.5625   3.7460
     4.0444   4.1318   4.3262   4.5527   5.4168   5.8360   6.1430   6.5051
     6.6278   7.6820   7.9005   8.5518   8.6458   9.1982   9.4626   9.7456
     9.8495  10.1673  10.5122  10.7385  10.8962  11.0417

          k = 0.0625 0.3248 0.0000 ( 21194 PWs)   bands (ev):

   -53.2032 -53.1140 -52.8593 -52.7680 -27.7406 -27.6470 -27.6181 -27.6068
   -27.5205 -27.4667 -27.4057 -27.3873 -27.3865 -27.3807 -27.1805 -27.0938
   -11.2138 -10.7744 -10.3412  -6.8944  -6.3603  -5.8988  -5.4569  -5.0201
    -2.1883  -2.0539  -1.1919  -0.8376  -0.4673  -0.0990   0.1305   0.6844
     1.3628   2.2857   2.4443   2.7136   3.0122   3.5236   3.5640   3.9876
     4.0465   4.2939   4.4494   4.5697   5.1672   5.8452   6.1043   6.4106
     6.7348   7.5967   7.9033   8.5714   8.7001   9.3487   9.5197   9.9653
    10.0436  10.5073  10.6769  11.0165  11.3122  11.4614

          k = 0.0625 0.3969 0.0000 ( 21151 PWs)   bands (ev):

   -53.1944 -53.1050 -52.8492 -52.7579 -27.7270 -27.7258 -27.6982 -27.5930
   -27.5821 -27.4949 -27.4809 -27.4099 -27.4029 -27.3870 -27.2064 -27.1196
   -10.6387 -10.2749  -9.9444  -7.0038  -6.5049  -6.0229  -5.5546  -5.4946
    -2.4935  -2.4319  -1.4416  -1.0210  -0.7063  -0.3095   0.0340   0.5206
     1.2035   2.1128   2.3745   2.7341   3.0287   3.4907   3.5853   3.9255
     4.2736   4.4777   4.7023   4.9014   5.1137   5.7202   6.1307   6.5293
     6.9573   7.4825   8.1393   8.5186   8.7612   9.3642   9.5485   9.9255
    10.1733  10.4790  10.6437  10.8919  11.4027  11.8004

          k = 0.0625 0.4691 0.0000 ( 21105 PWs)   bands (ev):

   -53.1877 -53.0980 -52.8414 -52.7501 -27.7922 -27.7747 -27.7012 -27.6629
   -27.5797 -27.5581 -27.4703 -27.4270 -27.4198 -27.3723 -27.2261 -27.1392
   -10.0450  -9.7629  -9.5405  -7.3083  -6.9385  -6.6301  -5.5137  -5.4067
    -2.7247  -2.6368  -1.6165  -1.1584  -0.8353  -0.4727  -0.0422   0.4176
     1.1231   2.0194   2.1546   2.8133   3.1205   3.4849   3.5344   3.8583
     4.2383   4.6168   5.0082   5.1727   5.5055   5.7889   6.2105   6.6419
     7.1109   7.7111   8.3679   8.5364   8.8755   9.3263   9.4844   9.7710
     9.9016  10.1433  10.3385  10.5437  11.4682  11.9089

          k = 0.0625 0.5413 0.0000 ( 21084 PWs)   bands (ev):

   -53.1841 -53.0943 -52.8372 -52.7459 -27.8282 -27.8092 -27.7048 -27.6948
   -27.6135 -27.5535 -27.4621 -27.4363 -27.4289 -27.3643 -27.2367 -27.1498
    -9.5616  -9.3675  -9.2748  -7.5837  -7.3345  -7.1396  -5.4473  -5.3132
    -2.8294  -2.7380  -1.7023  -1.2430  -0.8793  -0.5660  -0.0859   0.3688
     1.0971   1.9605   2.0703   2.7476   3.2012   3.4878   3.5523   3.8054
     4.1719   4.6746   5.1329   5.4448   5.8549   5.8980   6.3177   6.7228
     7.1608   8.1658   8.4876   8.6753   8.9808   9.1671   9.3045   9.4351
     9.7337   9.8441  10.0778  10.2474  11.4888  11.8252

          k = 0.1250 0.2165 0.0000 ( 21179 PWs)   bands (ev):

   -53.2140 -53.1251 -52.8717 -52.7804 -27.7654 -27.6568 -27.5419 -27.5138
   -27.5037 -27.4303 -27.3642 -27.3580 -27.3344 -27.2492 -27.1537 -27.0671
   -11.7831 -11.2675 -10.7260  -7.0320  -6.5316  -5.9990  -5.2143  -4.2398
    -1.8440  -1.3316  -0.8617  -0.3545  -0.2358   0.0157   0.0734   1.0139
     1.6876   2.3233   2.6529   2.7625   3.0379   3.3472   3.4793   3.7710
     4.0107   4.1584   4.3458   4.7642   5.5506   5.7338   6.0222   6.4942
     6.6143   7.6923   8.1845   8.5730   8.8145   9.0742   9.3330   9.5489
     9.8094  10.0271  10.5022  10.6148  10.8478  10.9623

          k = 0.1250 0.2887 0.0000 ( 21199 PWs)   bands (ev):

   -53.2053 -53.1161 -52.8617 -52.7703 -27.7451 -27.6366 -27.5918 -27.5866
   -27.5209 -27.4348 -27.4088 -27.3934 -27.3871 -27.3489 -27.1878 -27.1012
   -11.3335 -10.8777 -10.4217  -6.8895  -6.3658  -5.9089  -5.3964  -4.8264
    -2.0558  -1.8075  -1.1617  -0.7509  -0.5843  -0.3354  -0.1087   0.8232
     1.4771   2.4030   2.4693   2.7814   2.9687   3.3729   3.4452   4.0293
     4.1316   4.2275   4.5572   4.8027   5.4033   5.7803   5.9809   6.2780
     6.5311   7.8620   8.1475   8.7194   8.7735   9.3488   9.5271   9.6723
    10.1283  10.2632  10.6112  10.8721  11.0165  11.3420

          k = 0.1250 0.3608 0.0000 ( 21195 PWs)   bands (ev):

   -53.1965 -53.1071 -52.8516 -52.7602 -27.7263 -27.6880 -27.6654 -27.5949
   -27.5441 -27.4867 -27.4455 -27.4237 -27.4164 -27.3915 -27.2223 -27.1357
   -10.7966 -10.4102 -10.0491  -6.9151  -6.3903  -5.8942  -5.5370  -5.3923
    -2.3220  -2.2063  -1.4628  -1.0936  -0.8355  -0.5544  -0.2349   0.6430
     1.2768   2.1482   2.4561   2.7444   3.0825   3.5181   3.5805   3.8808
     4.3134   4.4368   4.8281   4.9506   5.2789   5.8087   5.9631   6.2877
     6.6468   7.7698   8.3073   8.6720   8.8707   9.4502   9.6684   9.7963
    10.1383  10.4323  10.7205  10.9187  11.3105  11.6520

          k = 0.1250 0.4330 0.0000 ( 21113 PWs)   bands (ev):

   -53.1890 -53.0994 -52.8430 -52.7517 -27.7548 -27.7402 -27.7016 -27.6206
   -27.5734 -27.5261 -27.4728 -27.4493 -27.4415 -27.3753 -27.2517 -27.1650
   -10.2092  -9.8972  -9.6345  -7.1589  -6.7403  -6.3720  -5.5330  -5.4169
    -2.5693  -2.4806  -1.7155  -1.3231  -0.9889  -0.6628  -0.3683   0.5235
     1.1286   1.9706   2.2459   2.9429   3.2141   3.5711   3.6799   3.8342
     4.4426   4.5160   4.9015   5.0835   5.4732   5.8504   6.1491   6.5153
     6.8828   7.6935   8.3592   8.6016   8.9519   9.4976   9.6141   9.8109
     9.9070  10.2142  10.5368  10.8541  11.7800  11.8647

          k = 0.1250 0.5052 0.0000 ( 21081 PWs)   bands (ev):

   -53.1841 -53.0943 -52.8372 -52.7459 -27.7999 -27.7817 -27.6936 -27.6730
   -27.5841 -27.5523 -27.4666 -27.4630 -27.4570 -27.3644 -27.2712 -27.1845
    -9.6465  -9.4141  -9.2581  -7.4965  -7.2002  -6.9762  -5.4486  -5.2965
    -2.7344  -2.6377  -1.8622  -1.4798  -1.0461  -0.7087  -0.4870   0.4668
     1.0362   1.8858   2.1270   2.9855   3.3709   3.5549   3.6654   3.9158
     4.3820   4.5189   5.0282   5.3200   5.7340   6.0462   6.3450   6.7166
     7.0499   7.8208   8.2114   8.5296   8.9459   9.1862   9.4195   9.5639
     9.9923  10.1879  10.3937  10.6971  11.7727  12.0135

          k = 0.1250 0.5774 0.0000 ( 21108 PWs)   bands (ev):

   -53.1823 -53.0925 -52.8352 -52.7439 -27.8157 -27.7969 -27.6914 -27.6904
   -27.6005 -27.5483 -27.4724 -27.4653 -27.4568 -27.3606 -27.2781 -27.1914
    -9.3414  -9.1702  -9.1214  -7.6569  -7.4380  -7.2826  -5.4095  -5.2478
    -2.7906  -2.6897  -1.9074  -1.5376  -1.0573  -0.7200  -0.5371   0.4524
     1.0025   1.8690   2.0848   3.0025   3.4172   3.5417   3.6159   3.9811
     4.3543   4.4959   5.1344   5.4095   5.9246   6.1113   6.4325   6.8008
     7.0822   7.9361   8.1121   8.4591   8.8836   8.9177   9.4342   9.5505
    10.0082  10.0988  10.4249  10.6091  11.7408  12.0050

          k = 0.1875 0.3248 0.0000 ( 21195 PWs)   bands (ev):

   -53.1972 -53.1078 -52.8524 -52.7611 -27.7273 -27.6716 -27.6490 -27.5960
   -27.5289 -27.4836 -27.4323 -27.4270 -27.4238 -27.3930 -27.2322 -27.1457
   -10.8499 -10.4558 -10.0843  -6.8845  -6.3544  -5.8667  -5.5243  -5.3248
    -2.2466  -2.0657  -1.4746  -1.1303  -0.9242  -0.7754  -0.2628   0.6833
     1.3056   2.1294   2.4953   2.7862   3.0849   3.4830   3.5296   3.8714
     4.2272   4.5280   5.0281   5.1100   5.3475   5.7272   5.9526   6.0707
     6.5010   8.1466   8.3487   8.7793   8.8437   9.3293   9.6849   9.9139
    10.1378  10.2978  10.6859  10.9709  11.0927  11.6158

          k = 0.1875 0.3969 0.0000 ( 21153 PWs)   bands (ev):

   -53.1898 -53.1002 -52.8438 -52.7525 -27.7251 -27.7193 -27.6944 -27.5884
   -27.5734 -27.4944 -27.4737 -27.4706 -27.4625 -27.3770 -27.2768 -27.1903
   -10.2946  -9.9674  -9.6842  -7.0659  -6.6208  -6.2126  -5.5415  -5.4098
    -2.4648  -2.2891  -1.8035  -1.4468  -1.2923  -0.8689  -0.3684   0.5527
     1.1426   1.8700   2.3271   3.0130   3.2669   3.6007   3.7170   3.7937
     4.2296   4.6891   5.0540   5.3066   5.5795   5.6795   6.1249   6.2726
     6.6068   8.0686   8.3516   8.7195   8.9803   9.5218   9.7469   9.8397
     9.9248  10.1931  10.6981  11.0632  11.4756  11.8199

          k = 0.1875 0.4691 0.0000 ( 21101 PWs)   bands (ev):

   -53.1841 -53.0943 -52.8372 -52.7459 -27.7653 -27.7484 -27.6923 -27.6346
   -27.5605 -27.5381 -27.5026 -27.4946 -27.4608 -27.3649 -27.3122 -27.2261
    -9.7140  -9.4545  -9.2584  -7.3976  -7.0674  -6.8118  -5.4522  -5.2767
    -2.6464  -2.4880  -2.0969  -1.6534  -1.4142  -0.8914  -0.4725   0.4840
     0.9819   1.7671   2.1887   3.1259   3.4810   3.5801   3.7200   4.0559
     4.3108   4.6545   4.9910   5.3139   5.7289   5.9390   6.4187   6.6607
     6.8434   7.7585   8.0043   8.4440   8.8827   9.2956   9.6331   9.8084
    10.1541  10.4007  10.6938  11.1005  11.8959  12.0287

          k = 0.1875 0.5413 0.0000 ( 21112 PWs)   bands (ev):

   -53.1810 -53.0911 -52.8337 -52.7424 -27.7865 -27.7684 -27.6866 -27.6598
   -27.5706 -27.5443 -27.5193 -27.5117 -27.4540 -27.3589 -27.3313 -27.2459
    -9.2259  -9.0377  -8.9424  -7.6995  -7.4658  -7.3158  -5.3796  -5.1883
    -2.7371  -2.6201  -2.2554  -1.7571  -1.4269  -0.8949  -0.5424   0.4808
     0.8490   1.7918   2.0936   3.2650   3.3594   3.6075   3.7346   4.1933
     4.4675   4.6415   4.9916   5.4254   5.9028   6.0878   6.6713   6.8667
     7.0306   7.4141   7.6432   8.1579   8.6248   9.0453   9.6663   9.8290
    10.4052  10.6739  10.7571  11.0515  11.9665  12.2613

          k = 0.2500 0.4330 0.0000 ( 21125 PWs)   bands (ev):

   -53.1841 -53.0943 -52.8372 -52.7459 -27.7477 -27.7320 -27.6912 -27.6155
   -27.5584 -27.5231 -27.5193 -27.5123 -27.4605 -27.3656 -27.3320 -27.2467
    -9.7388  -9.4701  -9.2609  -7.3538  -7.0122  -6.7423  -5.4545  -5.2672
    -2.6388  -2.4001  -2.0972  -1.7581  -1.6865  -0.9047  -0.4283   0.4607
     0.9775   1.7115   2.2134   3.1336   3.5595   3.5813   3.8283   3.9973
     4.1577   4.7400   5.1339   5.4120   5.5901   5.9334   6.4070   6.5614
     6.7840   7.8653   7.8691   8.4213   8.8511   9.5390   9.5972   9.9018
    10.2025  10.4228  10.9718  11.1921  11.7762  12.1284

          k = 0.2500 0.5052 0.0000 ( 21117 PWs)   bands (ev):

   -53.1803 -53.0904 -52.8328 -52.7415 -27.7566 -27.7391 -27.6841 -27.6284
   -27.5632 -27.5519 -27.5456 -27.5317 -27.4519 -27.3798 -27.3533 -27.2906
    -9.1870  -8.9714  -8.8275  -7.7189  -7.4599  -7.2922  -5.3639  -5.1513
    -2.7550  -2.5624  -2.4053  -1.9017  -1.7891  -0.8745  -0.4671   0.4295
     0.7711   1.7668   2.0969   3.1721   3.3966   3.7992   3.9109   4.1224
     4.4391   4.7999   5.1170   5.3613   5.8256   6.1279   6.6813   6.7473
     6.9670   7.3316   7.4138   7.8885   8.4129   9.3874   9.6878  10.0965
    10.6612  10.8520  11.2799  11.4347  12.1340  12.2211

          k = 0.2500 0.5774 0.0000 ( 21116 PWs)   bands (ev):

   -53.1789 -53.0890 -52.8313 -52.7400 -27.7580 -27.7401 -27.6815 -27.6315
   -27.5777 -27.5669 -27.5442 -27.5331 -27.4489 -27.3958 -27.3513 -27.3076
    -8.8539  -8.6908  -8.6093  -7.9177  -7.7210  -7.6297  -5.3277  -5.1081
    -2.7612  -2.6708  -2.5308  -1.9444  -1.7910  -0.8572  -0.4815   0.4543
     0.6504   1.8448   2.0417   3.0599   3.5302   3.7333   3.8804   4.2301
     4.6046   4.9153   5.1081   5.3607   6.0227   6.2144   6.6017   6.8036
     6.8345   7.2486   7.3531   7.5991   8.1674   9.3388   9.8654   9.9732
    10.8932  11.1852  11.4318  11.5462  12.1068  12.2395

          k = 0.3125 0.5413 0.0000 ( 21100 PWs)   bands (ev):

   -53.1782 -53.0883 -52.8305 -52.7392 -27.7384 -27.7205 -27.6796 -27.6172
   -27.6023 -27.5961 -27.5369 -27.5205 -27.4467 -27.4256 -27.3502 -27.3379
    -8.6843  -8.5096  -8.3743  -8.0861  -7.8783  -7.7841  -5.3084  -5.0781
    -2.8027  -2.6861  -2.6349  -1.9726  -1.9431  -0.8077  -0.4527   0.4246
     0.5727   1.8968   2.0326   2.9186   3.5296   3.8055   4.0822   4.3603
     4.4637   4.7946   5.3522   5.6332   5.9522   6.1855   6.3679   6.5694
     6.8627   7.1921   7.3528   7.4850   7.9599   9.6172   9.7586  10.0292
    11.1218  11.4408  11.7943  11.8611  12.0627  12.3520

     the Fermi energy is     8.6092 ev

!    total energy              =   -1976.30400739 Ry
     total all-electron energy =    -38769.624852 Ry
     estimated scf accuracy    <          9.2E-09 Ry
     smearing contrib. (-TS)   =      -0.00206893 Ry
     internal energy E=F+TS    =   -1976.30193847 Ry

     The total energy is F=E-TS. E is the sum of the following terms:
     one-electron contribution =  -11250.07624372 Ry
     hartree contribution      =    5666.39280043 Ry
     xc contribution           =    -123.71309793 Ry
     ewald contribution        =    5001.23146232 Ry
     one-center paw contrib.   =   -1270.13685957 Ry

     convergence has been achieved in  18 iterations

     negative rho (up, down):  1.036E-04 0.000E+00

     Forces acting on atoms (cartesian axes, Ry/au):

     atom    1 type  2   force =     0.00000000    0.00000000   -0.15866559
     atom    2 type  1   force =     0.00000000    0.00000000   -0.15721941
     atom    3 type  2   force =     0.00000000    0.00000000   -0.00860333
     atom    4 type  2   force =     0.00000000    0.00000000   -0.02567110
     atom    5 type  1   force =     0.00000000    0.00000000    0.01219490
     atom    6 type  2   force =     0.00000000    0.00000000    0.01167457
     atom    7 type  2   force =     0.00000000    0.00000000   -0.02932468
     atom    8 type  1   force =     0.00000000   -0.00000000    0.00645097
     atom    9 type  2   force =     0.00000000   -0.00000000    0.02668522
     atom   10 type  2   force =     0.00000000    0.00000000    0.02793523
     atom   11 type  1   force =     0.00000000    0.00000000    0.13357616
     atom   12 type  2   force =     0.00000000    0.00000000    0.16096707

     Total force =     0.311541     Total SCF correction =     0.000478
     Energy error            =      3.5E-01 Ry
     Gradient error          =      1.6E-01 Ry/Bohr

     number of scf cycles    =   3
     number of bfgs steps    =   2

     energy             old  =   -1975.9533024108 Ry
     energy             new  =   -1976.3040073928 Ry

     CASE: energy            _new < energy            _old

     new trust radius        =       0.4154922509 bohr
     new conv_thr            =       0.0000000100 Ry


ATOMIC_POSITIONS (crystal)
S                0.3333330000        0.6666670000        0.0261409526
Mo               0.0000000000        0.0000000000        0.0749268098
S                0.3333330000        0.6666670000        0.1212661543
S                0.6666670000        0.3333330000        0.1600958606
Mo               0.3333330000        0.6666670000        0.1977423207
S                0.6666670000        0.3333330000        0.2424157400
S               -0.0000000000       -0.0000000000        0.2783943400
Mo               0.6666670000        0.3333330000        0.3168274797
S               -0.0000000000       -0.0000000000        0.3613744561
S                0.3333330000        0.6666670000        0.3984069189
Mo               0.0000000000        0.0000000000        0.4433058310
S                0.3333330000        0.6666670000        0.4941031364



     Writing config-only to output data dir ./tmp/relax/mos2_slab.save/ :
     XML data file
     NEW-OLD atomic charge density approx. for the potential

     negative rho (up, down):  8.629E-05 0.000E+00

     total cpu time spent up to now is     9019.2 secs

     Self-consistent Calculation

     iteration #  1     ecut=    80.00 Ry     beta= 0.30
     Davidson diagonalization with overlap
     c_bands:  1 eigenvalues not converged
     c_bands:  1 eigenvalues not converged
     c_bands:  1 eigenvalues not converged
     c_bands:  1 eigenvalues not converged
     c_bands:  1 eigenvalues not converged
     c_bands:  1 eigenvalues not converged
     c_bands:  1 eigenvalues not converged
     c_bands:  1 eigenvalues not converged
     c_bands:  1 eigenvalues not converged
     c_bands:  1 eigenvalues not converged
     ethr =  1.00E-06,  avg # of iterations = 16.4

     negative rho (up, down):  1.133E-04 0.000E+00

     total cpu time spent up to now is     9515.8 secs

     total energy              =   -1976.46725608 Ry
     estimated scf accuracy    <       0.08539969 Ry

     iteration #  2     ecut=    80.00 Ry     beta= 0.30
     Davidson diagonalization with overlap
     ethr =  8.21E-05,  avg # of iterations =  1.0

     negative rho (up, down):  2.448E-04 0.000E+00

     total cpu time spent up to now is     9617.6 secs

     total energy              =   -1976.45896393 Ry
     estimated scf accuracy    <       0.04021607 Ry

     iteration #  3     ecut=    80.00 Ry     beta= 0.30
     Davidson diagonalization with overlap
     ethr =  3.87E-05,  avg # of iterations =  1.9

     negative rho (up, down):  4.335E-04 0.000E+00

     total cpu time spent up to now is     9728.7 secs

     total energy              =   -1976.46073807 Ry
     estimated scf accuracy    <       0.00735018 Ry

     iteration #  4     ecut=    80.00 Ry     beta= 0.30
     Davidson diagonalization with overlap
     ethr =  7.07E-06,  avg # of iterations =  1.7

     negative rho (up, down):  6.935E-04 0.000E+00

     total cpu time spent up to now is     9839.2 secs

     total energy              =   -1976.46082227 Ry
     estimated scf accuracy    <       0.00181370 Ry

     iteration #  5     ecut=    80.00 Ry     beta= 0.30
     Davidson diagonalization with overlap
     ethr =  1.74E-06,  avg # of iterations =  5.8

     negative rho (up, down):  7.954E-04 0.000E+00

     total cpu time spent up to now is     9977.6 secs

     total energy              =   -1976.46088451 Ry
     estimated scf accuracy    <       0.00078717 Ry

     iteration #  6     ecut=    80.00 Ry     beta= 0.30
     Davidson diagonalization with overlap
     ethr =  7.57E-07,  avg # of iterations =  2.0

     negative rho (up, down):  9.034E-04 0.000E+00

     total cpu time spent up to now is    10092.7 secs

     total energy              =   -1976.46093711 Ry
     estimated scf accuracy    <       0.00013079 Ry

     iteration #  7     ecut=    80.00 Ry     beta= 0.30
     Davidson diagonalization with overlap
     ethr =  1.26E-07,  avg # of iterations =  3.1

     negative rho (up, down):  8.379E-04 0.000E+00

     total cpu time spent up to now is    10214.0 secs

     total energy              =   -1976.46094269 Ry
     estimated scf accuracy    <       0.00004407 Ry

     iteration #  8     ecut=    80.00 Ry     beta= 0.30
     Davidson diagonalization with overlap
     ethr =  4.24E-08,  avg # of iterations =  2.3

     negative rho (up, down):  7.429E-04 0.000E+00

     total cpu time spent up to now is    10330.0 secs

     total energy              =   -1976.46094076 Ry
     estimated scf accuracy    <       0.00002748 Ry

     iteration #  9     ecut=    80.00 Ry     beta= 0.30
     Davidson diagonalization with overlap
     ethr =  2.64E-08,  avg # of iterations =  2.2

     negative rho (up, down):  6.832E-04 0.000E+00

     total cpu time spent up to now is    10450.9 secs

     total energy              =   -1976.46094280 Ry
     estimated scf accuracy    <       0.00000542 Ry

     iteration # 10     ecut=    80.00 Ry     beta= 0.30
     Davidson diagonalization with overlap
     ethr =  5.21E-09,  avg # of iterations =  4.3

     negative rho (up, down):  5.044E-04 0.000E+00

     total cpu time spent up to now is    10577.7 secs

     total energy              =   -1976.46094314 Ry
     estimated scf accuracy    <       0.00000544 Ry

     iteration # 11     ecut=    80.00 Ry     beta= 0.30
     Davidson diagonalization with overlap
     ethr =  5.21E-09,  avg # of iterations =  1.6

     negative rho (up, down):  3.620E-04 0.000E+00

     total cpu time spent up to now is    10685.6 secs

     total energy              =   -1976.46094399 Ry
     estimated scf accuracy    <       0.00000187 Ry

     iteration # 12     ecut=    80.00 Ry     beta= 0.30
     Davidson diagonalization with overlap
     ethr =  1.80E-09,  avg # of iterations =  2.4

     negative rho (up, down):  2.830E-04 0.000E+00

     total cpu time spent up to now is    10804.3 secs

     total energy              =   -1976.46094474 Ry
     estimated scf accuracy    <       0.00000071 Ry

     iteration # 13     ecut=    80.00 Ry     beta= 0.30
     Davidson diagonalization with overlap
     ethr =  6.82E-10,  avg # of iterations =  1.9

     negative rho (up, down):  1.776E-04 0.000E+00

     total cpu time spent up to now is    10915.3 secs

     total energy              =   -1976.46094655 Ry
     estimated scf accuracy    <       0.00000046 Ry

     iteration # 14     ecut=    80.00 Ry     beta= 0.30
     Davidson diagonalization with overlap
     ethr =  4.39E-10,  avg # of iterations =  2.0

     negative rho (up, down):  1.233E-04 0.000E+00

     total cpu time spent up to now is    11031.6 secs

     total energy              =   -1976.46094823 Ry
     estimated scf accuracy    <       0.00000016 Ry

     iteration # 15     ecut=    80.00 Ry     beta= 0.30
     Davidson diagonalization with overlap
     ethr =  1.49E-10,  avg # of iterations =  2.3

     negative rho (up, down):  9.740E-05 0.000E+00

     total cpu time spent up to now is    11150.6 secs

     total energy              =   -1976.46094912 Ry
     estimated scf accuracy    <       0.00000005 Ry

     iteration # 16     ecut=    80.00 Ry     beta= 0.30
     Davidson diagonalization with overlap
     ethr =  4.40E-11,  avg # of iterations =  3.0

     negative rho (up, down):  9.301E-05 0.000E+00

     total cpu time spent up to now is    11270.9 secs

     total energy              =   -1976.46094930 Ry
     estimated scf accuracy    <       0.00000002 Ry

     iteration # 17     ecut=    80.00 Ry     beta= 0.30
     Davidson diagonalization with overlap
     ethr =  1.58E-11,  avg # of iterations =  2.9

     negative rho (up, down):  9.499E-05 0.000E+00

     total cpu time spent up to now is    11386.0 secs

     End of self-consistent calculation

          k = 0.0000 0.0000 0.0000 ( 21311 PWs)   bands (ev):

   -53.2488 -53.1878 -52.8923 -52.8566 -27.7479 -27.7084 -27.6429 -27.4903
   -27.2545 -27.2545 -27.2404 -27.2404 -27.0485 -27.0485 -27.0143 -27.0143
   -12.8219 -12.0914 -11.5308  -7.0366  -6.5751  -6.0259  -4.9070  -3.0138
    -1.2899   0.3047   0.3048   0.8128   0.9595   0.9596   1.2838   1.2838
     2.3154   2.6945   2.6945   3.3480   3.3480   3.6957   4.0656   4.0656
     4.7992   4.7992   5.0088   5.1429   5.1429   6.0626   6.4410   6.6204
     7.1323   7.2656   7.2656   7.3716   7.3716   8.1204   8.1204   8.5896
     9.3969   9.3969   9.6069   9.8526   9.8526  10.6472

          k = 0.0000 0.0722 0.0000 ( 21283 PWs)   bands (ev):

   -53.2470 -53.1861 -52.8902 -52.8546 -27.7420 -27.7042 -27.6388 -27.4866
   -27.2727 -27.2587 -27.2585 -27.2445 -27.0723 -27.0535 -27.0380 -27.0192
   -12.7500 -12.0294 -11.4831  -6.9799  -6.5247  -5.9945  -4.9043  -3.1068
    -1.2757   0.0340   0.2736   0.4275   0.8845   0.8877   1.1769   1.3048
     2.2864   2.6830   2.7637   3.2858   3.4382   3.6578   3.9753   4.1126
     4.5597   4.7814   4.8571   5.1130   5.4378   5.9119   6.3143   6.6266
     6.9355   7.2716   7.4799   7.5162   7.8553   8.2520   8.3313   8.7934
     9.2504   9.4613   9.6824   9.8360   9.8907  10.5445

          k = 0.0000 0.1443 0.0000 ( 21263 PWs)   bands (ev):

   -53.2421 -53.1811 -52.8842 -52.8486 -27.7251 -27.6921 -27.6273 -27.4761
   -27.3240 -27.3105 -27.2699 -27.2559 -27.1396 -27.1048 -27.0676 -27.0331
   -12.5381 -11.8462 -11.3412  -6.8252  -6.3814  -5.9097  -4.9160  -3.4077
    -1.2697  -0.5745  -0.1151   0.1550   0.3186   0.6850   0.9493   1.3179
     2.1679   2.5990   2.9843   3.1210   3.5693   3.6635   3.7983   4.1787
     4.2447   4.6092   4.7298   5.0312   5.6139   5.8013   6.1968   6.5160
     6.9260   7.2973   7.7836   7.7973   8.4360   8.5549   8.6408   9.0974
     9.5024   9.6514   9.7845  10.0040  10.0896  10.3950

          k = 0.0000 0.2165 0.0000 ( 21233 PWs)   bands (ev):

   -53.2347 -53.1736 -52.8753 -52.8398 -27.7002 -27.6737 -27.6104 -27.4606
   -27.3999 -27.3870 -27.2868 -27.2730 -27.2386 -27.2032 -27.0886 -27.0539
   -12.1965 -11.5495 -11.1082  -6.6247  -6.1723  -5.7947  -4.9970  -3.9363
    -1.4315  -1.2563  -0.6004  -0.2238  -0.0949   0.4491   0.6980   1.1528
     1.9689   2.4841   2.9136   3.3648   3.3901   3.6009   3.8357   3.9498
     4.4058   4.4123   4.6724   4.9581   5.4913   5.7867   6.2020   6.4572
     6.7839   7.3782   7.7500   8.1317   8.4534   8.8950   9.1446   9.3833
     9.8809   9.9228  10.0405  10.3317  10.4259  10.7526

          k = 0.0000 0.2887 0.0000 ( 21197 PWs)   bands (ev):

   -53.2260 -53.1648 -52.8648 -52.8293 -27.6720 -27.6505 -27.5913 -27.4881
   -27.4773 -27.4407 -27.3525 -27.3169 -27.3068 -27.2930 -27.1133 -27.0784
   -11.7416 -11.1518 -10.7896  -6.4937  -5.9685  -5.6611  -5.1972  -4.6373
    -1.9848  -1.7264  -0.9325  -0.5113  -0.4246   0.2202   0.4706   0.9079
     1.7249   2.4815   2.7119   3.1249   3.3198   3.7086   3.8705   4.1484
     4.2710   4.4265   4.8116   5.0378   5.2213   5.8377   6.1655   6.3761
     6.6771   7.5134   7.5585   8.3660   8.4255   9.2118   9.2870   9.6823
     9.9661  10.2028  10.3984  10.5741  11.0162  11.2226

          k = 0.0000 0.3608 0.0000 ( 21187 PWs)   bands (ev):

   -53.2172 -53.1560 -52.8542 -52.8188 -27.6473 -27.6255 -27.5799 -27.5732
   -27.5588 -27.4638 -27.4281 -27.4211 -27.3266 -27.3130 -27.1379 -27.1026
   -11.1967 -10.6719 -10.3962  -6.6056  -6.0144  -5.6338  -5.3471  -5.2598
    -2.4510  -2.1025  -1.1990  -0.7372  -0.6179  -0.0108   0.2933   0.6875
     1.4606   2.4675   2.6571   2.8180   3.1774   3.6020   4.0525   4.1979
     4.3451   4.5045   5.0048   5.1385   5.3375   5.7477   6.0753   6.4406
     6.7675   7.3580   7.8683   8.3783   8.5499   9.2838   9.3836   9.8647
    10.0616  10.4627  10.4815  10.8287  11.1796  11.6087

          k = 0.0000 0.4330 0.0000 ( 21140 PWs)   bands (ev):

   -53.2098 -53.1484 -52.8452 -52.8099 -27.6536 -27.6439 -27.6221 -27.5958
   -27.5791 -27.5343 -27.5184 -27.4060 -27.3433 -27.3299 -27.1586 -27.1231
   -10.6008 -10.1432  -9.9542  -6.9879  -6.5004  -6.2974  -5.2607  -5.1208
    -2.6905  -2.3621  -1.4008  -0.9812  -0.6706  -0.2055   0.1611   0.5328
     1.2540   2.2994   2.4603   2.8949   3.1262   3.4418   3.9030   4.1049
     4.3386   4.8990   5.0020   5.5588   5.6598   5.7556   6.0860   6.5285
     6.8948   7.5126   8.2659   8.3615   8.7711   9.3390   9.4348   9.8874
    10.1103  10.3358  10.4549  10.7253  10.9923  11.6743

          k = 0.0000 0.5052 0.0000 ( 21078 PWs)   bands (ev):

   -53.2048 -53.1434 -52.8392 -52.8039 -27.6989 -27.6906 -27.6304 -27.6156
   -27.5876 -27.5668 -27.5359 -27.3954 -27.3545 -27.3411 -27.1724 -27.1368
   -10.0399  -9.6473  -9.5432  -7.4445  -7.0574  -6.9624  -5.1222  -4.9504
    -2.7690  -2.5197  -1.5246  -1.1340  -0.6985  -0.3322   0.0768   0.4404
     1.1352   2.2076   2.2670   2.9127   3.0658   3.4020   3.7942   4.0106
     4.2979   5.1022   5.1029   5.6332   5.9285   6.1501   6.1873   6.6375
     6.9794   7.9268   8.5545   8.6239   8.9893   9.3616   9.4578   9.7946
    10.0049  10.0575  10.0628  10.3171  11.0791  11.5962

          k = 0.0000-0.5774 0.0000 ( 21006 PWs)   bands (ev):

   -53.2031 -53.1416 -52.8371 -52.8018 -27.7155 -27.7074 -27.6504 -27.6188
   -27.5967 -27.5648 -27.5343 -27.3916 -27.3584 -27.3451 -27.1772 -27.1415
    -9.7596  -9.4082  -9.3614  -7.6570  -7.3358  -7.2682  -5.0676  -4.8859
    -2.7793  -2.5773  -1.5662  -1.1858  -0.7069  -0.3758   0.0476   0.4086
     1.0980   2.1694   2.2132   2.8677   3.0488   3.4153   3.7557   3.9761
     4.2811   5.1526   5.1587   5.6208   6.0626   6.1905   6.3974   6.6978
     7.0024   8.2409   8.7718   8.8714   9.0821   9.2934   9.4062   9.4709
     9.7547   9.9105  10.0837  10.1993  11.1024  11.5172

          k = 0.0625 0.1083 0.0000 ( 21269 PWs)   bands (ev):

   -53.2437 -53.1827 -52.8861 -52.8506 -27.7306 -27.6961 -27.6310 -27.4795
   -27.3069 -27.2933 -27.2667 -27.2527 -27.1172 -27.0827 -27.0636 -27.0293
   -12.6082 -11.9068 -11.3883  -6.8740  -6.4277  -5.9364  -4.9087  -3.3036
    -1.2640  -0.3772   0.0272   0.1885   0.5200   0.7108   0.9397   1.3916
     2.2231   2.7067   2.7666   3.3655   3.3931   3.6104   3.9923   4.0757
     4.3473   4.6107   4.7954   5.0399   5.6808   5.7654   6.2207   6.5088
     6.9054   7.3607   7.7161   7.7373   8.2316   8.4770   8.6429   8.9959
     9.2941   9.5877   9.8158   9.9208   9.9976  10.3478

          k = 0.0625 0.1804 0.0000 ( 21194 PWs)   bands (ev):

   -53.2375 -53.1765 -52.8787 -52.8432 -27.7097 -27.6808 -27.6168 -27.4664
   -27.3691 -27.3560 -27.2823 -27.2684 -27.1985 -27.1635 -27.0829 -27.0484
   -12.3313 -11.6667 -11.2007  -6.6946  -6.2505  -5.8368  -4.9546  -3.7172
    -1.3229  -0.9878  -0.4333  -0.0702   0.0134   0.4425   0.6250   1.3212
     2.0972   2.6009   2.8835   3.2736   3.4736   3.6286   3.8108   4.0584
     4.2732   4.4701   4.7663   4.9254   5.5984   5.8275   6.2016   6.3791
     6.8391   7.4171   7.8517   8.1355   8.4867   8.7492   8.8937   9.1693
     9.6652   9.8380  10.0630  10.1500  10.2550  10.4332

          k = 0.0625 0.2526 0.0000 ( 21202 PWs)   bands (ev):

   -53.2295 -53.1683 -52.8690 -52.8335 -27.6830 -27.6600 -27.5987 -27.4514
   -27.4493 -27.4348 -27.3028 -27.3026 -27.2888 -27.2672 -27.1082 -27.0734
   -11.9327 -11.3191 -10.9243  -6.5218  -6.0374  -5.7148  -5.1002  -4.3299
    -1.6968  -1.5242  -0.8231  -0.4429  -0.3397   0.1980   0.3288   1.0984
     1.8983   2.5343   2.8580   3.2010   3.4098   3.5939   3.8082   3.9918
     4.4010   4.5126   4.7446   4.9016   5.4892   5.8015   6.1907   6.3670
     6.6090   7.5644   7.7234   8.3889   8.4935   9.0634   9.2784   9.5273
     9.7020   9.9756  10.3812  10.5362  10.6651  10.8174

          k = 0.0625 0.3248 0.0000 ( 21194 PWs)   bands (ev):

   -53.2207 -53.1595 -52.8584 -52.8230 -27.6565 -27.6355 -27.5811 -27.5345
   -27.5228 -27.4315 -27.4108 -27.3769 -27.3245 -27.3110 -27.1354 -27.1003
   -11.4314 -10.8788 -10.5663  -6.5101  -5.9249  -5.5826  -5.3122  -5.0385
    -2.2253  -1.9197  -1.1508  -0.7155  -0.5682  -0.0374   0.1061   0.8454
     1.6409   2.6067   2.6844   2.9379   3.2346   3.6870   3.8831   4.2420
     4.3574   4.5117   4.8999   5.1396   5.2681   5.8590   6.1116   6.3318
     6.6132   7.4593   7.8515   8.4452   8.5807   9.2508   9.4332   9.7593
     9.9200  10.3200  10.4827  10.8226  11.0288  11.3269

          k = 0.0625 0.3969 0.0000 ( 21151 PWs)   bands (ev):

   -53.2126 -53.1513 -52.8487 -52.8133 -27.6383 -27.6186 -27.6092 -27.5956
   -27.5665 -27.5069 -27.4758 -27.4119 -27.3447 -27.3313 -27.1604 -27.1251
   -10.8565 -10.3695 -10.1425  -6.7799  -6.2385  -5.9504  -5.3209  -5.2002
    -2.5645  -2.2327  -1.4080  -0.9804  -0.6600  -0.2536  -0.0371   0.6407
     1.3899   2.4193   2.5836   2.9115   3.1889   3.6103   3.8689   4.1997
     4.4280   4.7365   5.0734   5.1705   5.5479   5.8573   6.1157   6.4185
     6.7991   7.4065   8.1693   8.3995   8.7531   9.3203   9.5268   9.8715
    10.0792  10.3845  10.4673  10.8442  11.1807  11.5257

          k = 0.0625 0.4691 0.0000 ( 21105 PWs)   bands (ev):

   -53.2064 -53.1450 -52.8412 -52.8059 -27.6752 -27.6665 -27.6169 -27.6032
   -27.5835 -27.5490 -27.5348 -27.3988 -27.3601 -27.3468 -27.1795 -27.1439
   -10.2626  -9.8405  -9.6967  -7.2358  -6.8028  -6.6672  -5.1711  -5.0059
    -2.7179  -2.4404  -1.5614  -1.1985  -0.6939  -0.4132  -0.1345   0.5128
     1.2028   2.2663   2.3545   3.0150   3.1995   3.5333   3.8136   4.0734
     4.3651   4.8691   5.1589   5.5056   5.8913   5.9750   6.2459   6.5509
     6.9415   7.6732   8.3914   8.5567   8.9514   9.3160   9.5754   9.8870
    10.0077  10.1223  10.3437  10.4764  11.1831  11.6967

          k = 0.0625 0.5413 0.0000 ( 21084 PWs)   bands (ev):

   -53.2031 -53.1416 -52.8371 -52.8018 -27.7062 -27.6979 -27.6393 -27.6144
   -27.5906 -27.5640 -27.5337 -27.3917 -27.3684 -27.3551 -27.1898 -27.1541
    -9.7937  -9.4298  -9.3651  -7.6143  -7.2688  -7.1979  -5.0680  -4.8843
    -2.7637  -2.5495  -1.6227  -1.3265  -0.6994  -0.5001  -0.1896   0.4562
     1.1049   2.1688   2.2595   2.9919   3.1891   3.5482   3.7954   3.9753
     4.3096   4.8892   5.2720   5.7072   5.9321   6.2916   6.4163   6.6573
     7.0028   8.0889   8.5787   8.7815   9.0649   9.2291   9.4284   9.6692
     9.7952  10.0905  10.1796  10.2702  11.1643  11.6621

          k = 0.1250 0.2165 0.0000 ( 21179 PWs)   bands (ev):

   -53.2307 -53.1696 -52.8705 -52.8350 -27.6870 -27.6633 -27.6014 -27.4527
   -27.4331 -27.4198 -27.3037 -27.2902 -27.2816 -27.2466 -27.1095 -27.0749
   -11.9972 -11.3755 -10.9693  -6.5377  -6.0655  -5.7321  -5.0665  -4.2125
    -1.5475  -1.4341  -0.7683  -0.4547  -0.2749   0.1205   0.1322   1.2096
     1.9837   2.6430   2.9100   3.1904   3.4157   3.5401   3.7625   4.0112
     4.4496   4.5092   4.8087   4.8521   5.5928   5.8043   6.1818   6.2868
     6.6380   7.5782   7.9866   8.4389   8.6400   8.8817   9.0834   9.4424
     9.5714   9.8478  10.3295  10.3930  10.6791  10.7255

          k = 0.1250 0.2887 0.0000 ( 21199 PWs)   bands (ev):

   -53.2226 -53.1614 -52.8607 -52.8253 -27.6619 -27.6409 -27.5842 -27.5063
   -27.4950 -27.4340 -27.3764 -27.3413 -27.3300 -27.3166 -27.1424 -27.1075
   -11.5510 -10.9838 -10.6517  -6.4727  -5.9124  -5.5997  -5.2605  -4.8367
    -1.9839  -1.7789  -1.1453  -0.7579  -0.5923  -0.3028  -0.0697   0.9805
     1.7756   2.7213   2.8229   3.0119   3.2687   3.6475   3.6986   4.3154
     4.3226   4.6418   4.8731   5.1012   5.5203   5.8205   6.1016   6.2937
     6.4147   7.7583   8.0161   8.6145   8.6725   9.2220   9.3087   9.5027
     9.8598  10.1388  10.4113  10.6480  10.8393  11.1177

          k = 0.1250 0.3608 0.0000 ( 21195 PWs)   bands (ev):

   -53.2145 -53.1532 -52.8510 -52.8156 -27.6403 -27.6171 -27.5789 -27.5744
   -27.5586 -27.4682 -27.4333 -27.4157 -27.3570 -27.3437 -27.1758 -27.1406
   -11.0150 -10.5089 -10.2568  -6.6399  -6.0630  -5.7033  -5.3400  -5.2252
    -2.3489  -2.0974  -1.5257  -0.9598  -0.8882  -0.5473  -0.1902   0.7468
     1.5208   2.5026   2.7403   2.9805   3.2667   3.7665   3.8112   4.1320
     4.5323   4.7814   4.9641   5.2158   5.5728   5.9374   6.0976   6.2512
     6.5567   7.6532   8.2638   8.5984   8.8206   9.3782   9.5455   9.7460
     9.9835  10.3127  10.5544  10.8648  11.0463  11.4410

          k = 0.1250 0.4330 0.0000 ( 21113 PWs)   bands (ev):

   -53.2077 -53.1463 -52.8427 -52.8074 -27.6443 -27.6343 -27.6165 -27.5879
   -27.5704 -27.5271 -27.5085 -27.4015 -27.3799 -27.3668 -27.2042 -27.1687
   -10.4262  -9.9818  -9.8080  -7.0392  -6.5661  -6.3801  -5.2090  -5.0420
    -2.5858  -2.3443  -1.7863  -1.2276  -0.9854  -0.6526  -0.3043   0.5847
     1.2762   2.2691   2.5046   3.1884   3.3633   3.7700   3.8335   4.0786
     4.5930   4.6969   5.0927   5.2864   5.8333   6.0972   6.2419   6.4601
     6.8106   7.6289   8.3703   8.6216   8.9685   9.4248   9.6681   9.8919
    10.0006  10.1363  10.4498  10.7288  11.5072  11.6001

          k = 0.1250 0.5052 0.0000 ( 21081 PWs)   bands (ev):

   -53.2031 -53.1416 -52.8371 -52.8018 -27.6810 -27.6725 -27.6110 -27.6092
   -27.5739 -27.5541 -27.5314 -27.3952 -27.3918 -27.3821 -27.2232 -27.1874
    -9.8660  -9.4786  -9.3800  -7.5022  -7.1127  -7.0244  -5.0697  -4.8795
    -2.7167  -2.4980  -1.9142  -1.4154  -1.0204  -0.6736  -0.4143   0.5167
     1.0870   2.1387   2.3555   3.2340   3.4835   3.7380   3.8856   4.0095
     4.4588   4.6470   5.2097   5.5240   6.0958   6.2929   6.4349   6.6724
     6.9866   7.8009   8.3007   8.6860   9.0617   9.2723   9.4447   9.7672
    10.0603  10.2413  10.3394  10.5677  11.5058  11.7449

          k = 0.1250 0.5774 0.0000 ( 21108 PWs)   bands (ev):

   -53.2015 -53.1400 -52.8352 -52.7999 -27.6946 -27.6863 -27.6263 -27.6086
   -27.5795 -27.5574 -27.5305 -27.4006 -27.3890 -27.3869 -27.2298 -27.1940
    -9.5798  -9.2286  -9.1831  -7.7229  -7.3921  -7.3320  -5.0161  -4.8188
    -2.7593  -2.5503  -1.9488  -1.4833  -1.0280  -0.6669  -0.4672   0.5063
     1.0107   2.1015   2.3017   3.2514   3.5146   3.6961   3.8743   4.0376
     4.4020   4.6192   5.2879   5.6109   6.2217   6.3834   6.5305   6.7890
     7.0331   7.9376   8.2297   8.6209   9.0210   9.2376   9.3665   9.7351
    10.0356  10.1786  10.4498  10.5230  11.4469  11.7066

          k = 0.1875 0.3248 0.0000 ( 21195 PWs)   bands (ev):

   -53.2152 -53.1539 -52.8518 -52.8164 -27.6417 -27.6185 -27.5727 -27.5617
   -27.5479 -27.4500 -27.4170 -27.4141 -27.3648 -27.3515 -27.1854 -27.1502
   -11.0687 -10.5560 -10.2952  -6.5906  -6.0032  -5.6237  -5.3369  -5.2167
    -2.1893  -2.0933  -1.4719  -1.1725  -0.9128  -0.7447  -0.1822   0.7834
     1.5691   2.5117   2.8300   3.0196   3.2870   3.7479   3.8263   4.0797
     4.5460   4.7224   5.1413   5.2957   5.6414   5.8260   6.0564   6.2387
     6.4020   8.0384   8.2897   8.7299   8.7996   9.3005   9.4964   9.7295
     9.9628  10.2338  10.5240  10.8676  10.9037  11.3606

          k = 0.1875 0.3969 0.0000 ( 21153 PWs)   bands (ev):

   -53.2083 -53.1470 -52.8435 -52.8082 -27.6290 -27.6113 -27.6062 -27.5857
   -27.5590 -27.5061 -27.4768 -27.4029 -27.3998 -27.3868 -27.2286 -27.1932
   -10.5120 -10.0558  -9.8662  -6.9172  -6.4200  -6.1942  -5.2305  -5.0571
    -2.4459  -2.3202  -1.8118  -1.4210  -1.3305  -0.8186  -0.2518   0.5988
     1.3276   2.2327   2.6340   3.2804   3.4443   3.8197   3.8952   4.0832
     4.4710   4.8203   5.1241   5.3412   5.7839   5.9936   6.3155   6.3595
     6.6303   7.9850   8.3791   8.7707   8.9453   9.5663   9.6564   9.8643
     9.9800  10.1076  10.5928  10.9179  11.2748  11.5494

          k = 0.1875 0.4691 0.0000 ( 21101 PWs)   bands (ev):

   -53.2031 -53.1417 -52.8371 -52.8018 -27.6502 -27.6414 -27.6081 -27.5796
   -27.5673 -27.5273 -27.5206 -27.4280 -27.4153 -27.3917 -27.2633 -27.2276
    -9.9284  -9.5235  -9.3993  -7.3800  -6.9580  -6.8440  -5.0732  -4.8733
    -2.7010  -2.4714  -2.1025  -1.5753  -1.4571  -0.8274  -0.3305   0.5012
     1.0760   2.0941   2.4666   3.3827   3.6664   3.7717   3.9187   4.2158
     4.4591   4.7384   5.0443   5.4116   5.9839   6.2492   6.5370   6.7674
     6.9055   7.7792   8.1154   8.6573   9.0301   9.3368   9.6249   9.8506
    10.1739  10.3755  10.5886  10.9423  11.6278  11.7771

          k = 0.1875 0.5413 0.0000 ( 21112 PWs)   bands (ev):

   -53.2002 -53.1388 -52.8337 -52.7984 -27.6679 -27.6595 -27.6032 -27.5971
   -27.5599 -27.5434 -27.5263 -27.4438 -27.4312 -27.3857 -27.2826 -27.2467
    -9.4470  -9.0844  -9.0246  -7.7777  -7.4163  -7.3603  -4.9758  -4.7653
    -2.8338  -2.5837  -2.2464  -1.6622  -1.4541  -0.8195  -0.3885   0.5017
     0.8792   2.0724   2.3589   3.4996   3.5786   3.8159   3.8749   4.2937
     4.5408   4.6587   5.0745   5.5290   6.2142   6.4286   6.7497   6.9885
     7.0940   7.5137   7.7986   8.4997   8.9873   9.0878   9.5329   9.8266
    10.4002  10.5794  10.7359  10.9313  11.6469  11.9296

          k = 0.2500 0.4330 0.0000 ( 21125 PWs)   bands (ev):

   -53.2031 -53.1417 -52.8371 -52.8018 -27.6351 -27.6257 -27.6067 -27.5723
   -27.5606 -27.5200 -27.5036 -27.4448 -27.4322 -27.3918 -27.2832 -27.2477
    -9.9521  -9.5410  -9.4080  -7.3267  -6.8933  -6.7665  -5.0753  -4.8701
    -2.7502  -2.4276  -2.0841  -1.7694  -1.6212  -0.8205  -0.2904   0.4686
     1.0822   2.0762   2.5197   3.3876   3.7281   3.7879   4.0009   4.2333
     4.3432   4.8746   5.0899   5.3896   5.7565   6.2960   6.5320   6.8015
     6.8703   7.9134   8.0078   8.6876   9.0070   9.3912   9.6841   9.9309
    10.2655  10.3073  10.8159  11.0920  11.5284  11.8034

          k = 0.2500 0.5052 0.0000 ( 21117 PWs)   bands (ev):

   -53.1996 -53.1381 -52.8329 -52.7976 -27.6400 -27.6315 -27.6004 -27.5710
   -27.5529 -27.5212 -27.5151 -27.4810 -27.4686 -27.3847 -27.3259 -27.2905
    -9.3930  -9.0151  -8.9316  -7.7948  -7.3970  -7.3362  -4.9543  -4.7343
    -2.9714  -2.6077  -2.3899  -1.8101  -1.7015  -0.7642  -0.3297   0.4248
     0.8180   2.0925   2.4083   3.3881   3.5788   3.9792   4.1069   4.2338
     4.6083   4.8747   5.1081   5.3379   5.9751   6.5458   6.7467   6.9928
     7.0938   7.5285   7.6020   8.3367   8.8704   9.1993   9.5645   9.9975
    10.5598  10.8620  11.1831  11.3371  11.7749  11.9387

          k = 0.2500 0.5774 0.0000 ( 21116 PWs)   bands (ev):

   -53.1983 -53.1368 -52.8314 -52.7961 -27.6401 -27.6319 -27.5981 -27.5718
   -27.5475 -27.5217 -27.5173 -27.4953 -27.4832 -27.3824 -27.3422 -27.3071
    -9.0629  -8.7077  -8.6732  -8.0548  -7.7008  -7.6672  -4.9088  -4.6848
    -3.0453  -2.6974  -2.5015  -1.8058  -1.7091  -0.7348  -0.3470   0.4567
     0.6666   2.1427   2.3593   3.2616   3.6827   3.9466   4.0800   4.2968
     4.6979   4.9283   5.1852   5.3648   6.1582   6.5739   6.7947   6.8284
     7.2059   7.4497   7.5281   8.1063   8.7201   9.1185   9.6583   9.8888
    10.7696  11.1082  11.3876  11.4387  11.7514  11.9551

          k = 0.3125 0.5413 0.0000 ( 21100 PWs)   bands (ev):

   -53.1977 -53.1362 -52.8306 -52.7953 -27.6195 -27.6119 -27.5961 -27.5586
   -27.5429 -27.5258 -27.5155 -27.5093 -27.5003 -27.3845 -27.3689 -27.3375
    -8.8651  -8.5067  -8.4537  -8.2421  -7.8608  -7.8368  -4.8843  -4.6555
    -3.1392  -2.7420  -2.6370  -1.8431  -1.7613  -0.6668  -0.3303   0.4143
     0.5843   2.2171   2.3668   3.0970   3.6536   4.0411   4.2517   4.4238
     4.6031   4.8041   5.4517   5.5825   6.0114   6.3761   6.4030   6.9784
     7.3138   7.5225   7.6446   7.8115   8.5307   9.2791   9.6237   9.8977
    10.9328  11.4487  11.5860  11.7610  11.8209  12.1257

     the Fermi energy is     8.5976 ev

!    total energy              =   -1976.46094929 Ry
     total all-electron energy =    -38769.781794 Ry
     estimated scf accuracy    <          4.0E-09 Ry
     smearing contrib. (-TS)   =      -0.00147993 Ry
     internal energy E=F+TS    =   -1976.45946936 Ry

     The total energy is F=E-TS. E is the sum of the following terms:
     one-electron contribution =  -10819.80912836 Ry
     hartree contribution      =    5451.23799106 Ry
     xc contribution           =    -123.22588160 Ry
     ewald contribution        =    4785.41150836 Ry
     one-center paw contrib.   =   -1270.07395883 Ry

     convergence has been achieved in  17 iterations

     negative rho (up, down):  9.499E-05 0.000E+00

     Forces acting on atoms (cartesian axes, Ry/au):

     atom    1 type  2   force =     0.00000000    0.00000000   -0.08634879
     atom    2 type  1   force =     0.00000000    0.00000000   -0.10282884
     atom    3 type  2   force =     0.00000000    0.00000000   -0.13676906
     atom    4 type  2   force =     0.00000000    0.00000000    0.00208938
     atom    5 type  1   force =     0.00000000    0.00000000    0.02122439
     atom    6 type  2   force =     0.00000000   -0.00000000   -0.07203633
     atom    7 type  2   force =     0.00000000    0.00000000    0.02134014
     atom    8 type  1   force =     0.00000000   -0.00000000    0.04967872
     atom    9 type  2   force =     0.00000000    0.00000000   -0.03153952
     atom   10 type  2   force =     0.00000000   -0.00000000    0.12574011
     atom   11 type  1   force =     0.00000000   -0.00000000    0.14645982
     atom   12 type  2   force =     0.00000000   -0.00000000    0.06298999

     Total force =     0.295849     Total SCF correction =     0.000152
     Energy error            =      1.6E-01 Ry
     Gradient error          =      1.5E-01 Ry/Bohr

     number of scf cycles    =   4
     number of bfgs steps    =   3

     energy             old  =   -1976.3040073928 Ry
     energy             new  =   -1976.4609492864 Ry

     CASE: energy            _new < energy            _old

     new trust radius        =       0.6766226958 bohr
     new conv_thr            =       0.0000000100 Ry


ATOMIC_POSITIONS (crystal)
S                0.3333330000        0.6666670000        0.0142058422
Mo               0.0000000000        0.0000000000        0.0671964920
S                0.3333330000        0.6666670000        0.1183538072
S                0.6666670000        0.3333330000        0.1580935106
Mo               0.3333330000        0.6666670000        0.1978595618
S                0.6666670000        0.3333330000        0.2427262297
S               -0.0000000000       -0.0000000000        0.2766848095
Mo               0.6666670000        0.3333330000        0.3177394373
S               -0.0000000000       -0.0000000000        0.3632034618
S                0.3333330000        0.6666670000        0.4014302677
Mo               0.0000000000        0.0000000000        0.4520229128
S                0.3333330000        0.6666670000        0.5054836673



     Writing config-only to output data dir ./tmp/relax/mos2_slab.save/ :
     XML data file
     NEW-OLD atomic charge density approx. for the potential

     negative rho (up, down):  7.492E-05 0.000E+00

     total cpu time spent up to now is    11441.8 secs

     Self-consistent Calculation

     iteration #  1     ecut=    80.00 Ry     beta= 0.30
     Davidson diagonalization with overlap
     c_bands:  1 eigenvalues not converged
     c_bands:  1 eigenvalues not converged
     c_bands:  2 eigenvalues not converged
     c_bands:  1 eigenvalues not converged
     c_bands:  1 eigenvalues not converged
     c_bands:  1 eigenvalues not converged
     c_bands:  1 eigenvalues not converged
     c_bands:  1 eigenvalues not converged
     c_bands:  2 eigenvalues not converged
     c_bands:  2 eigenvalues not converged
     c_bands:  1 eigenvalues not converged
     c_bands:  2 eigenvalues not converged
     c_bands:  1 eigenvalues not converged
     c_bands:  1 eigenvalues not converged
     c_bands:  2 eigenvalues not converged
     c_bands:  1 eigenvalues not converged
     ethr =  1.00E-06,  avg # of iterations = 18.7

     negative rho (up, down):  4.094E-05 0.000E+00

     total cpu time spent up to now is    12018.0 secs

     total energy              =   -1976.69566692 Ry
     estimated scf accuracy    <       0.24290936 Ry

     iteration #  2     ecut=    80.00 Ry     beta= 0.30
     Davidson diagonalization with overlap
     ethr =  2.34E-04,  avg # of iterations =  1.0

     negative rho (up, down):  7.350E-05 0.000E+00

     total cpu time spent up to now is    12118.7 secs

     total energy              =   -1976.65970823 Ry
     estimated scf accuracy    <       0.11906975 Ry

     iteration #  3     ecut=    80.00 Ry     beta= 0.30
     Davidson diagonalization with overlap
     ethr =  1.14E-04,  avg # of iterations =  2.0

     negative rho (up, down):  1.941E-04 0.000E+00

     total cpu time spent up to now is    12230.6 secs

     total energy              =   -1976.66627856 Ry
     estimated scf accuracy    <       0.00807318 Ry

     iteration #  4     ecut=    80.00 Ry     beta= 0.30
     Davidson diagonalization with overlap
     ethr =  7.76E-06,  avg # of iterations =  4.5

     negative rho (up, down):  5.009E-04 0.000E+00

     total cpu time spent up to now is    12354.2 secs

     total energy              =   -1976.66643027 Ry
     estimated scf accuracy    <       0.00264838 Ry

     iteration #  5     ecut=    80.00 Ry     beta= 0.30
     Davidson diagonalization with overlap
     ethr =  2.55E-06,  avg # of iterations =  4.7

     negative rho (up, down):  7.836E-04 0.000E+00

     total cpu time spent up to now is    12474.5 secs

     total energy              =   -1976.66628601 Ry
     estimated scf accuracy    <       0.00102586 Ry

     iteration #  6     ecut=    80.00 Ry     beta= 0.30
     Davidson diagonalization with overlap
     ethr =  9.86E-07,  avg # of iterations =  2.0

     negative rho (up, down):  9.596E-04 0.000E+00

     total cpu time spent up to now is    12588.4 secs

     total energy              =   -1976.66620770 Ry
     estimated scf accuracy    <       0.00030050 Ry

     iteration #  7     ecut=    80.00 Ry     beta= 0.30
     Davidson diagonalization with overlap
     ethr =  2.89E-07,  avg # of iterations =  3.5

     negative rho (up, down):  9.988E-04 0.000E+00

     total cpu time spent up to now is    12707.6 secs

     total energy              =   -1976.66622493 Ry
     estimated scf accuracy    <       0.00006196 Ry

     iteration #  8     ecut=    80.00 Ry     beta= 0.30
     Davidson diagonalization with overlap
     ethr =  5.96E-08,  avg # of iterations =  4.4

     negative rho (up, down):  8.798E-04 0.000E+00

     total cpu time spent up to now is    12836.8 secs

     total energy              =   -1976.66622847 Ry
     estimated scf accuracy    <       0.00001700 Ry

     iteration #  9     ecut=    80.00 Ry     beta= 0.30
     Davidson diagonalization with overlap
     ethr =  1.63E-08,  avg # of iterations =  3.4

     negative rho (up, down):  7.344E-04 0.000E+00

     total cpu time spent up to now is    12957.1 secs

     total energy              =   -1976.66623054 Ry
     estimated scf accuracy    <       0.00001179 Ry

     iteration # 10     ecut=    80.00 Ry     beta= 0.30
     Davidson diagonalization with overlap
     ethr =  1.13E-08,  avg # of iterations =  2.1

     negative rho (up, down):  6.269E-04 0.000E+00

     total cpu time spent up to now is    13068.3 secs

     total energy              =   -1976.66623148 Ry
     estimated scf accuracy    <       0.00000360 Ry

     iteration # 11     ecut=    80.00 Ry     beta= 0.30
     Davidson diagonalization with overlap
     ethr =  3.46E-09,  avg # of iterations =  2.4

     negative rho (up, down):  4.533E-04 0.000E+00

     total cpu time spent up to now is    13179.6 secs

     total energy              =   -1976.66623153 Ry
     estimated scf accuracy    <       0.00000170 Ry

     iteration # 12     ecut=    80.00 Ry     beta= 0.30
     Davidson diagonalization with overlap
     ethr =  1.64E-09,  avg # of iterations =  2.3

     negative rho (up, down):  2.445E-04 0.000E+00

     total cpu time spent up to now is    13294.9 secs

     total energy              =   -1976.66623264 Ry
     estimated scf accuracy    <       0.00000131 Ry

     iteration # 13     ecut=    80.00 Ry     beta= 0.30
     Davidson diagonalization with overlap
     ethr =  1.26E-09,  avg # of iterations =  2.2

     negative rho (up, down):  1.656E-04 0.000E+00

     total cpu time spent up to now is    13419.1 secs

     total energy              =   -1976.66623418 Ry
     estimated scf accuracy    <       0.00000039 Ry

     iteration # 14     ecut=    80.00 Ry     beta= 0.30
     Davidson diagonalization with overlap
     ethr =  3.70E-10,  avg # of iterations =  2.2

     negative rho (up, down):  8.827E-05 0.000E+00

     total cpu time spent up to now is    13531.9 secs

     total energy              =   -1976.66623645 Ry
     estimated scf accuracy    <       0.00000018 Ry

     iteration # 15     ecut=    80.00 Ry     beta= 0.30
     Davidson diagonalization with overlap
     ethr =  1.75E-10,  avg # of iterations =  2.9

     negative rho (up, down):  7.661E-05 0.000E+00

     total cpu time spent up to now is    13649.9 secs

     total energy              =   -1976.66623680 Ry
     estimated scf accuracy    <       0.00000005 Ry

     iteration # 16     ecut=    80.00 Ry     beta= 0.30
     Davidson diagonalization with overlap
     ethr =  5.15E-11,  avg # of iterations =  2.8

     negative rho (up, down):  7.182E-05 0.000E+00

     total cpu time spent up to now is    13768.3 secs

     total energy              =   -1976.66623700 Ry
     estimated scf accuracy    <       0.00000003 Ry

     iteration # 17     ecut=    80.00 Ry     beta= 0.30
     Davidson diagonalization with overlap
     ethr =  2.56E-11,  avg # of iterations =  3.0

     negative rho (up, down):  8.356E-05 0.000E+00

     total cpu time spent up to now is    13892.0 secs

     End of self-consistent calculation

          k = 0.0000 0.0000 0.0000 ( 21311 PWs)   bands (ev):

   -53.2121 -53.0706 -52.9818 -52.9681 -27.7697 -27.6669 -27.4979 -27.3220
   -27.1790 -27.1790 -27.1095 -27.1095 -27.0797 -27.0797 -27.0378 -27.0377
   -12.9432 -11.7725 -11.4190  -6.5695  -6.1530  -5.7903  -4.7707  -2.9746
    -0.9293   0.2691   0.2691   1.1754   1.5118   1.5118   1.8126   1.8127
     2.4401   3.1752   3.1752   3.6920   4.0290   4.0290   4.6679   4.6679
     4.9156   5.4654   5.4654   5.7156   5.7157   6.0119   6.2659   6.5022
     7.0892   7.2664   7.2664   7.4101   7.4101   7.9944   8.1088   8.1088
     8.8909   9.5643   9.5643   9.8293   9.8293  10.3430

          k = 0.0000 0.0722 0.0000 ( 21283 PWs)   bands (ev):

   -53.2105 -53.0690 -52.9798 -52.9661 -27.7640 -27.6627 -27.4946 -27.3187
   -27.1952 -27.1827 -27.1321 -27.1142 -27.1017 -27.0843 -27.0540 -27.0414
   -12.8750 -11.7107 -11.3675  -6.5157  -6.1032  -5.7549  -4.7613  -3.0651
    -0.9158  -0.0037   0.2058   0.8969   1.4108   1.4336   1.7091   1.7463
     2.4639   3.1042   3.2166   3.6901   3.8879   4.1123   4.4869   4.7141
     4.8280   5.4533   5.4653   5.5527   5.6736   6.0477   6.2933   6.6243
     6.8548   7.3204   7.4676   7.4678   7.7153   8.0581   8.2184   8.5407
     8.9054   9.5343   9.6053   9.8022   9.9124  10.1916

          k = 0.0000 0.1443 0.0000 ( 21263 PWs)   bands (ev):

   -53.2059 -53.0645 -52.9741 -52.9605 -27.7477 -27.6508 -27.4852 -27.3094
   -27.2411 -27.1958 -27.1931 -27.1640 -27.1277 -27.1001 -27.0975 -27.0518
   -12.6736 -11.5276 -11.2135  -6.3717  -5.9601  -5.6571  -4.7512  -3.3589
    -0.9407  -0.5564   0.0172   0.3698   0.7481   1.2372   1.5724   1.6599
     2.4249   2.9365   3.3784   3.5736   3.7423   4.1573   4.3083   4.5325
     4.8210   5.1344   5.4710   5.5618   5.5753   6.0589   6.2585   6.5673
     6.9125   7.3748   7.7299   7.7310   7.9779   8.3774   8.4751   8.9696
     9.3891   9.5889   9.7867   9.8798  10.0348  10.1406

          k = 0.0000 0.2165 0.0000 ( 21233 PWs)   bands (ev):

   -53.1991 -53.0576 -52.9655 -52.9521 -27.7232 -27.6331 -27.4712 -27.3091
   -27.2967 -27.2886 -27.2559 -27.2086 -27.1683 -27.1479 -27.1172 -27.0674
   -12.3488 -11.2297 -10.9588  -6.2008  -5.7434  -5.5173  -4.7929  -3.8757
    -1.3720  -0.8685  -0.2695  -0.1909   0.0499   1.0037   1.3223   1.4653
     2.2441   2.8057   3.3077   3.6870   3.7032   3.8779   4.2049   4.5335
     4.7890   4.8808   5.4861   5.5413   5.6183   5.8973   6.2127   6.4315
     6.8625   7.4732   7.6592   8.0641   8.0735   8.7240   8.7854   9.2394
     9.5785   9.7933  10.1670  10.2706  10.2957  10.5311

          k = 0.0000 0.2887 0.0000 ( 21197 PWs)   bands (ev):

   -53.1910 -53.0495 -52.9553 -52.9421 -27.6942 -27.6125 -27.4549 -27.3987
   -27.3882 -27.3620 -27.2791 -27.2474 -27.2268 -27.1715 -27.1403 -27.0856
   -11.9162 -10.8280 -10.6077  -6.1533  -5.5018  -5.3548  -4.9431  -4.5391
    -1.9551  -1.2568  -0.6694  -0.5918  -0.2649   0.7661   1.0541   1.1629
     1.9898   2.7608   3.1139   3.5285   3.5743   4.0184   4.1519   4.5372
     4.6797   4.8251   5.5026   5.5953   5.6545   5.7961   6.1964   6.3034
     6.6944   7.4129   7.6807   8.0568   8.3397   8.9258   9.0910   9.3876
     9.7670   9.9568  10.3579  10.5126  10.6756  11.0484

          k = 0.0000 0.3608 0.0000 ( 21187 PWs)   bands (ev):

   -53.1829 -53.0413 -52.9451 -52.9322 -27.6655 -27.5930 -27.5038 -27.4697
   -27.4658 -27.4354 -27.3271 -27.2614 -27.2450 -27.1950 -27.1632 -27.1038
   -11.3982 -10.3396 -10.1708  -6.4238  -5.5742  -5.3453  -5.0406  -4.9552
    -2.3777  -1.6951  -0.9972  -0.8886  -0.3418   0.5371   0.8220   0.8740
     1.6574   2.8005   2.9494   3.1902   3.4556   3.8799   4.3882   4.4353
     4.7335   4.8804   5.2869   5.8078   5.8333   5.8734   5.9912   6.3916
     6.7040   7.2590   8.0128   8.0162   8.6051   8.9020   9.3106   9.6381
     9.9790  10.1219  10.3828  10.6372  10.8794  11.2732

          k = 0.0000 0.4330 0.0000 ( 21140 PWs)   bands (ev):

   -53.1760 -53.0344 -52.9365 -52.9237 -27.6450 -27.5970 -27.5698 -27.5509
   -27.5329 -27.4226 -27.3928 -27.2603 -27.2473 -27.2149 -27.1826 -27.1192
   -10.8316  -9.7965  -9.6772  -6.9853  -6.1056  -5.9604  -4.8348  -4.7519
    -2.5619  -1.9952  -1.2086  -1.1207  -0.3556   0.3450   0.6488   0.6680
     1.3367   2.5987   2.8458   3.0064   3.4815   3.6913   4.2526   4.3200
     4.7521   5.1933   5.2778   5.7132   5.9549   6.1341   6.1853   6.4917
     6.7848   7.3638   8.0429   8.4084   8.9053   8.9385   9.4786   9.8716
    10.0641  10.2317  10.2630  10.6157  10.7117  11.3459

          k = 0.0000 0.5052 0.0000 ( 21078 PWs)   bands (ev):

   -53.1714 -53.0298 -52.9307 -52.9180 -27.6650 -27.6185 -27.6078 -27.5762
   -27.5589 -27.4362 -27.4132 -27.2705 -27.2379 -27.2281 -27.1955 -27.1295
   -10.3005  -9.2826  -9.2131  -7.5662  -6.6676  -6.5765  -4.6460  -4.5749
    -2.5848  -2.1752  -1.3241  -1.2667  -0.3443   0.2189   0.5417   0.5499
     1.1097   2.4230   2.6110   3.0276   3.3857   3.6671   4.1511   4.2137
     4.7113   5.3687   5.3806   5.6067   6.0104   6.3719   6.5640   6.5950
     6.8165   7.6187   8.3218   8.7440   9.0119   9.1635   9.6327   9.8278
    10.0106  10.0777  10.1851  10.4494  10.7358  11.3586

          k = 0.0000-0.5774 0.0000 ( 21006 PWs)   bands (ev):

   -53.1697 -53.0282 -52.9287 -52.9160 -27.6827 -27.6341 -27.6084 -27.5912
   -27.5558 -27.4514 -27.4099 -27.2741 -27.2346 -27.2327 -27.2000 -27.1330
   -10.0416  -9.0399  -8.9956  -7.8242  -6.9436  -6.8703  -4.5754  -4.5083
    -2.5697  -2.2430  -1.3601  -1.3164  -0.3349   0.1752   0.5053   0.5107
     1.0276   2.3595   2.5239   3.0386   3.3049   3.6875   4.1194   4.1755
     4.6932   5.4143   5.4281   5.5648   6.0393   6.4560   6.6491   6.7548
     6.8083   7.7659   8.6165   8.8785   9.1109   9.2573   9.5508   9.6973
     9.7043   9.9918  10.3207  10.5368  10.7349  11.3062

          k = 0.0625 0.1083 0.0000 ( 21269 PWs)   bands (ev):

   -53.2074 -53.0659 -52.9759 -52.9623 -27.7530 -27.6547 -27.4882 -27.3124
   -27.2258 -27.1902 -27.1746 -27.1434 -27.1239 -27.0939 -27.0847 -27.0489
   -12.7401 -11.5882 -11.2647  -6.4166  -6.0067  -5.6883  -4.7514  -3.2570
    -0.9150  -0.3940   0.0499   0.5373   0.9843   1.2552   1.5135   1.7849
     2.4520   3.0944   3.1697   3.6898   3.8521   3.9831   4.4498   4.6456
     4.7361   5.2345   5.4191   5.5483   5.6234   6.1071   6.2642   6.6784
     6.7881   7.4348   7.5849   7.6830   7.9304   8.3241   8.4100   8.9526
     9.0806   9.4663   9.8167   9.9084   9.9758  10.0911

          k = 0.0625 0.1804 0.0000 ( 21194 PWs)   bands (ev):

   -53.2017 -53.0602 -52.9688 -52.9553 -27.7326 -27.6398 -27.4765 -27.3008
   -27.2815 -27.2517 -27.2188 -27.2044 -27.1425 -27.1405 -27.1120 -27.0632
   -12.4770 -11.3476 -11.0602  -6.2564  -5.8263  -5.5698  -4.7665  -3.6616
    -1.1362  -0.7869  -0.2245   0.0345   0.3261   0.9833   1.2055   1.6945
     2.3630   2.9601   3.2667   3.6182   3.7673   3.9621   4.2409   4.5466
     4.7731   4.9875   5.3790   5.5106   5.6162   6.0715   6.2486   6.5043
     6.8539   7.4707   7.7417   8.0355   8.1880   8.5102   8.6314   9.1350
     9.4975   9.6476   9.9702  10.0923  10.1206  10.3039

          k = 0.0625 0.2526 0.0000 ( 21202 PWs)   bands (ev):

   -53.1942 -53.0527 -52.9594 -52.9461 -27.7059 -27.6206 -27.4613 -27.3533
   -27.3511 -27.3155 -27.2853 -27.2230 -27.2127 -27.1666 -27.1356 -27.0818
   -12.0979 -10.9974 -10.7566  -6.1384  -5.5917  -5.4178  -4.8669  -4.2521
    -1.6856  -1.0791  -0.6042  -0.3984  -0.1635   0.7029   0.8685   1.4472
     2.1750   2.8626   3.2299   3.5765   3.6972   3.9820   4.1225   4.4147
     4.7500   4.8666   5.4564   5.5521   5.6940   5.8823   6.2301   6.3714
     6.6898   7.5586   7.6683   8.1603   8.3961   8.8346   8.9773   9.2888
     9.5739   9.8035  10.2761  10.3671  10.4428  10.6738

          k = 0.0625 0.3248 0.0000 ( 21194 PWs)   bands (ev):

   -53.1861 -53.0446 -52.9492 -52.9362 -27.6769 -27.6004 -27.4558 -27.4470
   -27.4287 -27.4174 -27.2912 -27.2674 -27.2430 -27.1927 -27.1610 -27.1019
   -11.6213 -10.5509 -10.3605  -6.2518  -5.4477  -5.2706  -5.0119  -4.8823
    -2.1770  -1.5061  -1.0537  -0.6739  -0.3250   0.4443   0.5699   1.1455
     1.8843   2.8954   3.0772   3.3558   3.4951   3.9887   4.2987   4.4150
     4.7039   4.8339   5.4927   5.5858   5.7277   5.9213   6.2071   6.2913
     6.6009   7.3513   7.9297   8.1684   8.5962   8.9128   9.2584   9.5242
     9.7972  10.0782  10.3696  10.5950  10.7611  11.0877

          k = 0.0625 0.3969 0.0000 ( 21151 PWs)   bands (ev):

   -53.1786 -53.0371 -52.9398 -52.9269 -27.6512 -27.5853 -27.5464 -27.5119
   -27.5011 -27.4278 -27.3609 -27.2614 -27.2527 -27.2166 -27.1844 -27.1204
   -11.0745 -10.0301  -9.8888  -6.6991  -5.8344  -5.6487  -4.9307  -4.8432
    -2.4691  -1.8644  -1.3475  -0.9347  -0.3559   0.2321   0.3595   0.8726
     1.5449   2.7677   2.9913   3.0981   3.5088   3.8596   4.2215   4.4159
     4.7653   5.0345   5.3855   5.5807   5.8447   6.0829   6.2562   6.3843
     6.7322   7.3007   8.1106   8.2944   8.8307   8.9500   9.4554   9.7635
     9.9977  10.1956  10.3254  10.6791  10.9097  11.2233

          k = 0.0625 0.4691 0.0000 ( 21105 PWs)   bands (ev):

   -53.1729 -53.0313 -52.9326 -52.9198 -27.6456 -27.6106 -27.5851 -27.5602
   -27.5543 -27.4162 -27.4142 -27.2755 -27.2410 -27.2348 -27.2023 -27.1345
   -10.5094  -9.4839  -9.3906  -7.3089  -6.4117  -6.2966  -4.7095  -4.6357
    -2.5691  -2.1001  -1.4903  -1.1501  -0.3487   0.0730   0.2601   0.6719
     1.2477   2.5447   2.7086   3.1640   3.5256   3.7780   4.1377   4.2984
     4.7137   5.1357   5.4677   5.7149   5.8507   6.3588   6.4336   6.5391
     6.8425   7.5071   8.2132   8.6324   8.9835   9.0622   9.6077   9.9354
    10.0240  10.1388  10.2424  10.4440  10.8865  11.4115

          k = 0.0625 0.5413 0.0000 ( 21084 PWs)   bands (ev):

   -53.1697 -53.0282 -52.9287 -52.9160 -27.6725 -27.6237 -27.6071 -27.5828
   -27.5555 -27.4428 -27.4099 -27.2831 -27.2448 -27.2345 -27.2119 -27.1421
   -10.0685  -9.0598  -9.0112  -7.7718  -6.8781  -6.8004  -4.5761  -4.5094
    -2.5777  -2.2246  -1.5236  -1.2903  -0.3298  -0.0140   0.2299   0.5714
     1.0657   2.4144   2.5477   3.2039   3.4164   3.8260   4.1233   4.1887
     4.6612   5.1200   5.5549   5.8247   5.8629   6.4872   6.6493   6.7207
     6.8834   7.7506   8.4980   8.8239   9.0152   9.1880   9.5897   9.7326
     9.8424  10.1248  10.3271  10.4495  10.8569  11.4526

          k = 0.1250 0.2165 0.0000 ( 21179 PWs)   bands (ev):

   -53.1953 -53.0539 -52.9608 -52.9475 -27.7099 -27.6235 -27.4636 -27.3388
   -27.3313 -27.2963 -27.2875 -27.2239 -27.1981 -27.1678 -27.1369 -27.0827
   -12.1593 -11.0544 -10.8063  -6.1418  -5.6259  -5.4397  -4.8405  -4.1392
    -1.5389  -1.0668  -0.5405  -0.3543  -0.0617   0.5918   0.6863   1.5703
     2.2607   3.0417   3.2055   3.5717   3.7557   3.9222   4.2448   4.2761
     4.7608   4.9279   5.4065   5.5230   5.6523   5.9772   6.2924   6.3893
     6.7066   7.6034   7.8586   8.2483   8.5978   8.6886   8.8039   9.2787
     9.3246   9.7021  10.1703  10.2709  10.4049  10.5764

          k = 0.1250 0.2887 0.0000 ( 21199 PWs)   bands (ev):

   -53.1879 -53.0464 -52.9514 -52.9383 -27.6831 -27.6046 -27.4490 -27.4213
   -27.4042 -27.3844 -27.2743 -27.2622 -27.2480 -27.1993 -27.1678 -27.1069
   -11.7350 -10.6580 -10.4557  -6.1752  -5.4331  -5.2878  -4.9839  -4.7107
    -1.9577  -1.4977  -0.9774  -0.5567  -0.3573   0.1786   0.3039   1.3007
     2.0454   3.0677   3.2224   3.4405   3.5378   4.0193   4.1118   4.4671
     4.6011   4.9775   5.4484   5.5555   5.8119   5.9041   6.1970   6.3866
     6.5027   7.6750   7.9864   8.4721   8.6689   8.9260   9.1485   9.3372
     9.6357   9.9266  10.2893  10.4225  10.6255  10.8920

          k = 0.1250 0.3608 0.0000 ( 21195 PWs)   bands (ev):

   -53.1804 -53.0389 -52.9420 -52.9291 -27.6566 -27.5867 -27.5081 -27.4729
   -27.4693 -27.4307 -27.3297 -27.2725 -27.2563 -27.2313 -27.1991 -27.1315
   -11.2250 -10.1740 -10.0180  -6.4987  -5.6459  -5.4172  -4.9785  -4.8967
    -2.2868  -1.8704  -1.3935  -0.7663  -0.5268  -0.1250   0.0900   1.0013
     1.7299   2.9723   3.1139   3.2640   3.5320   4.0583   4.1637   4.3417
     4.7856   5.1200   5.2861   5.4517   5.9682   6.0955   6.1914   6.3513
     6.6292   7.5326   8.3096   8.4409   8.8632   9.0202   9.4297   9.6517
     9.8519  10.1915  10.3621  10.6837  10.8517  11.1469

          k = 0.1250 0.4330 0.0000 ( 21113 PWs)   bands (ev):

   -53.1740 -53.0325 -52.9340 -52.9213 -27.6375 -27.5870 -27.5634 -27.5414
   -27.5239 -27.4185 -27.3838 -27.2935 -27.2587 -27.2432 -27.2257 -27.1525
   -10.6632  -9.6320  -9.5202  -7.0616  -6.1736  -6.0266  -4.7560  -4.6829
    -2.5018  -2.1039  -1.6599  -1.0151  -0.6070  -0.2580  -0.0257   0.7541
     1.3916   2.7266   2.7962   3.4089   3.6663   3.9835   4.1403   4.3224
     4.8109   4.9979   5.2836   5.5475   6.0670   6.2461   6.3822   6.5548
     6.8803   7.5235   8.3379   8.6208   8.9741   9.0879   9.6216   9.8859
    10.0260  10.1455  10.3143  10.6356  11.1488  11.3382

          k = 0.1250 0.5052 0.0000 ( 21081 PWs)   bands (ev):

   -53.1697 -53.0282 -52.9287 -52.9160 -27.6472 -27.6054 -27.5923 -27.5597
   -27.5544 -27.4196 -27.4099 -27.3074 -27.2769 -27.2435 -27.2345 -27.1665
   -10.1282  -9.1106  -9.0448  -7.6365  -6.7211  -6.6295  -4.5775  -4.5125
    -2.6289  -2.2226  -1.7657  -1.2171  -0.6451  -0.2723  -0.0890   0.6173
     1.1082   2.5428   2.5902   3.4932   3.6745   4.0713   4.0892   4.2505
     4.6921   4.8509   5.3678   5.7629   6.1312   6.5351   6.5931   6.6831
     7.0697   7.6823   8.3339   8.7550   8.9346   9.1469   9.5571   9.8747
    10.0159  10.2566  10.3820  10.5255  11.1895  11.3814

          k = 0.1250 0.5774 0.0000 ( 21108 PWs)   bands (ev):

   -53.1683 -53.0267 -52.9268 -52.9142 -27.6602 -27.6106 -27.6011 -27.5722
   -27.5517 -27.4322 -27.4068 -27.3124 -27.2833 -27.2497 -27.2315 -27.1715
    -9.8596  -8.8579  -8.8175  -7.8963  -6.9986  -6.9263  -4.5114  -4.4489
    -2.6725  -2.2605  -1.7811  -1.2993  -0.6557  -0.2578  -0.1166   0.5902
     0.9836   2.4734   2.5203   3.5635   3.6142   4.0502   4.1169   4.2397
     4.6255   4.8094   5.4195   5.8466   6.1533   6.6058   6.7174   6.8170
     7.1247   7.7877   8.3201   8.6496   8.9371   9.2357   9.4909   9.8690
     9.9448  10.3244  10.4596  10.5091  11.1637  11.3058

          k = 0.1875 0.3248 0.0000 ( 21195 PWs)   bands (ev):

   -53.1810 -53.0395 -52.9428 -52.9299 -27.6587 -27.5877 -27.4901 -27.4580
   -27.4532 -27.4309 -27.3156 -27.2796 -27.2576 -27.2405 -27.2083 -27.1386
   -11.2760 -10.2226 -10.0613  -6.4266  -5.5793  -5.3335  -4.9852  -4.9122
    -2.1304  -2.0150  -1.2328  -0.8019  -0.5907  -0.3978   0.0509   1.0469
     1.7963   3.0605   3.1755   3.3398   3.5242   4.1163   4.1340   4.2797
     4.8028   5.0937   5.3692   5.4638   5.9665   5.9981   6.1674   6.3080
     6.6521   7.8838   8.3849   8.5756   8.8127   9.1112   9.2670   9.6538
     9.8250  10.1541  10.3443  10.5798  10.7508  11.1080

          k = 0.1875 0.3969 0.0000 ( 21153 PWs)   bands (ev):

   -53.1746 -53.0331 -52.9348 -52.9220 -27.6373 -27.5753 -27.5454 -27.5119
   -27.4993 -27.4196 -27.3591 -27.3116 -27.2822 -27.2490 -27.2445 -27.1707
   -10.7440  -9.7098  -9.5880  -6.9051  -6.0268  -5.8531  -4.7793  -4.7092
    -2.4799  -2.1839  -1.5103  -1.0661  -0.8994  -0.6046  -0.0237   0.7845
     1.4790   2.8115   2.9106   3.5302   3.7171   4.0502   4.2025   4.3281
     4.7325   5.0419   5.2816   5.4349   5.9611   6.2629   6.3281   6.5445
     6.9248   7.8630   8.4620   8.7181   8.9228   9.2311   9.5875   9.8535
    10.0666  10.1134  10.4453  10.7669  11.0217  11.1638

          k = 0.1875 0.4691 0.0000 ( 21101 PWs)   bands (ev):

   -53.1698 -53.0282 -52.9287 -52.9160 -27.6275 -27.5884 -27.5624 -27.5481
   -27.5309 -27.4098 -27.3907 -27.3374 -27.3156 -27.2817 -27.2345 -27.1966
   -10.1821  -9.1598  -9.0771  -7.4897  -6.5631  -6.4529  -4.5784  -4.5164
    -2.7902  -2.2272  -1.7601  -1.2566  -1.0949  -0.5787  -0.0525   0.6009
     1.1487   2.6250   2.7078   3.6111   3.8720   4.0936   4.1578   4.3791
     4.6849   4.8695   5.1568   5.5167   6.1688   6.4865   6.6082   6.8524
     7.1974   7.7589   8.2409   8.7520   8.8791   9.2433   9.6094   9.8978
    10.2027  10.3554  10.5105  10.8005  11.2164  11.4592

          k = 0.1875 0.5413 0.0000 ( 21112 PWs)   bands (ev):

   -53.1671 -53.0256 -52.9254 -52.9128 -27.6347 -27.5925 -27.5805 -27.5481
   -27.5474 -27.4073 -27.4045 -27.3519 -27.3342 -27.2999 -27.2292 -27.2111
    -9.7179  -8.7089  -8.6696  -7.9506  -7.0207  -6.9500  -4.4618  -4.4027
    -2.9460  -2.2769  -1.8734  -1.3799  -1.1311  -0.5317  -0.0661   0.5572
     0.8885   2.5470   2.5831   3.7292   3.8487   4.0117   4.1283   4.4057
     4.6829   4.7968   5.2052   5.5971   6.3767   6.6388   6.8761   7.0251
     7.3638   7.6195   7.9778   8.4881   8.9878   9.2413   9.4688   9.8711
    10.3020  10.5123  10.6925  10.8252  11.2492  11.5143

          k = 0.2500 0.4330 0.0000 ( 21125 PWs)   bands (ev):

   -53.1698 -53.0282 -52.9287 -52.9160 -27.6234 -27.5756 -27.5556 -27.5351
   -27.5159 -27.4098 -27.3757 -27.3529 -27.3349 -27.3010 -27.2345 -27.2122
   -10.2031  -9.1793  -9.0904  -7.4254  -6.4967  -6.3771  -4.5785  -4.5183
    -2.8924  -2.1916  -1.6504  -1.4859  -1.2155  -0.6353  -0.0355   0.5761
     1.1718   2.6474   2.7883   3.5939   3.9293   4.1159   4.2321   4.3797
     4.5693   5.0346   5.1855   5.3697   5.9439   6.4785   6.7202   6.8879
     7.2359   7.9359   8.1606   8.7326   8.9082   9.2903   9.7641   9.8287
    10.2574  10.3840  10.6335  10.9182  11.2343  11.3126

          k = 0.2500 0.5052 0.0000 ( 21117 PWs)   bands (ev):

   -53.1665 -53.0249 -52.9246 -52.9120 -27.6171 -27.5767 -27.5545 -27.5416
   -27.5209 -27.4032 -27.3866 -27.3808 -27.3765 -27.3421 -27.2460 -27.2278
    -9.6539  -8.6366  -8.5851  -7.9662  -6.9970  -6.9261  -4.4348  -4.3780
    -3.1699  -2.2694  -1.9317  -1.5465  -1.3566  -0.5366  -0.0348   0.4577
     0.8626   2.6180   2.6843   3.6444   3.7900   4.1021   4.2793   4.3723
     4.7939   4.9625   5.2066   5.3555   6.0864   6.7225   6.9899   7.1364
     7.4905   7.6404   7.7705   8.5217   8.9417   9.1695   9.5560   9.8448
    10.4880  10.7294  10.9692  11.2007  11.3734  11.5645

          k = 0.2500 0.5774 0.0000 ( 21116 PWs)   bands (ev):

   -53.1654 -53.0238 -52.9232 -52.9106 -27.6153 -27.5753 -27.5542 -27.5416
   -27.5209 -27.4014 -27.3997 -27.3930 -27.3806 -27.3581 -27.2598 -27.2255
    -9.3294  -8.4158  -8.3107  -8.1647  -7.2993  -7.2481  -4.3825  -4.3261
    -3.2646  -2.3266  -2.0393  -1.5334  -1.3918  -0.4805  -0.0349   0.4573
     0.6921   2.6335   2.6490   3.5606   3.8160   4.1361   4.1720   4.4164
     4.7761   4.9843   5.2750   5.4886   6.2106   6.7616   6.9554   7.2611
     7.4821   7.5746   7.6504   8.4109   8.9998   9.1366   9.3587   9.7937
    10.6119  10.8995  11.2407  11.2650  11.3149  11.6437

          k = 0.3125 0.5413 0.0000 ( 21100 PWs)   bands (ev):

   -53.1647 -53.0232 -52.9224 -52.9098 -27.6077 -27.5606 -27.5456 -27.5295
   -27.4995 -27.4294 -27.4229 -27.3995 -27.3884 -27.3591 -27.2890 -27.2242
    -9.1184  -8.4987  -8.1115  -8.0634  -7.4561  -7.4152  -4.3542  -4.2984
    -3.3867  -2.3520  -2.1677  -1.5623  -1.4488  -0.3994  -0.0243   0.3653
     0.6337   2.6643   2.7614   3.3649   3.7466   4.1454   4.3943   4.4997
     4.7062   4.8167   5.5317   5.6622   6.0494   6.6086   6.7151   7.3778
     7.5173   7.6477   7.7251   8.4216   8.9584   9.0520   9.2785   9.7643
    10.7488  11.0695  11.2980  11.4461  11.5693  11.9827

     the Fermi energy is     8.5539 ev

!    total energy              =   -1976.66623659 Ry
     total all-electron energy =    -38769.987081 Ry
     estimated scf accuracy    <          1.0E-08 Ry
     smearing contrib. (-TS)   =       0.00062504 Ry
     internal energy E=F+TS    =   -1976.66686164 Ry

     The total energy is F=E-TS. E is the sum of the following terms:
     one-electron contribution =  -10027.35918781 Ry
     hartree contribution      =    5055.15765679 Ry
     xc contribution           =    -122.53099176 Ry
     ewald contribution        =    4388.07691791 Ry
     one-center paw contrib.   =   -1270.01125677 Ry

     convergence has been achieved in  17 iterations

     negative rho (up, down):  8.356E-05 0.000E+00

     Forces acting on atoms (cartesian axes, Ry/au):

     atom    1 type  2   force =     0.00000000   -0.00000000    0.00775050
     atom    2 type  1   force =     0.00000000    0.00000000   -0.08270397
     atom    3 type  2   force =     0.00000000    0.00000000   -0.22909487
     atom    4 type  2   force =     0.00000000    0.00000000    0.01444592
     atom    5 type  1   force =     0.00000000    0.00000000    0.00340699
     atom    6 type  2   force =     0.00000000   -0.00000000   -0.09205550
     atom    7 type  2   force =     0.00000000   -0.00000000    0.07291550
     atom    8 type  1   force =     0.00000000    0.00000000    0.02073935
     atom    9 type  2   force =     0.00000000    0.00000000   -0.08228345
     atom   10 type  2   force =     0.00000000    0.00000000    0.22643007
     atom   11 type  1   force =     0.00000000    0.00000000    0.15973162
     atom   12 type  2   force =     0.00000000    0.00000000   -0.01928215

     Total force =     0.397181     Total SCF correction =     0.000491
     Energy error            =      2.1E-01 Ry
     Gradient error          =      2.3E-01 Ry/Bohr

     number of scf cycles    =   5
     number of bfgs steps    =   4

     energy             old  =   -1976.4609492864 Ry
     energy             new  =   -1976.6662365941 Ry

     CASE: energy            _new < energy            _old

     new trust radius        =       0.7442849654 bohr
     new conv_thr            =       0.0000000100 Ry


ATOMIC_POSITIONS (crystal)
S                0.3333330000        0.6666670000        0.0010772208
Mo               0.0000000000        0.0000000000        0.0576681523
S                0.3333330000        0.6666670000        0.1126162391
S                0.6666670000        0.3333330000        0.1554870745
Mo               0.3333330000        0.6666670000        0.1977609098
S                0.6666670000        0.3333330000        0.2427435678
S               -0.0000000000       -0.0000000000        0.2754038127
Mo               0.6666670000        0.3333330000        0.3184830444
S               -0.0000000000       -0.0000000000        0.3645665181
S                0.3333330000        0.6666670000        0.4074595358
Mo               0.0000000000        0.0000000000        0.4635679905
S                0.3333330000        0.6666670000        0.5181659342



     Writing config-only to output data dir ./tmp/relax/mos2_slab.save/ :
     XML data file
     NEW-OLD atomic charge density approx. for the potential

     negative rho (up, down):  6.907E-05 0.000E+00

     total cpu time spent up to now is    13947.4 secs

     Self-consistent Calculation

     iteration #  1     ecut=    80.00 Ry     beta= 0.30
     Davidson diagonalization with overlap
     c_bands:  1 eigenvalues not converged
     c_bands:  1 eigenvalues not converged
     c_bands:  1 eigenvalues not converged
     c_bands:  3 eigenvalues not converged
     c_bands:  3 eigenvalues not converged
     c_bands:  2 eigenvalues not converged
     c_bands:  1 eigenvalues not converged
     c_bands:  1 eigenvalues not converged
     c_bands:  1 eigenvalues not converged
     c_bands:  1 eigenvalues not converged
     c_bands:  1 eigenvalues not converged
     c_bands:  2 eigenvalues not converged
     c_bands:  1 eigenvalues not converged
     c_bands:  2 eigenvalues not converged
     c_bands:  1 eigenvalues not converged
     c_bands:  3 eigenvalues not converged
     c_bands:  1 eigenvalues not converged
     c_bands:  3 eigenvalues not converged
     c_bands:  3 eigenvalues not converged
     c_bands:  2 eigenvalues not converged
     c_bands:  2 eigenvalues not converged
     ethr =  1.00E-06,  avg # of iterations = 19.2

     negative rho (up, down):  2.297E-05 0.000E+00

     total cpu time spent up to now is    14552.4 secs

     total energy              =   -1976.95385730 Ry
     estimated scf accuracy    <       0.45589327 Ry

     iteration #  2     ecut=    80.00 Ry     beta= 0.30
     Davidson diagonalization with overlap
     ethr =  4.38E-04,  avg # of iterations =  1.0

     negative rho (up, down):  2.495E-05 0.000E+00

     total cpu time spent up to now is    14653.3 secs

     total energy              =   -1976.89606505 Ry
     estimated scf accuracy    <       0.19496074 Ry

     iteration #  3     ecut=    80.00 Ry     beta= 0.30
     Davidson diagonalization with overlap
     ethr =  1.87E-04,  avg # of iterations =  2.0

     negative rho (up, down):  2.847E-04 0.000E+00

     total cpu time spent up to now is    14764.5 secs

     total energy              =   -1976.89951630 Ry
     estimated scf accuracy    <       0.02686558 Ry

     iteration #  4     ecut=    80.00 Ry     beta= 0.30
     Davidson diagonalization with overlap
     ethr =  2.58E-05,  avg # of iterations =  4.7

     negative rho (up, down):  7.713E-04 0.000E+00

     total cpu time spent up to now is    14885.9 secs

     total energy              =   -1976.90089999 Ry
     estimated scf accuracy    <       0.00367906 Ry

     iteration #  5     ecut=    80.00 Ry     beta= 0.30
     Davidson diagonalization with overlap
     ethr =  3.54E-06,  avg # of iterations =  9.0

     negative rho (up, down):  1.337E-03 0.000E+00

     total cpu time spent up to now is    15019.8 secs

     total energy              =   -1976.90002479 Ry
     estimated scf accuracy    <       0.00144190 Ry

     iteration #  6     ecut=    80.00 Ry     beta= 0.30
     Davidson diagonalization with overlap
     ethr =  1.39E-06,  avg # of iterations =  2.2

     negative rho (up, down):  1.539E-03 0.000E+00

     total cpu time spent up to now is    15146.0 secs

     total energy              =   -1976.90018904 Ry
     estimated scf accuracy    <       0.00051618 Ry

     iteration #  7     ecut=    80.00 Ry     beta= 0.30
     Davidson diagonalization with overlap
     ethr =  4.96E-07,  avg # of iterations =  1.2

     negative rho (up, down):  1.624E-03 0.000E+00

     total cpu time spent up to now is    15248.2 secs

     total energy              =   -1976.90009339 Ry
     estimated scf accuracy    <       0.00018381 Ry

     iteration #  8     ecut=    80.00 Ry     beta= 0.30
     Davidson diagonalization with overlap
     ethr =  1.77E-07,  avg # of iterations =  2.3

     negative rho (up, down):  1.597E-03 0.000E+00

     total cpu time spent up to now is    15364.9 secs

     total energy              =   -1976.90010541 Ry
     estimated scf accuracy    <       0.00003952 Ry

     iteration #  9     ecut=    80.00 Ry     beta= 0.30
     Davidson diagonalization with overlap
     ethr =  3.80E-08,  avg # of iterations =  3.3

     negative rho (up, down):  1.274E-03 0.000E+00

     total cpu time spent up to now is    15494.3 secs

     total energy              =   -1976.90010895 Ry
     estimated scf accuracy    <       0.00002367 Ry

     iteration # 10     ecut=    80.00 Ry     beta= 0.30
     Davidson diagonalization with overlap
     ethr =  2.28E-08,  avg # of iterations =  2.1

     negative rho (up, down):  1.052E-03 0.000E+00

     total cpu time spent up to now is    15613.0 secs

     total energy              =   -1976.90011282 Ry
     estimated scf accuracy    <       0.00001094 Ry

     iteration # 11     ecut=    80.00 Ry     beta= 0.30
     Davidson diagonalization with overlap
     ethr =  1.05E-08,  avg # of iterations =  2.3

     negative rho (up, down):  6.041E-04 0.000E+00

     total cpu time spent up to now is    15725.5 secs

     total energy              =   -1976.90011717 Ry
     estimated scf accuracy    <       0.00000622 Ry

     iteration # 12     ecut=    80.00 Ry     beta= 0.30
     Davidson diagonalization with overlap
     ethr =  5.98E-09,  avg # of iterations =  2.2

     negative rho (up, down):  3.502E-04 0.000E+00

     total cpu time spent up to now is    15846.4 secs

     total energy              =   -1976.90011710 Ry
     estimated scf accuracy    <       0.00000165 Ry

     iteration # 13     ecut=    80.00 Ry     beta= 0.30
     Davidson diagonalization with overlap
     ethr =  1.59E-09,  avg # of iterations =  2.5

     negative rho (up, down):  2.335E-04 0.000E+00

     total cpu time spent up to now is    15963.3 secs

     total energy              =   -1976.90011773 Ry
     estimated scf accuracy    <       0.00000064 Ry

     iteration # 14     ecut=    80.00 Ry     beta= 0.30
     Davidson diagonalization with overlap
     ethr =  6.17E-10,  avg # of iterations =  3.6

     negative rho (up, down):  1.424E-04 0.000E+00

     total cpu time spent up to now is    16087.0 secs

     total energy              =   -1976.90011957 Ry
     estimated scf accuracy    <       0.00000017 Ry

     iteration # 15     ecut=    80.00 Ry     beta= 0.30
     Davidson diagonalization with overlap
     ethr =  1.59E-10,  avg # of iterations =  3.7

     negative rho (up, down):  9.820E-05 0.000E+00

     total cpu time spent up to now is    16205.7 secs

     total energy              =   -1976.90012091 Ry
     estimated scf accuracy    <       0.00000005 Ry

     iteration # 16     ecut=    80.00 Ry     beta= 0.30
     Davidson diagonalization with overlap
     ethr =  4.61E-11,  avg # of iterations =  3.6

     negative rho (up, down):  8.884E-05 0.000E+00

     total cpu time spent up to now is    16328.1 secs

     total energy              =   -1976.90012125 Ry
     estimated scf accuracy    <       0.00000001 Ry

     iteration # 17     ecut=    80.00 Ry     beta= 0.30
     Davidson diagonalization with overlap
     ethr =  1.22E-11,  avg # of iterations =  3.5

     negative rho (up, down):  7.771E-05 0.000E+00

     total cpu time spent up to now is    16445.5 secs

     End of self-consistent calculation

          k = 0.0000 0.0000 0.0000 ( 21311 PWs)   bands (ev):

   -53.2326 -53.2116 -53.1362 -53.0247 -27.9524 -27.7579 -27.3348 -27.3348
   -27.3129 -27.3129 -27.2990 -27.2194 -27.0803 -27.0803 -26.9401 -26.9401
   -13.2097 -11.0504 -10.8456  -6.3595  -5.8904  -5.5921  -4.7806  -3.1776
    -0.8083   0.0541   0.0542   1.3784   2.1728   2.1728   2.3718   2.3718
     2.4641   3.5780   3.5780   3.6925   4.5633   4.7224   4.7224   5.1653
     5.1653   5.7251   5.8622   5.8622   6.3044   6.3044   6.4331   6.7828
     7.1477   7.1477   7.3495   7.5703   7.5769   7.5769   8.2148   8.2148
     8.2891   9.6256   9.6257   9.9197   9.9197  10.3052

          k = 0.0000 0.0722 0.0000 ( 21283 PWs)   bands (ev):

   -53.2307 -53.2097 -53.1347 -53.0232 -27.9474 -27.7535 -27.3562 -27.3394
   -27.3338 -27.3173 -27.2961 -27.2165 -27.0954 -27.0838 -26.9551 -26.9435
   -13.1454 -10.9887 -10.7901  -6.3089  -5.8425  -5.5516  -4.7633  -3.2570
    -0.8081  -0.2114  -0.0265   1.2618   1.9856   2.1120   2.2740   2.3814
     2.5266   3.4326   3.5670   3.7339   4.3319   4.7321   4.7727   4.9214
     5.1957   5.5885   5.8504   5.8869   6.1285   6.2652   6.5693   6.8337
     6.9870   7.2332   7.3784   7.4781   7.6090   7.9731   8.2868   8.3086
     8.8251   9.5879   9.6507   9.8516  10.0067  10.0105

          k = 0.0000 0.1443 0.0000 ( 21263 PWs)   bands (ev):

   -53.2253 -53.2042 -53.1303 -53.0189 -27.9330 -27.7411 -27.4165 -27.3927
   -27.3523 -27.3300 -27.2877 -27.2083 -27.1381 -27.0936 -26.9975 -26.9533
   -12.9553 -10.8061 -10.6239  -6.1763  -5.7053  -5.4359  -4.7249  -3.5190
    -1.0115  -0.5724  -0.2468   0.8984   1.4649   1.9553   2.0464   2.3678
     2.5263   3.1520   3.5956   3.7611   3.9883   4.2914   4.8303   4.8910
     5.2555   5.4620   5.6476   5.8341   5.9956   6.1981   6.4846   6.7883
     7.0072   7.3939   7.4022   7.6902   7.7629   8.0914   8.4579   8.8669
     9.4099   9.6236   9.7945   9.8234   9.9628  10.1688

          k = 0.0000 0.2165 0.0000 ( 21233 PWs)   bands (ev):

   -53.2171 -53.1959 -53.1238 -53.0124 -27.9116 -27.7224 -27.5055 -27.4796
   -27.3716 -27.3488 -27.2752 -27.2014 -27.1959 -27.1083 -27.0606 -26.9679
   -12.6475 -10.5100 -10.3494  -6.0365  -5.4977  -5.2615  -4.7051  -3.9838
    -1.5507  -0.6444  -0.5510   0.3997   0.7081   1.7549   1.7593   2.2322
     2.3227   2.9625   3.5802   3.8021   3.8261   4.0258   4.5425   5.0177
     5.1591   5.2543   5.5489   5.8502   5.9778   6.1911   6.3152   6.5452
     6.9278   7.4046   7.5335   7.6885   8.0602   8.3104   8.6869   9.2108
     9.2951   9.8488   9.9666  10.0548  10.2647  10.3684

          k = 0.0000 0.2887 0.0000 ( 21197 PWs)   bands (ev):

   -53.2075 -53.1861 -53.1161 -53.0048 -27.8865 -27.7005 -27.6086 -27.5802
   -27.3942 -27.3709 -27.2754 -27.2604 -27.1815 -27.1340 -27.1255 -26.9851
   -12.2346 -10.1133  -9.9713  -6.0747  -5.2490  -5.0785  -4.7425  -4.5228
    -2.0198  -0.8741  -0.8535  -0.0937   0.0764   1.3878   1.5344   2.0067
     2.0545   2.8618   3.3802   3.6998   3.8884   4.1692   4.2506   4.7603
     5.0923   5.1808   5.5186   5.9497   5.9663   6.2119   6.2595   6.3225
     6.6977   7.2732   7.5793   7.7364   8.3620   8.4142   8.9572   9.2757
     9.4562   9.9404  10.2650  10.3389  10.5309  10.6911

          k = 0.0000 0.3608 0.0000 ( 21187 PWs)   bands (ev):

   -53.1979 -53.1764 -53.1084 -52.9971 -27.8621 -27.7097 -27.6868 -27.6699
   -27.4167 -27.3929 -27.3485 -27.2455 -27.2073 -27.1663 -27.1426 -27.0022
   -11.7352  -9.6367  -9.5019  -6.5057  -5.2229  -5.0838  -4.8198  -4.6230
    -2.3452  -1.2595  -1.1649  -0.5831  -0.1169   1.0417   1.3167   1.7102
     1.7792   2.8732   3.1556   3.5523   3.6739   4.0674   4.4721   4.5200
     5.1125   5.1846   5.3857   5.9441   6.0542   6.1315   6.3119   6.3806
     6.6623   7.0872   7.5337   8.0373   8.3867   8.6677   9.2162   9.4626
     9.7110  10.0112  10.3270  10.5369  10.5398  10.8966

          k = 0.0000 0.4330 0.0000 ( 21140 PWs)   bands (ev):

   -53.1897 -53.1681 -53.1018 -52.9906 -27.8457 -27.7891 -27.7631 -27.6574
   -27.4357 -27.4114 -27.4099 -27.2682 -27.2329 -27.1572 -27.1541 -27.0166
   -11.1822  -9.1199  -8.9724  -7.1926  -5.6515  -5.4508  -4.6193  -4.3775
    -2.4902  -1.6321  -1.3906  -0.8853  -0.1453   0.7947   1.1338   1.3471
     1.5975   2.7893   2.9505   3.1977   3.7335   3.9179   4.3735   4.4875
     5.1014   5.3045   5.3929   5.8854   5.9965   6.3756   6.4008   6.5534
     6.7097   7.0138   7.6494   8.3790   8.4072   8.9890   9.4806   9.6712
     9.9408  10.1114  10.2339  10.3800  10.5452  11.0481

          k = 0.0000 0.5052 0.0000 ( 21078 PWs)   bands (ev):

   -53.1842 -53.1625 -53.0974 -52.9862 -27.8625 -27.8201 -27.8112 -27.6448
   -27.4505 -27.4483 -27.4238 -27.3086 -27.2244 -27.1668 -27.1458 -27.0262
   -10.6575  -8.6784  -8.4697  -7.8027  -6.1382  -5.9304  -4.4274  -4.1811
    -2.4955  -1.8736  -1.5323  -1.0338  -0.1048   0.6462   1.0134   1.0693
     1.4821   2.5615   2.8793   2.9404   3.7261   3.8899   4.2848   4.4192
     5.0541   5.2636   5.5664   5.8792   6.0215   6.4840   6.5898   6.6702
     6.7913   7.0805   7.9556   8.5321   8.6680   9.2202   9.6797   9.7278
     9.8815  10.1195  10.1967  10.4615  10.5263  11.0989

          k = 0.0000-0.5774 0.0000 ( 21006 PWs)   bands (ev):

   -53.1823 -53.1605 -53.0959 -52.9847 -27.8786 -27.8375 -27.8112 -27.6403
   -27.4648 -27.4527 -27.4281 -27.3228 -27.2215 -27.1702 -27.1428 -27.0296
   -10.4000  -8.5682  -8.2281  -7.9781  -6.3871  -6.1788  -4.3552  -4.1073
    -2.4737  -1.9629  -1.5806  -1.0767  -0.0716   0.5911   0.9633   0.9716
     1.4426   2.4717   2.7852   2.9103   3.6801   3.9145   4.2592   4.3895
     5.0342   5.2365   5.6129   5.9179   6.0249   6.5195   6.6293   6.6533
     6.9415   7.1424   8.1214   8.7252   8.7866   9.2778   9.5091   9.6737
     9.8389  10.0907  10.3548  10.5062  10.5906  11.0942

          k = 0.0625 0.1083 0.0000 ( 21269 PWs)   bands (ev):

   -53.2270 -53.2060 -53.1317 -53.0203 -27.9377 -27.7451 -27.3964 -27.3731
   -27.3486 -27.3265 -27.2904 -27.2109 -27.1238 -27.0909 -26.9834 -26.9506
   -13.0182 -10.8665 -10.6792  -6.2169  -5.7499  -5.4735  -4.7353  -3.4274
    -0.8957  -0.5135  -0.2005   1.0271   1.6677   1.9573   2.0902   2.4001
     2.5434   3.3500   3.4237   3.7852   4.1523   4.3775   4.6997   5.0948
     5.1403   5.4788   5.7399   5.7932   6.0660   6.1643   6.6328   6.8282
     6.9326   7.3249   7.3933   7.6321   7.7940   7.9731   8.4679   8.7998
     9.2908   9.4824   9.6775   9.9013  10.0134  10.0403

          k = 0.0625 0.1804 0.0000 ( 21194 PWs)   bands (ev):

   -53.2203 -53.1991 -53.1263 -53.0149 -27.9198 -27.7296 -27.4694 -27.4445
   -27.3663 -27.3438 -27.2800 -27.2007 -27.1756 -27.1043 -27.0349 -26.9639
   -12.7692 -10.6270 -10.4587  -6.0772  -5.5774  -5.3282  -4.7057  -3.7918
    -1.3254  -0.6793  -0.4482   0.6092   1.0433   1.6939   1.8317   2.2797
     2.4625   3.1572   3.4812   3.7875   3.9515   4.1083   4.5606   4.9961
     5.1804   5.3802   5.5138   5.7346   6.0527   6.1250   6.5021   6.7257
     6.9213   7.3631   7.4701   7.8157   8.0742   8.1913   8.6146   9.1811
     9.3751   9.5973   9.7719  10.0333  10.1479  10.1655

          k = 0.0625 0.2526 0.0000 ( 21202 PWs)   bands (ev):

   -53.2114 -53.1901 -53.1192 -53.0078 -27.8965 -27.7092 -27.5633 -27.5361
   -27.3895 -27.3664 -27.2663 -27.2427 -27.1872 -27.1218 -27.1016 -26.9814
   -12.4085 -10.2800 -10.1318  -6.0149  -5.3479  -5.1407  -4.7191  -4.3032
    -1.8131  -0.9762  -0.6033   0.1348   0.3367   1.3814   1.5163   2.0168
     2.2802   3.0210   3.4806   3.7128   3.9516   4.1232   4.3473   4.7943
     5.0332   5.1513   5.5729   5.8245   6.0193   6.1671   6.3713   6.4899
     6.7540   7.3374   7.5562   7.8584   8.3476   8.4799   8.8021   9.2674
     9.4172   9.7404  10.0451  10.2187  10.4379  10.5325

          k = 0.0625 0.3248 0.0000 ( 21194 PWs)   bands (ev):

   -53.2018 -53.1803 -53.1115 -53.0002 -27.8717 -27.6881 -27.6625 -27.6328
   -27.4144 -27.3907 -27.3145 -27.2515 -27.1760 -27.1696 -27.1407 -27.0002
   -11.9510  -9.8415  -9.7062  -6.2590  -5.1323  -5.0591  -4.7633  -4.6869
    -2.1952  -1.3335  -0.9146  -0.3248  -0.0525   1.0353   1.2357   1.7156
     2.0151   2.9836   3.3264   3.6472   3.7663   4.1826   4.4104   4.5580
     4.9493   5.1147   5.5350   5.8388   6.0531   6.1580   6.3148   6.4641
     6.5872   7.1738   7.6454   8.0104   8.4224   8.6925   9.0741   9.4266
     9.5938   9.9391  10.2868  10.3519  10.6475  10.7693

          k = 0.0625 0.3969 0.0000 ( 21151 PWs)   bands (ev):

   -53.1929 -53.1712 -53.1043 -52.9931 -27.8502 -27.7520 -27.7240 -27.6642
   -27.4373 -27.4131 -27.3801 -27.2386 -27.2377 -27.1588 -27.1582 -27.0176
   -11.4201  -9.3383  -9.2010  -6.8596  -5.4294  -5.2372  -4.7160  -4.4808
    -2.4286  -1.6445  -1.2954  -0.6920  -0.1336   0.7769   0.9831   1.4388
     1.6872   2.9755   3.0927   3.3913   3.7238   4.0501   4.4015   4.5028
     5.0201   5.2177   5.4998   5.7833   5.9179   6.1744   6.4846   6.5290
     6.7475   7.0680   7.6729   8.2755   8.4525   8.9345   9.3375   9.6400
     9.8522  10.0007  10.2756  10.4642  10.6690  10.9642

          k = 0.0625 0.4691 0.0000 ( 21105 PWs)   bands (ev):

   -53.1860 -53.1643 -53.0989 -52.9876 -27.8459 -27.8073 -27.7899 -27.6489
   -27.4548 -27.4302 -27.4299 -27.2881 -27.2272 -27.1715 -27.1485 -27.0308
   -10.8645  -8.8333  -8.6673  -7.5477  -5.9110  -5.7014  -4.4929  -4.2487
    -2.5146  -1.8649  -1.5416  -0.9226  -0.1163   0.6406   0.7802   1.2147
     1.4006   2.7107   3.0225   3.1149   3.8013   3.9719   4.3069   4.4294
     4.9960   5.2840   5.5307   5.8137   5.9417   6.2902   6.5822   6.7034
     6.9033   7.1107   7.8532   8.4912   8.5779   9.1356   9.5611   9.8013
     9.9416  10.0746  10.1919  10.3835  10.6811  11.1491

          k = 0.0625 0.5413 0.0000 ( 21084 PWs)   bands (ev):

   -53.1823 -53.1605 -53.0959 -52.9847 -27.8689 -27.8272 -27.8099 -27.6403
   -27.4642 -27.4567 -27.4394 -27.3148 -27.2215 -27.1786 -27.1428 -27.0380
   -10.4264  -8.5443  -8.2527  -7.9573  -6.3262  -6.1162  -4.3567  -4.1092
    -2.5261  -1.9779  -1.6458  -1.0376  -0.0708   0.5935   0.6608   1.0756
     1.2383   2.5387   2.8330   3.0960   3.7423   4.0302   4.2705   4.3553
     4.9526   5.2675   5.4944   5.8996   6.0468   6.3864   6.6129   6.8807
     7.0103   7.1872   8.0924   8.6305   8.7687   9.1589   9.5981   9.6922
     9.8950  10.0976  10.3575  10.4310  10.6912  11.1610

          k = 0.1250 0.2165 0.0000 ( 21179 PWs)   bands (ev):

   -53.2127 -53.1914 -53.1203 -53.0089 -27.9001 -27.7123 -27.5444 -27.5178
   -27.3906 -27.3677 -27.2684 -27.2291 -27.1893 -27.1226 -27.0881 -26.9822
   -12.4671 -10.3363 -10.1855  -6.0053  -5.3826  -5.1667  -4.7098  -4.2086
    -1.6957  -1.0813  -0.5230   0.2370   0.5192   1.2928   1.3844   2.0733
     2.3516   3.2671   3.3868   3.7381   3.9670   4.1573   4.3773   4.7179
     4.9940   5.2053   5.5966   5.7127   6.0184   6.1085   6.4645   6.6497
     6.7736   7.3907   7.5556   7.9790   8.3756   8.5002   8.8652   9.2361
     9.3910   9.4963  10.0102  10.2264  10.2855  10.4617

          k = 0.1250 0.2887 0.0000 ( 21199 PWs)   bands (ev):

   -53.2039 -53.1824 -53.1131 -53.0018 -27.8770 -27.6921 -27.6299 -27.6013
   -27.4208 -27.3972 -27.2905 -27.2547 -27.1760 -27.1489 -27.1454 -27.0049
   -12.0606  -9.9456  -9.8092  -6.1396  -5.1558  -5.0397  -4.7341  -4.6231
    -2.0386  -1.5487  -0.6753  -0.1382   0.0530   0.8355   0.9999   1.7451
     2.1650   3.2077   3.4491   3.6568   3.8716   4.2412   4.3696   4.5564
     4.7784   5.1526   5.5856   5.7320   5.9647   6.0726   6.4375   6.5446
     6.6411   7.3647   7.7745   8.1899   8.4021   8.8891   9.0658   9.4117
     9.5286   9.6573  10.1543  10.3186  10.5263  10.7423

          k = 0.1250 0.3608 0.0000 ( 21195 PWs)   bands (ev):

   -53.1950 -53.1734 -53.1060 -52.9947 -27.8545 -27.7133 -27.6879 -27.6664
   -27.4514 -27.4271 -27.3508 -27.2410 -27.2095 -27.1685 -27.1619 -27.0279
   -11.5670  -9.4740  -9.3417  -6.6131  -5.2779  -5.0940  -4.7628  -4.5446
    -2.3275  -1.9056  -1.0340  -0.4570  -0.1572   0.4908   0.7066   1.4088
     1.8527   3.1987   3.3176   3.5518   3.6993   4.2390   4.3743   4.4551
     4.9236   5.2011   5.4849   5.6278   5.9256   6.0551   6.3824   6.6238
     6.8012   7.2684   7.9128   8.3780   8.5024   9.1015   9.2656   9.5753
     9.8047   9.9381  10.2437  10.4563  10.7217  10.9287

          k = 0.1250 0.4330 0.0000 ( 21113 PWs)   bands (ev):

   -53.1874 -53.1657 -53.0999 -52.9887 -27.8389 -27.7791 -27.7531 -27.6520
   -27.4775 -27.4526 -27.4014 -27.2597 -27.2293 -27.1882 -27.1505 -27.0475
   -11.0163  -8.9577  -8.8134  -7.2824  -5.7040  -5.4880  -4.5419  -4.3011
    -2.5716  -2.0567  -1.3801  -0.7251  -0.2078   0.3275   0.5140   1.1150
     1.4916   2.9203   3.1774   3.4195   3.8525   4.1045   4.3151   4.4857
     4.9498   5.1516   5.4369   5.7025   5.8916   6.1402   6.4488   6.8486
     7.0653   7.2497   7.9471   8.5440   8.5974   9.1656   9.4870   9.7426
     9.9288  10.0771  10.2856  10.5094  10.8108  11.1023

          k = 0.1250 0.5052 0.0000 ( 21081 PWs)   bands (ev):

   -53.1823 -53.1605 -53.0959 -52.9847 -27.8459 -27.8057 -27.7974 -27.6404
   -27.4949 -27.4695 -27.4349 -27.2931 -27.2215 -27.2014 -27.1429 -27.0606
   -10.4853  -8.5153  -8.3078  -7.8716  -6.1805  -5.9653  -4.3602  -4.1140
    -2.7363  -2.0640  -1.5934  -0.9156  -0.2209   0.3233   0.4387   0.8972
     1.1730   2.6922   2.9322   3.4624   3.8888   4.1089   4.2831   4.4403
     4.8547   5.0410   5.4548   5.8185   5.9399   6.4268   6.5348   7.0092
     7.2409   7.3394   8.0398   8.5531   8.6773   9.1071   9.5956   9.7806
     9.9312  10.1760  10.3832  10.5481  10.8555  11.0484

          k = 0.1250 0.5774 0.0000 ( 21108 PWs)   bands (ev):

   -53.1806 -53.1587 -53.0945 -52.9833 -27.8571 -27.8145 -27.8046 -27.6362
   -27.5011 -27.4755 -27.4466 -27.3047 -27.2188 -27.2060 -27.1402 -27.0652
   -10.2168  -8.4680  -8.0677  -7.9698  -6.4304  -6.2170  -4.2926  -4.0442
    -2.7926  -2.0482  -1.6636  -0.9887  -0.2234   0.3334   0.4655   0.8038
     1.0263   2.6064   2.8419   3.4848   3.8552   4.1357   4.2809   4.4108
     4.8036   4.9993   5.4879   5.8272   5.9885   6.5489   6.6359   7.1224
     7.2341   7.4011   8.0846   8.4823   8.6892   9.0910   9.6476   9.7670
     9.9665  10.1816  10.4705  10.5542  10.8382  10.9822

          k = 0.1875 0.3248 0.0000 ( 21195 PWs)   bands (ev):

   -53.1957 -53.1741 -53.1066 -52.9953 -27.8562 -27.6957 -27.6779 -27.6608
   -27.4602 -27.4359 -27.3376 -27.2421 -27.1965 -27.1751 -27.1629 -27.0345
   -11.6166  -9.5200  -9.3892  -6.5211  -5.2245  -5.0468  -4.7685  -4.5652
    -2.2794  -2.0283  -0.8526  -0.3618  -0.1917   0.3271   0.5277   1.4267
     1.9139   3.3180   3.4105   3.5898   3.7049   4.3071   4.3457   4.3927
     4.9180   5.2076   5.4594   5.6273   5.9135   5.9892   6.2426   6.6676
     6.8666   7.4879   8.0472   8.4130   8.4889   9.1038   9.3726   9.6506
     9.7894   9.8539  10.2208  10.3499  10.6499  10.8328

          k = 0.1875 0.3969 0.0000 ( 21153 PWs)   bands (ev):

   -53.1881 -53.1664 -53.1005 -52.9893 -27.8383 -27.7506 -27.7235 -27.6535
   -27.5000 -27.4749 -27.3782 -27.2367 -27.2304 -27.2052 -27.1516 -27.0644
   -11.0959  -9.0252  -8.8901  -7.1081  -5.5791  -5.3554  -4.5671  -4.3296
    -2.7063  -2.1106  -1.1358  -0.5469  -0.4227   0.0062   0.3011   1.1091
     1.5768   3.1003   3.2524   3.5889   3.8627   4.1594   4.3797   4.4848
     4.8612   5.1321   5.4206   5.4853   5.9141   6.1383   6.2661   6.9004
     7.1482   7.4840   8.0714   8.5611   8.6847   9.3030   9.4629   9.7362
    10.0349  10.1403  10.2738  10.5645  10.7185  10.8796

          k = 0.1875 0.4691 0.0000 ( 21101 PWs)   bands (ev):

   -53.1823 -53.1605 -53.0959 -52.9847 -27.8296 -27.7857 -27.7637 -27.6404
   -27.5321 -27.5062 -27.4077 -27.2660 -27.2295 -27.2215 -27.1429 -27.0887
   -10.5386  -8.5162  -8.3580  -7.7448  -6.0351  -5.8129  -4.3634  -4.1191
    -3.0339  -2.0677  -1.4112  -0.7698  -0.5763  -0.0205   0.2519   0.8456
     1.2157   2.8806   3.0264   3.6419   4.0164   4.1269   4.3872   4.4877
     4.8211   4.9256   5.2329   5.5659   6.1006   6.2795   6.5279   7.1453
     7.3863   7.4721   8.0334   8.4773   8.6458   9.2654   9.5562   9.7917
    10.0936  10.3597  10.4842  10.6502  10.7848  11.1500

          k = 0.1875 0.5413 0.0000 ( 21112 PWs)   bands (ev):

   -53.1792 -53.1574 -53.0934 -52.9822 -27.8338 -27.7948 -27.7851 -27.6332
   -27.5500 -27.5236 -27.4232 -27.2814 -27.2431 -27.2167 -27.1381 -27.1022
   -10.0732  -8.3956  -7.9853  -7.8992  -6.4433  -6.2284  -4.2445  -3.9956
    -3.1983  -2.0194  -1.5650  -0.9323  -0.6387   0.0759   0.2805   0.7073
     0.9150   2.7421   2.9121   3.7072   3.9878   4.1336   4.3731   4.4540
     4.7056   4.8725   5.3010   5.6149   6.2706   6.3834   6.7828   7.2937
     7.3564   7.6202   7.9283   8.2014   8.5644   9.2437   9.6464   9.8830
    10.0757  10.3940  10.6566  10.7208  10.8547  11.1696

          k = 0.2500 0.4330 0.0000 ( 21125 PWs)   bands (ev):

   -53.1823 -53.1605 -53.0959 -52.9847 -27.8262 -27.7709 -27.7462 -27.6405
   -27.5508 -27.5247 -27.3935 -27.2518 -27.2441 -27.2215 -27.1429 -27.1032
   -10.5593  -8.5219  -8.3776  -7.6829  -5.9745  -5.7487  -4.3647  -4.1213
    -3.1684  -2.0416  -1.2622  -0.9157  -0.5029  -0.3143   0.2279   0.8327
     1.2436   2.9866   3.0587   3.6441   4.0485   4.2280   4.3858   4.4355
     4.7266   5.1120   5.2192   5.3590   5.9286   6.2638   6.6622   7.1634
     7.4595   7.5634   7.9858   8.4190   8.6586   9.4662   9.5832   9.6775
    10.2152  10.4207  10.4823  10.7541  10.7899  11.0253

          k = 0.2500 0.5052 0.0000 ( 21117 PWs)   bands (ev):

   -53.1785 -53.1566 -53.0928 -52.9816 -27.8195 -27.7764 -27.7551 -27.6320
   -27.5912 -27.5641 -27.3978 -27.2761 -27.2560 -27.2156 -27.1371 -27.1350
   -10.0078  -8.3178  -7.9811  -7.8477  -6.4162  -6.2021  -4.2189  -3.9697
    -3.4677  -1.9632  -1.4574  -1.1214  -0.7347  -0.1838   0.2667   0.6281
     0.9013   2.8795   3.0049   3.6993   3.9247   4.1765   4.3697   4.4628
     4.9061   4.9174   5.2104   5.3682   6.0119   6.5122   6.9157   7.3943
     7.4536   7.7114   7.7783   8.0630   8.4831   9.4708   9.5910   9.7460
    10.3239  10.4910  10.7075  10.9045  11.0643  11.3601

          k = 0.2500 0.5774 0.0000 ( 21116 PWs)   bands (ev):

   -53.1771 -53.1552 -53.0917 -52.9805 -27.8173 -27.7764 -27.7565 -27.6293
   -27.6071 -27.5795 -27.3974 -27.2891 -27.2557 -27.2135 -27.1481 -27.1349
    -9.6798  -8.6427  -7.7084  -7.5636  -6.6807  -6.4723  -4.1659  -3.9140
    -3.5689  -1.9350  -1.5539  -1.1719  -0.8152  -0.0790   0.3048   0.5858
     0.6853   2.8364   3.0150   3.6740   3.9183   4.1274   4.2963   4.5089
     4.8496   4.9068   5.2274   5.5467   6.1052   6.5844   6.9519   7.4131
     7.4670   7.5549   7.8295   7.9055   8.5091   9.4175   9.5592   9.7301
    10.3127  10.6595  10.7605  10.9927  11.1073  11.4662

          k = 0.3125 0.5413 0.0000 ( 21100 PWs)   bands (ev):

   -53.1764 -53.1545 -53.0911 -52.9799 -27.8113 -27.7600 -27.7365 -27.6371
   -27.6303 -27.6070 -27.3758 -27.3179 -27.2340 -27.2123 -27.1768 -27.1338
    -9.4648  -8.8162  -7.5544  -7.3953  -6.8031  -6.5998  -4.1380  -3.8848
    -3.7054  -1.8753  -1.6228  -1.2640  -0.8625  -0.0521   0.3123   0.4550
     0.6455   2.8916   3.1437   3.5274   3.8282   4.0561   4.4901   4.5313
     4.7735   4.8878   5.3124   5.6776   5.9198   6.6185   6.9283   7.2653
     7.4654   7.6227   7.9053   7.9300   8.4479   9.4594   9.5152   9.5987
    10.4569  10.6088  10.9408  11.0553  11.2763  11.8492

     the Fermi energy is     8.3314 ev

!    total energy              =   -1976.90012173 Ry
     total all-electron energy =    -38770.220966 Ry
     estimated scf accuracy    <          5.4E-09 Ry
     smearing contrib. (-TS)   =       0.00019677 Ry
     internal energy E=F+TS    =   -1976.90031850 Ry

     The total energy is F=E-TS. E is the sum of the following terms:
     one-electron contribution =   -9084.20065336 Ry
     hartree contribution      =    4583.55057086 Ry
     xc contribution           =    -121.86617158 Ry
     ewald contribution        =    3915.58680277 Ry
     one-center paw contrib.   =   -1269.97086719 Ry

     convergence has been achieved in  17 iterations

     negative rho (up, down):  7.771E-05 0.000E+00

     Forces acting on atoms (cartesian axes, Ry/au):

     atom    1 type  2   force =     0.00000000    0.00000000    0.06790464
     atom    2 type  1   force =     0.00000000   -0.00000000   -0.08202369
     atom    3 type  2   force =     0.00000000   -0.00000000   -0.30855859
     atom    4 type  2   force =     0.00000000    0.00000000    0.01469186
     atom    5 type  1   force =     0.00000000   -0.00000000    0.04680538
     atom    6 type  2   force =     0.00000000    0.00000000   -0.11520766
     atom    7 type  2   force =     0.00000000    0.00000000    0.11292317
     atom    8 type  1   force =     0.00000000    0.00000000    0.00128951
     atom    9 type  2   force =     0.00000000    0.00000000   -0.05837432
     atom   10 type  2   force =     0.00000000    0.00000000    0.28417060
     atom   11 type  1   force =     0.00000000    0.00000000    0.08589282
     atom   12 type  2   force =     0.00000000    0.00000000   -0.04951373

     Total force =     0.478508     Total SCF correction =     0.000274
     Energy error            =      2.3E-01 Ry
     Gradient error          =      3.1E-01 Ry/Bohr

     number of scf cycles    =   6
     number of bfgs steps    =   5

     energy             old  =   -1976.6662365941 Ry
     energy             new  =   -1976.9001217262 Ry

     CASE: energy            _new < energy            _old

     new trust radius        =       0.8000000000 bohr
     new conv_thr            =       0.0000000100 Ry


ATOMIC_POSITIONS (crystal)
S                0.3333330000        0.6666670000       -0.0130053081
Mo              -0.0000000000       -0.0000000000        0.0464332929
S                0.3333330000        0.6666670000        0.1041580876
S                0.6666670000        0.3333330000        0.1523238195
Mo               0.3333330000        0.6666670000        0.1985419113
S                0.6666670000        0.3333330000        0.2422310272
S               -0.0000000000       -0.0000000000        0.2746487718
Mo               0.6666670000        0.3333330000        0.3191217404
S               -0.0000000000       -0.0000000000        0.3665536950
S                0.3333330000        0.6666670000        0.4158333306
Mo               0.0000000000        0.0000000000        0.4758823053
S                0.3333330000        0.6666670000        0.5322773265



     Writing config-only to output data dir ./tmp/relax/mos2_slab.save/ :
     XML data file
     NEW-OLD atomic charge density approx. for the potential

     negative rho (up, down):  6.050E-05 0.000E+00

     total cpu time spent up to now is    16500.8 secs

     Self-consistent Calculation

     iteration #  1     ecut=    80.00 Ry     beta= 0.30
     Davidson diagonalization with overlap
     c_bands:  1 eigenvalues not converged
     c_bands:  2 eigenvalues not converged
     c_bands:  3 eigenvalues not converged
     c_bands:  1 eigenvalues not converged
     c_bands:  1 eigenvalues not converged
     c_bands:  2 eigenvalues not converged
     c_bands:  3 eigenvalues not converged
     c_bands:  3 eigenvalues not converged
     c_bands:  1 eigenvalues not converged
     c_bands:  1 eigenvalues not converged
     c_bands:  1 eigenvalues not converged
     c_bands:  2 eigenvalues not converged
     c_bands:  2 eigenvalues not converged
     c_bands:  1 eigenvalues not converged
     c_bands:  2 eigenvalues not converged
     c_bands:  1 eigenvalues not converged
     c_bands:  2 eigenvalues not converged
     c_bands:  1 eigenvalues not converged
     c_bands:  1 eigenvalues not converged
     c_bands:  2 eigenvalues not converged
     c_bands:  2 eigenvalues not converged
     c_bands:  1 eigenvalues not converged
     ethr =  1.00E-06,  avg # of iterations = 19.2

     negative rho (up, down):  1.300E-05 0.000E+00

     total cpu time spent up to now is    17126.1 secs

     total energy              =   -1977.21413953 Ry
     estimated scf accuracy    <       0.25151133 Ry

     iteration #  2     ecut=    80.00 Ry     beta= 0.30
     Davidson diagonalization with overlap
     ethr =  2.42E-04,  avg # of iterations =  1.0

     negative rho (up, down):  4.999E-06 0.000E+00

     total cpu time spent up to now is    17226.6 secs

     total energy              =   -1977.14406349 Ry
     estimated scf accuracy    <       0.10925758 Ry

     iteration #  3     ecut=    80.00 Ry     beta= 0.30
     Davidson diagonalization with overlap
     ethr =  1.05E-04,  avg # of iterations =  2.0

     negative rho (up, down):  2.295E-05 0.000E+00

     total cpu time spent up to now is    17339.4 secs

     total energy              =   -1977.14427361 Ry
     estimated scf accuracy    <       0.01892726 Ry

     iteration #  4     ecut=    80.00 Ry     beta= 0.30
     Davidson diagonalization with overlap
     ethr =  1.82E-05,  avg # of iterations =  4.4

     negative rho (up, down):  1.421E-04 0.000E+00

     total cpu time spent up to now is    17458.7 secs

     total energy              =   -1977.14559521 Ry
     estimated scf accuracy    <       0.00301383 Ry

     iteration #  5     ecut=    80.00 Ry     beta= 0.30
     Davidson diagonalization with overlap
     ethr =  2.90E-06,  avg # of iterations =  7.4

     negative rho (up, down):  3.465E-04 0.000E+00

     total cpu time spent up to now is    17588.0 secs

     total energy              =   -1977.14524474 Ry
     estimated scf accuracy    <       0.00147227 Ry

     iteration #  6     ecut=    80.00 Ry     beta= 0.30
     Davidson diagonalization with overlap
     ethr =  1.42E-06,  avg # of iterations =  2.0

     negative rho (up, down):  5.068E-04 0.000E+00

     total cpu time spent up to now is    17703.5 secs

     total energy              =   -1977.14530806 Ry
     estimated scf accuracy    <       0.00064190 Ry

     iteration #  7     ecut=    80.00 Ry     beta= 0.30
     Davidson diagonalization with overlap
     ethr =  6.17E-07,  avg # of iterations =  1.6

     negative rho (up, down):  6.112E-04 0.000E+00

     total cpu time spent up to now is    17806.1 secs

     total energy              =   -1977.14514903 Ry
     estimated scf accuracy    <       0.00016337 Ry

     iteration #  8     ecut=    80.00 Ry     beta= 0.30
     Davidson diagonalization with overlap
     ethr =  1.57E-07,  avg # of iterations =  2.9

     negative rho (up, down):  6.042E-04 0.000E+00

     total cpu time spent up to now is    17933.7 secs

     total energy              =   -1977.14517689 Ry
     estimated scf accuracy    <       0.00002075 Ry

     iteration #  9     ecut=    80.00 Ry     beta= 0.30
     Davidson diagonalization with overlap
     ethr =  2.00E-08,  avg # of iterations =  5.0

     negative rho (up, down):  5.326E-04 0.000E+00

     total cpu time spent up to now is    18064.8 secs

     total energy              =   -1977.14517573 Ry
     estimated scf accuracy    <       0.00001552 Ry

     iteration # 10     ecut=    80.00 Ry     beta= 0.30
     Davidson diagonalization with overlap
     ethr =  1.49E-08,  avg # of iterations =  2.0

     negative rho (up, down):  4.086E-04 0.000E+00

     total cpu time spent up to now is    18179.6 secs

     total energy              =   -1977.14517618 Ry
     estimated scf accuracy    <       0.00001286 Ry

     iteration # 11     ecut=    80.00 Ry     beta= 0.30
     Davidson diagonalization with overlap
     ethr =  1.24E-08,  avg # of iterations =  1.8

     negative rho (up, down):  3.252E-04 0.000E+00

     total cpu time spent up to now is    18288.8 secs

     total energy              =   -1977.14517678 Ry
     estimated scf accuracy    <       0.00000321 Ry

     iteration # 12     ecut=    80.00 Ry     beta= 0.30
     Davidson diagonalization with overlap
     ethr =  3.09E-09,  avg # of iterations =  1.9

     negative rho (up, down):  1.756E-04 0.000E+00

     total cpu time spent up to now is    18399.9 secs

     total energy              =   -1977.14517854 Ry
     estimated scf accuracy    <       0.00000100 Ry

     iteration # 13     ecut=    80.00 Ry     beta= 0.30
     Davidson diagonalization with overlap
     ethr =  9.62E-10,  avg # of iterations =  4.0

     negative rho (up, down):  1.677E-04 0.000E+00

     total cpu time spent up to now is    18526.3 secs

     total energy              =   -1977.14517874 Ry
     estimated scf accuracy    <       0.00000067 Ry

     iteration # 14     ecut=    80.00 Ry     beta= 0.30
     Davidson diagonalization with overlap
     ethr =  6.49E-10,  avg # of iterations =  2.1

     negative rho (up, down):  1.459E-04 0.000E+00

     total cpu time spent up to now is    18643.1 secs

     total energy              =   -1977.14517937 Ry
     estimated scf accuracy    <       0.00000015 Ry

     iteration # 15     ecut=    80.00 Ry     beta= 0.30
     Davidson diagonalization with overlap
     ethr =  1.45E-10,  avg # of iterations =  3.5

     negative rho (up, down):  9.587E-05 0.000E+00

     total cpu time spent up to now is    18758.1 secs

     total energy              =   -1977.14518119 Ry
     estimated scf accuracy    <       0.00000009 Ry

     iteration # 16     ecut=    80.00 Ry     beta= 0.30
     Davidson diagonalization with overlap
     ethr =  8.84E-11,  avg # of iterations =  2.2

     negative rho (up, down):  8.504E-05 0.000E+00

     total cpu time spent up to now is    18877.3 secs

     total energy              =   -1977.14518173 Ry
     estimated scf accuracy    <       0.00000005 Ry

     iteration # 17     ecut=    80.00 Ry     beta= 0.30
     Davidson diagonalization with overlap
     ethr =  4.52E-11,  avg # of iterations =  2.3

     negative rho (up, down):  7.516E-05 0.000E+00

     total cpu time spent up to now is    18994.1 secs

     total energy              =   -1977.14518217 Ry
     estimated scf accuracy    <       0.00000003 Ry

     iteration # 18     ecut=    80.00 Ry     beta= 0.30
     Davidson diagonalization with overlap
     ethr =  2.68E-11,  avg # of iterations =  2.2

     negative rho (up, down):  6.712E-05 0.000E+00

     total cpu time spent up to now is    19106.4 secs

     total energy              =   -1977.14518258 Ry
     estimated scf accuracy    <       0.00000001 Ry

     iteration # 19     ecut=    80.00 Ry     beta= 0.30
     Davidson diagonalization with overlap
     ethr =  1.16E-11,  avg # of iterations =  2.6

     negative rho (up, down):  6.982E-05 0.000E+00

     total cpu time spent up to now is    19228.7 secs

     End of self-consistent calculation

          k = 0.0000 0.0000 0.0000 ( 21311 PWs)   bands (ev):

   -53.3844 -53.2375 -53.1712 -53.0271 -28.0272 -27.6639 -27.4334 -27.4334
   -27.3664 -27.3664 -27.2958 -27.1812 -27.0764 -27.0764 -26.9073 -26.9073
   -13.2514 -10.0883  -9.8339  -6.1756  -5.7402  -5.4129  -4.8058  -3.4558
    -0.7310   0.0282   0.0282   1.5693   2.4750   2.7084   2.7084   3.1850
     3.1851   3.7148   4.0071   4.0071   4.3059   5.3443   5.4822   5.4822
     5.6725   5.6725   6.2348   6.2708   6.2708   6.7732   6.7732   6.8421
     7.0940   7.1855   7.1856   7.8338   7.8338   8.0657   8.4566   8.4566
     8.5256   9.6324   9.6325   9.9282  10.0766  10.0766

          k = 0.0000 0.0722 0.0000 ( 21283 PWs)   bands (ev):

   -53.3825 -53.2356 -53.1697 -53.0257 -28.0226 -27.6596 -27.4531 -27.4377
   -27.3869 -27.3708 -27.2931 -27.1786 -27.0907 -27.0797 -26.9215 -26.9106
   -13.1890 -10.0282  -9.7766  -6.1258  -5.6937  -5.3695  -4.7823  -3.5149
    -0.7367  -0.2447  -0.0584   1.5479   2.4542   2.6015   2.7741   3.0966
     3.1411   3.6969   3.9176   3.9799   4.3619   5.1856   5.2827   5.5091
     5.5742   5.6939   6.1037   6.2248   6.2352   6.6600   6.7217   6.8836
     7.0218   7.2795   7.2898   7.6012   7.8489   7.9083   8.5029   8.6743
     9.2325   9.6058   9.6637   9.9345   9.9800  10.1223

          k = 0.0000 0.1443 0.0000 ( 21263 PWs)   bands (ev):

   -53.3773 -53.2302 -53.1655 -53.0215 -28.0096 -27.6473 -27.5088 -27.4498
   -27.4447 -27.3833 -27.2856 -27.1712 -27.1313 -27.0892 -26.9617 -26.9199
   -13.0042  -9.8501  -9.6059  -5.9954  -5.5609  -5.2445  -4.7213  -3.7169
    -1.0507  -0.5072  -0.2887   1.4136   2.1779   2.4063   2.8794   2.8868
     3.0918   3.4792   3.8737   3.8909   4.2055   4.6725   5.0655   5.5323
     5.5590   5.7313   5.8960   6.0260   6.1491   6.4113   6.6449   6.9248
     7.0443   7.1162   7.4613   7.4929   7.9168   8.1635   8.6114   8.9060
     9.3861   9.7581   9.7667   9.8460  10.0424  10.2364

          k = 0.0000 0.2165 0.0000 ( 21233 PWs)   bands (ev):

   -53.3695 -53.2221 -53.1592 -53.0152 -27.9902 -27.6299 -27.5904 -27.5297
   -27.4679 -27.4019 -27.2744 -27.1915 -27.1601 -27.1032 -27.0216 -26.9339
   -12.7039  -9.5614  -9.3261  -5.8639  -5.3588  -5.0542  -4.6499  -4.0890
    -1.6136  -0.5973  -0.5088   1.1159   1.5874   2.1431   2.5092   2.8133
     3.1213   3.2009   3.7766   3.9085   4.0237   4.3056   4.7619   5.3908
     5.5681   5.6172   5.6950   5.9343   6.1520   6.2502   6.6369   6.7122
     6.9298   7.0649   7.3488   7.6822   8.1405   8.2706   8.7653   9.1904
     9.3384   9.5971   9.8676   9.9313  10.1212  10.3752

          k = 0.0000 0.2887 0.0000 ( 21197 PWs)   bands (ev):

   -53.3602 -53.2126 -53.1518 -53.0079 -27.9673 -27.6884 -27.6323 -27.6018
   -27.4892 -27.4237 -27.2634 -27.2596 -27.1470 -27.1198 -27.0915 -26.9504
   -12.2993  -9.1749  -8.9465  -5.9511  -5.1072  -4.8499  -4.6095  -4.4642
    -2.0154  -0.9189  -0.5978   0.6979   0.8802   1.7671   2.1077   2.6346
     2.9940   3.0408   3.6035   3.9679   4.1556   4.2029   4.3957   4.9316
     5.4522   5.5227   5.5848   5.9357   6.2467   6.2623   6.4215   6.6893
     6.7002   6.9909   7.2648   7.8668   8.1714   8.4496   8.9830   9.1989
     9.3904   9.8087  10.1157  10.1510  10.4024  10.4315

          k = 0.0000 0.3608 0.0000 ( 21187 PWs)   bands (ev):

   -53.3510 -53.2031 -53.1443 -53.0005 -27.9449 -27.7824 -27.7270 -27.5819
   -27.5104 -27.4454 -27.3317 -27.2477 -27.1609 -27.1363 -27.1336 -26.9668
   -11.8072  -8.7122  -8.4849  -6.4736  -4.8852  -4.8447  -4.6620  -4.3802
    -2.2477  -1.2059  -0.8521   0.2147   0.3646   1.3529   1.7945   2.4223
     2.8142   2.9871   3.3505   3.8519   3.9723   4.1710   4.5330   4.6092
     5.2481   5.4482   5.5485   5.9404   6.1529   6.3503   6.4165   6.6501
     6.7702   6.8691   7.1715   8.1274   8.1388   8.7668   9.2381   9.3432
     9.5396   9.9165  10.1943  10.3278  10.4347  10.6209

          k = 0.0000 0.4330 0.0000 ( 21140 PWs)   bands (ev):

   -53.3431 -53.1949 -53.1380 -52.9942 -27.9271 -27.8609 -27.8066 -27.5630
   -27.5282 -27.4638 -27.3902 -27.2364 -27.2189 -27.1503 -27.1225 -26.9807
   -11.2593  -8.2275  -7.9800  -7.1954  -5.0894  -4.9871  -4.4758  -4.1210
    -2.3417  -1.4279  -1.1907  -0.2342   0.1826   1.0709   1.4534   2.2326
     2.6618   2.9217   3.0205   3.4576   3.9414   4.1471   4.4564   4.6545
     5.1182   5.4005   5.6544   5.8511   6.1066   6.4249   6.5976   6.6474
     6.8093   6.8856   7.2730   8.2000   8.4261   9.0782   9.5248   9.5333
     9.7849  10.0821  10.1579  10.2202  10.4358  10.8281

          k = 0.0000 0.5052 0.0000 ( 21078 PWs)   bands (ev):

   -53.3378 -53.1895 -53.1338 -52.9900 -27.9216 -27.9095 -27.8563 -27.5503
   -27.5401 -27.4760 -27.4290 -27.2574 -27.2289 -27.1596 -27.1151 -26.9900
   -10.7375  -8.0978  -7.5785  -7.4745  -5.4253  -5.2756  -4.2786  -3.9137
    -2.3356  -1.5671  -1.4588  -0.4870   0.1678   0.8886   1.1874   2.1061
     2.5618   2.6527   2.9226   3.1283   3.8849   4.2144   4.3837   4.6369
     5.0545   5.3465   5.7918   5.7987   6.1391   6.4266   6.6919   6.7660
     6.7919   7.0434   7.4825   8.4178   8.6873   9.2706   9.6369   9.7868
     9.8556  10.0900  10.1348  10.4075  10.4205  10.9429

          k = 0.0000-0.5774 0.0000 ( 21006 PWs)   bands (ev):

   -53.3360 -53.1876 -53.1323 -52.9885 -27.9337 -27.9152 -27.8708 -27.5458
   -27.5443 -27.4802 -27.4425 -27.2709 -27.2262 -27.1628 -27.1125 -26.9932
   -10.4810  -8.3433  -7.4066  -7.2736  -5.6134  -5.4437  -4.2036  -3.8353
    -2.3144  -1.6144  -1.5612  -0.5652   0.1970   0.8028   1.0944   2.0621
     2.5271   2.5405   2.8789   3.0121   3.8575   4.2284   4.3783   4.6192
     5.0250   5.3247   5.7958   5.8348   6.1758   6.3921   6.7196   6.8094
     6.8225   7.1462   7.5634   8.6365   8.7970   9.3067   9.5520   9.7578
     9.9038  10.1478  10.2179  10.4075  10.5115  11.0073

          k = 0.0625 0.1083 0.0000 ( 21269 PWs)   bands (ev):

   -53.3790 -53.2319 -53.1669 -53.0228 -28.0138 -27.6513 -27.4902 -27.4465
   -27.4254 -27.3798 -27.2881 -27.1736 -27.1177 -27.0865 -26.9483 -26.9173
   -13.0654  -9.9090  -9.6625  -6.0353  -5.6041  -5.2853  -4.7400  -3.6453
    -0.8960  -0.4880  -0.2391   1.4702   2.3592   2.4337   2.7518   3.0201
     3.0872   3.6116   3.8025   3.9278   4.3258   4.8456   5.0618   5.4952
     5.6209   5.6684   5.9412   6.0606   6.2119   6.4481   6.7360   6.9262
     7.0174   7.1293   7.3719   7.6844   7.8358   7.9583   8.6467   8.9835
     9.3575   9.6244   9.8278   9.9110  10.0421  10.0507

          k = 0.0625 0.1804 0.0000 ( 21194 PWs)   bands (ev):

   -53.3725 -53.2252 -53.1616 -53.0176 -27.9976 -27.6361 -27.5576 -27.4954
   -27.4630 -27.3969 -27.2787 -27.1670 -27.1644 -27.0994 -26.9972 -26.9301
   -12.8228  -9.6755  -9.4371  -5.8998  -5.4366  -5.1271  -4.6733  -3.9352
    -1.3913  -0.6402  -0.4263   1.2597   1.8842   2.2792   2.5416   2.8462
     3.0632   3.4239   3.6926   3.9626   4.1077   4.4821   4.8323   5.4562
     5.5344   5.6054   5.7150   5.8776   6.1891   6.3313   6.6724   6.9036
     6.9320   7.0981   7.2446   7.7857   8.0819   8.1722   8.8481   9.1577
     9.3266   9.5300   9.7882   9.9784  10.0697  10.2650

          k = 0.0625 0.2526 0.0000 ( 21202 PWs)   bands (ev):

   -53.3640 -53.2164 -53.1548 -53.0108 -27.9765 -27.6472 -27.6151 -27.5834
   -27.4848 -27.4192 -27.2665 -27.2307 -27.1523 -27.1162 -27.0606 -26.9469
   -12.4700  -9.3373  -9.1068  -5.8623  -5.2096  -4.9224  -4.6140  -4.3322
    -1.8464  -0.9714  -0.4704   0.9019   1.2237   1.9355   2.2775   2.5085
     2.9114   3.3058   3.7215   3.8990   4.1139   4.3504   4.5392   5.1132
     5.3151   5.4619   5.6417   5.8691   6.2035   6.3271   6.5469   6.6958
     6.8006   7.0612   7.2599   7.9034   8.2042   8.4324   8.8983   9.2468
     9.4426   9.6216   9.9053  10.1064  10.2608  10.4407

          k = 0.0625 0.3248 0.0000 ( 21194 PWs)   bands (ev):

   -53.3547 -53.2069 -53.1473 -53.0034 -27.9538 -27.7388 -27.6825 -27.5906
   -27.5082 -27.4433 -27.2993 -27.2530 -27.1395 -27.1344 -27.1281 -26.9650
   -12.0202  -8.9102  -8.6844  -6.1890  -4.9519  -4.8044  -4.6400  -4.4633
    -2.1478  -1.2992  -0.6311   0.4751   0.5885   1.4935   1.9482   2.2791
     2.7532   3.1736   3.5383   3.9318   4.0656   4.2862   4.4874   4.7346
     5.1595   5.4174   5.5352   5.8662   6.1751   6.2590   6.5737   6.6031
     6.6471   6.9894   7.3003   8.0579   8.2418   8.7166   9.0684   9.3494
     9.5093   9.8278  10.1246  10.2128  10.4813  10.6068

          k = 0.0625 0.3969 0.0000 ( 21151 PWs)   bands (ev):

   -53.3461 -53.1981 -53.1404 -52.9966 -27.9334 -27.8231 -27.7685 -27.5704
   -27.5297 -27.4654 -27.3618 -27.2408 -27.1908 -27.1512 -27.1268 -26.9816
   -11.4954  -8.4258  -8.1954  -6.8580  -4.9563  -4.8817  -4.5718  -4.2296
    -2.3166  -1.5604  -0.9380  -0.0017   0.2733   1.1575   1.5794   2.1071
     2.5553   3.1326   3.2120   3.6905   3.9687   4.1842   4.5484   4.5956
     5.1803   5.3530   5.5298   5.8903   6.0248   6.1760   6.5232   6.7374
     6.7801   7.0057   7.3237   8.1727   8.4042   9.0133   9.2931   9.5138
     9.7466   9.9171  10.1663  10.3114  10.5045  10.7998

          k = 0.0625 0.4691 0.0000 ( 21105 PWs)   bands (ev):

   -53.3395 -53.1913 -53.1352 -52.9914 -27.9200 -27.8864 -27.8320 -27.5547
   -27.5460 -27.4823 -27.4093 -27.2379 -27.2313 -27.1640 -27.1175 -26.9943
   -10.9435  -8.0164  -7.7054  -7.4919  -5.2589  -5.1260  -4.3469  -3.9856
    -2.3868  -1.7113  -1.2573  -0.3433   0.1883   0.9537   1.2565   1.9641
     2.3748   2.8359   3.1211   3.3104   3.9479   4.2247   4.4492   4.5746
     5.1549   5.2885   5.5931   5.9362   5.9970   6.2643   6.4799   6.7748
     6.9784   7.1638   7.4457   8.3279   8.6190   9.2262   9.5259   9.7156
     9.8681  10.0305  10.1147  10.3132  10.5658  10.9733

          k = 0.0625 0.5413 0.0000 ( 21084 PWs)   bands (ev):

   -53.3360 -53.1876 -53.1323 -52.9885 -27.9245 -27.9119 -27.8628 -27.5553
   -27.5455 -27.4914 -27.4348 -27.2633 -27.2262 -27.1709 -27.1125 -27.0012
   -10.5072  -8.2698  -7.4312  -7.2965  -5.5637  -5.3963  -4.2058  -3.8380
    -2.4065  -1.7463  -1.4635  -0.5085   0.2091   0.8345   1.0716   1.8815
     2.2706   2.6297   3.0140   3.1380   3.9031   4.2786   4.4067   4.5479
     5.1245   5.2447   5.5474   5.9590   6.0916   6.3934   6.4828   6.8018
     7.1175   7.2567   7.5756   8.5605   8.7865   9.2109   9.6286   9.7425
     9.9202  10.0669  10.2610  10.3444  10.5981  10.9159

          k = 0.1250 0.2165 0.0000 ( 21179 PWs)   bands (ev):

   -53.3653 -53.2178 -53.1558 -53.0119 -27.9797 -27.6320 -27.6148 -27.5664
   -27.4858 -27.4205 -27.2683 -27.2178 -27.1541 -27.1170 -27.0477 -26.9476
   -12.5274  -9.3920  -9.1607  -5.8452  -5.2446  -4.9515  -4.6176  -4.2639
    -1.7401  -1.0833  -0.4173   0.9987   1.4162   1.9870   2.2562   2.4670
     2.8343   3.5873   3.6133   3.9185   4.1225   4.4437   4.5919   5.1135
     5.2324   5.4404   5.6531   5.7721   6.2169   6.3604   6.5256   6.8263
     6.8320   7.0896   7.2363   7.9968   8.2341   8.3707   9.0635   9.1894
     9.4286   9.5293   9.8988  10.1751  10.2275  10.3264

          k = 0.1250 0.2887 0.0000 ( 21199 PWs)   bands (ev):

   -53.3567 -53.2090 -53.1489 -53.0050 -27.9586 -27.7081 -27.6516 -27.5948
   -27.5142 -27.4496 -27.2765 -27.2558 -27.1420 -27.1388 -27.1057 -26.9693
   -12.1282  -9.0112  -8.7858  -6.0436  -5.0037  -4.7978  -4.6005  -4.4785
    -2.0350  -1.5175  -0.4787   0.6514   0.8611   1.5266   1.9181   2.1254
     2.6315   3.4557   3.6691   3.8891   4.1485   4.3538   4.6043   4.7950
     4.9673   5.3241   5.5969   5.7213   6.1674   6.1964   6.4771   6.6815
     6.7485   7.0890   7.4315   8.1044   8.3565   8.6918   9.1721   9.3267
     9.5574   9.6352  10.0176  10.2368  10.4670  10.5850

          k = 0.1250 0.3608 0.0000 ( 21195 PWs)   bands (ev):

   -53.3481 -53.2001 -53.1421 -52.9982 -27.9379 -27.7859 -27.7307 -27.5753
   -27.5428 -27.4792 -27.3339 -27.2436 -27.1631 -27.1610 -27.1296 -26.9913
   -11.6410  -8.5535  -8.3299  -6.5967  -4.8703  -4.8284  -4.6125  -4.2968
    -2.2944  -1.8092  -0.6880   0.2577   0.4304   1.1404   1.5181   1.8978
     2.3840   3.3929   3.4548   3.8749   3.9299   4.3191   4.5548   4.6131
     5.1103   5.2927   5.5150   5.6773   6.0155   6.0419   6.4091   6.7479
     6.8166   7.1168   7.5249   8.2402   8.5239   8.9702   9.2846   9.5241
     9.7439   9.8110  10.1429  10.3122  10.5699  10.8113

          k = 0.1250 0.4330 0.0000 ( 21113 PWs)   bands (ev):

   -53.3409 -53.1926 -53.1362 -52.9924 -27.9211 -27.8510 -27.7965 -27.5683
   -27.5569 -27.5044 -27.3820 -27.2332 -27.2108 -27.1799 -27.1194 -27.0101
   -11.0946  -8.0721  -7.8310  -7.2903  -5.1128  -4.9905  -4.3984  -4.0413
    -2.5358  -1.9029  -1.0011  -0.1117   0.2446   0.9155   1.2035   1.6961
     2.0922   3.0701   3.4184   3.5553   3.9944   4.2073   4.4824   4.6298
     5.1247   5.2224   5.5780   5.7014   5.9127   6.0188   6.4046   6.8280
     7.0321   7.2775   7.5694   8.3662   8.6580   9.2454   9.4147   9.5771
     9.8835   9.9880  10.2226  10.3940  10.6021  10.9373

          k = 0.1250 0.5052 0.0000 ( 21081 PWs)   bands (ev):

   -53.3360 -53.1876 -53.1323 -52.9885 -27.9123 -27.8934 -27.8384 -27.5842
   -27.5456 -27.5211 -27.4140 -27.2426 -27.2262 -27.1925 -27.1125 -27.0227
   -10.5656  -8.0882  -7.4884  -7.3485  -5.4463  -5.2838  -4.2111  -3.8443
    -2.7049  -1.8621  -1.2742  -0.3519   0.1946   0.8434   0.9934   1.5365
     1.8634   2.8022   3.1822   3.4934   4.0141   4.1758   4.4602   4.5910
     5.0246   5.1800   5.5931   5.6892   5.9252   6.3069   6.4290   6.8567
     7.2227   7.4826   7.6267   8.4615   8.7269   9.1865   9.5511   9.7923
     9.8628  10.1078  10.3223  10.4027  10.6491  10.8847

          k = 0.1250 0.5774 0.0000 ( 21108 PWs)   bands (ev):

   -53.3343 -53.1859 -53.1309 -52.9872 -27.9133 -27.9052 -27.8518 -27.5899
   -27.5416 -27.5269 -27.4252 -27.2537 -27.2238 -27.1970 -27.1101 -27.0271
   -10.2980  -8.3782  -7.2861  -7.1302  -5.6344  -5.4544  -4.1407  -3.7704
    -2.7635  -1.8133  -1.3926  -0.4357   0.1933   0.8320   0.9242   1.4677
     1.7777   2.7019   3.0787   3.4807   3.9900   4.1893   4.4512   4.5684
     4.9754   5.1730   5.5526   5.7278   5.9422   6.4068   6.5567   6.8384
     7.2933   7.5618   7.6542   8.4802   8.7392   9.0655   9.6948   9.8577
     9.9651  10.0441  10.3680  10.4408  10.6404  10.8059

          k = 0.1875 0.3248 0.0000 ( 21195 PWs)   bands (ev):

   -53.3488 -53.2009 -53.1426 -52.9988 -27.9395 -27.7692 -27.7138 -27.5770
   -27.5510 -27.4879 -27.3213 -27.2447 -27.1673 -27.1506 -27.1305 -26.9976
   -11.6901  -8.5972  -8.3756  -6.4966  -4.8389  -4.8195  -4.6151  -4.3188
    -2.3024  -1.9035  -0.5800   0.3897   0.5426   1.0800   1.3475   1.8919
     2.3176   3.5213   3.5645   3.8623   3.9908   4.3798   4.5114   4.5852
     5.1169   5.3131   5.3979   5.7087   5.9724   6.0260   6.2633   6.8159
     6.8430   7.1784   7.6126   8.2322   8.6072   8.8946   9.3765   9.5731
     9.6977   9.8331  10.1353  10.2774  10.5956  10.6112

          k = 0.1875 0.3969 0.0000 ( 21153 PWs)   bands (ev):

   -53.3416 -53.1934 -53.1368 -52.9930 -27.9221 -27.8221 -27.7675 -27.5893
   -27.5588 -27.5265 -27.3599 -27.2342 -27.1961 -27.1888 -27.1204 -27.0262
   -11.1738  -8.1234  -7.9008  -7.1247  -5.0281  -4.9088  -4.4251  -4.0715
    -2.7213  -1.9470  -0.7933   0.1209   0.3052   0.7353   0.9816   1.6211
     1.9610   3.2739   3.5225   3.7433   3.9876   4.2810   4.4623   4.6833
     4.9907   5.1945   5.4836   5.5765   5.8860   6.0791   6.2161   6.9242
     7.0430   7.2833   7.6510   8.3876   8.7736   9.1556   9.4065   9.7055
     9.9004  10.0192  10.2230  10.3785  10.5992  10.7968

          k = 0.1875 0.4691 0.0000 ( 21101 PWs)   bands (ev):

   -53.3360 -53.1876 -53.1323 -52.9885 -27.9095 -27.8606 -27.8059 -27.6194
   -27.5578 -27.5453 -27.3880 -27.2263 -27.2194 -27.2167 -27.1125 -27.0494
   -10.6187  -7.8926  -7.5484  -7.3967  -5.3316  -5.1726  -4.2162  -3.8507
    -3.0458  -1.8659  -1.0582  -0.1344   0.1359   0.6445   0.8291   1.3645
     1.6111   3.0231   3.3035   3.7050   4.1234   4.1671   4.4638   4.6714
     4.8914   5.0699   5.3982   5.5299   6.0306   6.1557   6.3966   6.9544
     7.2378   7.4920   7.6962   8.3893   8.7043   9.2808   9.4411   9.6634
    10.0412  10.1982  10.3888  10.4668  10.6255  10.9626

          k = 0.1875 0.5413 0.0000 ( 21112 PWs)   bands (ev):

   -53.3330 -53.1845 -53.1299 -52.9861 -27.9031 -27.8812 -27.8254 -27.6362
   -27.5750 -27.5381 -27.4027 -27.2325 -27.2313 -27.2219 -27.1082 -27.0623
   -10.1541  -8.3889  -7.1956  -7.0194  -5.6320  -5.4481  -4.0928  -3.7207
    -3.2113  -1.7660  -1.2548  -0.2961   0.0416   0.7463   0.8100   1.1433
     1.3677   2.8658   3.1718   3.7145   4.0652   4.2057   4.4207   4.6561
     4.7497   4.9702   5.5195   5.5736   6.0785   6.2523   6.6011   6.9468
     7.3612   7.6217   7.7892   8.2078   8.4860   9.2040   9.6466   9.8417
    10.0466  10.2011  10.4083  10.5884  10.6770  11.0136

          k = 0.2500 0.4330 0.0000 ( 21125 PWs)   bands (ev):

   -53.3360 -53.1876 -53.1323 -52.9885 -27.9088 -27.8435 -27.7889 -27.6372
   -27.5760 -27.5455 -27.3744 -27.2334 -27.2262 -27.2032 -27.1125 -27.0633
   -10.6394  -7.8001  -7.5804  -7.4160  -5.2847  -5.1264  -4.2182  -3.8534
    -3.1902  -1.8499  -0.9516  -0.0375   0.2045   0.3963   0.7233   1.3356
     1.5624   3.1525   3.3296   3.7228   4.1480   4.2678   4.4256   4.6329
     4.9228   5.1069   5.2337   5.4434   5.8756   6.1906   6.5362   6.9647
     7.2683   7.4703   7.6865   8.3317   8.7134   9.3357   9.4204   9.6541
    10.0867  10.1447  10.4381  10.5483  10.6737  10.9548

          k = 0.2500 0.5052 0.0000 ( 21117 PWs)   bands (ev):

   -53.3323 -53.1838 -53.1293 -52.9856 -27.8997 -27.8518 -27.7965 -27.6757
   -27.6156 -27.5364 -27.3783 -27.2641 -27.2209 -27.2070 -27.1072 -27.0938
   -10.0881  -8.3549  -7.1621  -6.9696  -5.6026  -5.4205  -4.0675  -3.6946
    -3.4953  -1.7083  -1.1436  -0.2694   0.0811   0.4121   0.7204   1.0846
     1.1996   3.0431   3.2569   3.7405   4.0089   4.2445   4.4049   4.6141
     4.8620   5.0209   5.1797   5.5149   5.8792   6.4270   6.7166   7.0044
     7.4399   7.5752   7.8312   7.9846   8.2985   9.4228   9.5500   9.7128
    10.0875  10.3100  10.3985  10.6975  10.8985  11.1837

          k = 0.2500 0.5774 0.0000 ( 21116 PWs)   bands (ev):

   -53.3310 -53.1824 -53.1283 -52.9845 -27.8963 -27.8531 -27.7973 -27.6911
   -27.6313 -27.5333 -27.3778 -27.2767 -27.2190 -27.2066 -27.1064 -27.1053
    -9.7601  -8.7001  -6.9267  -6.7411  -5.7915  -5.5973  -4.0125  -3.6365
    -3.5980  -1.6240  -1.2536  -0.3572  -0.0011   0.5575   0.7819   0.9202
     1.0104   2.9971   3.2593   3.7379   3.9725   4.1680   4.3675   4.6500
     4.8167   4.9307   5.1682   5.6893   5.9896   6.4174   6.7569   7.1745
     7.3538   7.5967   7.7942   7.9433   8.0979   9.4000   9.6482   9.7536
    10.0711  10.3373  10.4041  10.7092  10.9363  11.4216

          k = 0.3125 0.5413 0.0000 ( 21100 PWs)   bands (ev):

   -53.3302 -53.1817 -53.1277 -52.9840 -27.8940 -27.8325 -27.7771 -27.7208
   -27.6618 -27.5315 -27.3563 -27.3050 -27.2180 -27.1851 -27.1345 -27.1044
    -9.5446  -8.8819  -6.8097  -6.6217  -5.8643  -5.6676  -3.9841  -3.7396
    -3.6060  -1.5348  -1.2929  -0.4388   0.1160   0.3952   0.7599   0.8495
     0.9130   3.0802   3.3592   3.6977   3.8579   4.0463   4.5216   4.5918
     4.7612   5.0104   5.1465   5.7052   5.8092   6.6572   6.8544   7.0352
     7.4644   7.5765   7.6416   7.9085   7.9936   9.4271   9.6478   9.7103
    10.0742  10.2744  10.5410  10.7818  11.0645  11.7120

     the Fermi energy is     8.2385 ev

!    total energy              =   -1977.14518247 Ry
     total all-electron energy =    -38770.466027 Ry
     estimated scf accuracy    <          3.1E-09 Ry
     smearing contrib. (-TS)   =      -0.00108372 Ry
     internal energy E=F+TS    =   -1977.14409875 Ry

     The total energy is F=E-TS. E is the sum of the following terms:
     one-electron contribution =   -8076.91030879 Ry
     hartree contribution      =    4080.06744033 Ry
     xc contribution           =    -121.23296050 Ry
     ewald contribution        =    3410.85969434 Ry
     one-center paw contrib.   =   -1269.92796413 Ry

     convergence has been achieved in  19 iterations

     negative rho (up, down):  6.982E-05 0.000E+00

     Forces acting on atoms (cartesian axes, Ry/au):

     atom    1 type  2   force =     0.00000000    0.00000000    0.10756499
     atom    2 type  1   force =     0.00000000    0.00000000   -0.07472078
     atom    3 type  2   force =     0.00000000    0.00000000   -0.30233813
     atom    4 type  2   force =     0.00000000    0.00000000    0.02128165
     atom    5 type  1   force =     0.00000000    0.00000000   -0.01150040
     atom    6 type  2   force =     0.00000000    0.00000000   -0.11465401
     atom    7 type  2   force =     0.00000000    0.00000000    0.14714897
     atom    8 type  1   force =     0.00000000    0.00000000    0.01886343
     atom    9 type  2   force =     0.00000000    0.00000000   -0.01064730
     atom   10 type  2   force =     0.00000000    0.00000000    0.25935894
     atom   11 type  1   force =     0.00000000   -0.00000000    0.03979351
     atom   12 type  2   force =     0.00000000    0.00000000   -0.08015086

     Total force =     0.468710     Total SCF correction =     0.000268
     Energy error            =      2.5E-01 Ry
     Gradient error          =      3.0E-01 Ry/Bohr

     number of scf cycles    =   7
     number of bfgs steps    =   6

     energy             old  =   -1976.9001217262 Ry
     energy             new  =   -1977.1451824688 Ry

     CASE: energy            _new < energy            _old

     new trust radius        =       0.8000000000 bohr
     new conv_thr            =       0.0000000100 Ry


ATOMIC_POSITIONS (crystal)
S                0.3333330000        0.6666670000       -0.0267612827
Mo              -0.0000000000       -0.0000000000        0.0338901879
S                0.3333330000        0.6666670000        0.0932856500
S                0.6666670000        0.3333330000        0.1489774913
Mo               0.3333330000        0.6666670000        0.1981920459
S                0.6666670000        0.3333330000        0.2410073395
S               -0.0000000000       -0.0000000000        0.2752785539
Mo               0.6666670000        0.3333330000        0.3204409661
S               -0.0000000000       -0.0000000000        0.3696356308
S                0.3333330000        0.6666670000        0.4259740054
Mo               0.0000000000        0.0000000000        0.4886906931
S                0.3333330000        0.6666670000        0.5463887188



     Writing config-only to output data dir ./tmp/relax/mos2_slab.save/ :
     XML data file
     NEW-OLD atomic charge density approx. for the potential

     negative rho (up, down):  4.680E-05 0.000E+00

     total cpu time spent up to now is    19284.2 secs

     Self-consistent Calculation

     iteration #  1     ecut=    80.00 Ry     beta= 0.30
     Davidson diagonalization with overlap
     c_bands:  3 eigenvalues not converged
     c_bands:  2 eigenvalues not converged
     c_bands:  1 eigenvalues not converged
     c_bands:  2 eigenvalues not converged
     c_bands:  1 eigenvalues not converged
     c_bands:  1 eigenvalues not converged
     c_bands:  3 eigenvalues not converged
     c_bands:  3 eigenvalues not converged
     c_bands:  3 eigenvalues not converged
     c_bands:  1 eigenvalues not converged
     c_bands:  1 eigenvalues not converged
     c_bands:  1 eigenvalues not converged
     c_bands:  2 eigenvalues not converged
     c_bands:  3 eigenvalues not converged
     c_bands:  2 eigenvalues not converged
     c_bands:  1 eigenvalues not converged
     c_bands:  2 eigenvalues not converged
     c_bands:  1 eigenvalues not converged
     c_bands:  1 eigenvalues not converged
     c_bands:  1 eigenvalues not converged
     c_bands:  1 eigenvalues not converged
     c_bands:  1 eigenvalues not converged
     c_bands:  1 eigenvalues not converged
     ethr =  1.00E-06,  avg # of iterations = 19.6

     negative rho (up, down):  3.047E-06 0.000E+00

     total cpu time spent up to now is    19913.4 secs

     total energy              =   -1977.43887009 Ry
     estimated scf accuracy    <       0.18641174 Ry

     iteration #  2     ecut=    80.00 Ry     beta= 0.30
     Davidson diagonalization with overlap
     ethr =  1.79E-04,  avg # of iterations =  2.0

     negative rho (up, down):  5.232E-07 0.000E+00

     total cpu time spent up to now is    20024.3 secs

     total energy              =   -1977.36704859 Ry
     estimated scf accuracy    <       0.07660419 Ry

     iteration #  3     ecut=    80.00 Ry     beta= 0.30
     Davidson diagonalization with overlap
     ethr =  7.37E-05,  avg # of iterations =  2.0

     negative rho (up, down):  1.126E-06 0.000E+00

     total cpu time spent up to now is    20139.8 secs

     total energy              =   -1977.35598941 Ry
     estimated scf accuracy    <       0.02315830 Ry

     iteration #  4     ecut=    80.00 Ry     beta= 0.30
     Davidson diagonalization with overlap
     ethr =  2.23E-05,  avg # of iterations =  3.0

     negative rho (up, down):  4.638E-06 0.000E+00

     total cpu time spent up to now is    20255.3 secs

     total energy              =   -1977.35764391 Ry
     estimated scf accuracy    <       0.00449694 Ry

     iteration #  5     ecut=    80.00 Ry     beta= 0.30
     Davidson diagonalization with overlap
     ethr =  4.32E-06,  avg # of iterations =  7.1

     negative rho (up, down):  2.462E-05 0.000E+00

     total cpu time spent up to now is    20378.9 secs

     total energy              =   -1977.35743006 Ry
     estimated scf accuracy    <       0.00196383 Ry

     iteration #  6     ecut=    80.00 Ry     beta= 0.30
     Davidson diagonalization with overlap
     ethr =  1.89E-06,  avg # of iterations =  3.5

     negative rho (up, down):  3.661E-05 0.000E+00

     total cpu time spent up to now is    20505.5 secs

     total energy              =   -1977.35767746 Ry
     estimated scf accuracy    <       0.00045156 Ry

     iteration #  7     ecut=    80.00 Ry     beta= 0.30
     Davidson diagonalization with overlap
     ethr =  4.34E-07,  avg # of iterations =  2.3

     negative rho (up, down):  8.452E-05 0.000E+00

     total cpu time spent up to now is    20612.8 secs

     total energy              =   -1977.35759077 Ry
     estimated scf accuracy    <       0.00033099 Ry

     iteration #  8     ecut=    80.00 Ry     beta= 0.30
     Davidson diagonalization with overlap
     ethr =  3.18E-07,  avg # of iterations =  2.4

     negative rho (up, down):  1.038E-04 0.000E+00

     total cpu time spent up to now is    20728.3 secs

     total energy              =   -1977.35761960 Ry
     estimated scf accuracy    <       0.00008744 Ry

     iteration #  9     ecut=    80.00 Ry     beta= 0.30
     Davidson diagonalization with overlap
     ethr =  8.41E-08,  avg # of iterations =  3.3

     negative rho (up, down):  8.928E-05 0.000E+00

     total cpu time spent up to now is    20855.7 secs

     total energy              =   -1977.35760431 Ry
     estimated scf accuracy    <       0.00002275 Ry

     iteration # 10     ecut=    80.00 Ry     beta= 0.30
     Davidson diagonalization with overlap
     ethr =  2.19E-08,  avg # of iterations =  3.9

     negative rho (up, down):  8.652E-05 0.000E+00

     total cpu time spent up to now is    20984.1 secs

     total energy              =   -1977.35760970 Ry
     estimated scf accuracy    <       0.00000484 Ry

     iteration # 11     ecut=    80.00 Ry     beta= 0.30
     Davidson diagonalization with overlap
     ethr =  4.66E-09,  avg # of iterations =  4.6

     negative rho (up, down):  7.284E-05 0.000E+00

     total cpu time spent up to now is    21102.5 secs

     total energy              =   -1977.35760899 Ry
     estimated scf accuracy    <       0.00000293 Ry

     iteration # 12     ecut=    80.00 Ry     beta= 0.30
     Davidson diagonalization with overlap
     ethr =  2.82E-09,  avg # of iterations =  2.5

     negative rho (up, down):  6.786E-05 0.000E+00

     total cpu time spent up to now is    21223.4 secs

     total energy              =   -1977.35760949 Ry
     estimated scf accuracy    <       0.00000051 Ry

     iteration # 13     ecut=    80.00 Ry     beta= 0.30
     Davidson diagonalization with overlap
     ethr =  4.89E-10,  avg # of iterations =  4.5

     negative rho (up, down):  5.766E-05 0.000E+00

     total cpu time spent up to now is    21346.2 secs

     total energy              =   -1977.35760988 Ry
     estimated scf accuracy    <       0.00000026 Ry

     iteration # 14     ecut=    80.00 Ry     beta= 0.30
     Davidson diagonalization with overlap
     ethr =  2.52E-10,  avg # of iterations =  2.6

     negative rho (up, down):  5.510E-05 0.000E+00

     total cpu time spent up to now is    21472.0 secs

     total energy              =   -1977.35761006 Ry
     estimated scf accuracy    <       0.00000010 Ry

     iteration # 15     ecut=    80.00 Ry     beta= 0.30
     Davidson diagonalization with overlap
     ethr =  9.65E-11,  avg # of iterations =  2.4

     negative rho (up, down):  5.402E-05 0.000E+00

     total cpu time spent up to now is    21584.9 secs

     total energy              =   -1977.35761011 Ry
     estimated scf accuracy    <       0.00000003 Ry

     iteration # 16     ecut=    80.00 Ry     beta= 0.30
     Davidson diagonalization with overlap
     ethr =  2.69E-11,  avg # of iterations =  3.6

     negative rho (up, down):  5.505E-05 0.000E+00

     total cpu time spent up to now is    21717.7 secs

     End of self-consistent calculation

          k = 0.0000 0.0000 0.0000 ( 21311 PWs)   bands (ev):

   -53.4018 -53.2329 -53.1971 -53.1710 -27.9478 -27.6151 -27.4285 -27.4285
   -27.3391 -27.3391 -27.3111 -27.3028 -27.0715 -27.0715 -27.0331 -27.0331
   -12.8992  -8.9841  -8.7304  -6.0281  -5.6672  -5.3942  -4.8747  -3.7432
    -0.6148   0.4383   0.4383   1.6660   2.4373   3.0369   3.0369   3.6252
     3.9804   3.9805   4.3406   4.4949   4.4949   5.1469   5.9641   5.9642
     6.0290   6.0290   6.0445   6.6501   6.7562   6.7562   6.8547   6.9503
     6.9503   7.4307   7.4307   8.1709   8.1709   8.4516   8.8084   8.8093
     8.8093   9.7239   9.7239   9.8423  10.1118  10.1120

          k = 0.0000 0.0722 0.0000 ( 21283 PWs)   bands (ev):

   -53.4000 -53.2310 -53.1957 -53.1695 -27.9436 -27.6110 -27.4473 -27.4326
   -27.3588 -27.3434 -27.3086 -27.3004 -27.0854 -27.0748 -27.0470 -27.0364
   -12.8374  -8.9250  -8.6744  -5.9776  -5.6194  -5.3519  -4.8464  -3.7797
    -0.5973   0.1304   0.3529   1.6858   2.4425   2.9680   3.1239   3.5979
     3.9179   3.9437   4.1861   4.4736   4.5999   5.2037   5.7634   5.8362
     5.9949   6.0285   6.0760   6.5612   6.6676   6.6726   6.7888   6.8738
     6.9092   7.4575   7.5132   7.8235   8.0986   8.1783   8.8280   8.9921
     9.3117   9.7436   9.7773   9.9625  10.0048  10.1372

          k = 0.0000 0.1443 0.0000 ( 21263 PWs)   bands (ev):

   -53.3950 -53.2258 -53.1916 -53.1654 -27.9315 -27.5995 -27.5004 -27.4443
   -27.4146 -27.3555 -27.3017 -27.2934 -27.1247 -27.0863 -27.0840 -27.0456
   -12.6545  -8.7508  -8.5083  -5.8423  -5.4812  -5.2302  -4.7678  -3.9078
    -0.7464  -0.3268   0.1261   1.6713   2.3818   2.7934   3.3617   3.4612
     3.7819   3.8929   3.9836   4.3510   4.5084   5.0626   5.3798   5.5636
     5.8936   6.0411   6.2068   6.2251   6.4101   6.4621   6.7358   6.7687
     6.8744   7.1566   7.4860   7.7093   8.2147   8.3592   8.8751   9.0038
     9.3510   9.6896   9.7914   9.8470  10.0621  10.2200

          k = 0.0000 0.2165 0.0000 ( 21233 PWs)   bands (ev):

   -53.3874 -53.2179 -53.1854 -53.1593 -27.9135 -27.5869 -27.5752 -27.4960
   -27.4618 -27.3737 -27.2912 -27.2829 -27.1832 -27.1446 -27.0977 -27.0593
   -12.3568  -8.4704  -8.2380  -5.6909  -5.2684  -5.0443  -4.6581  -4.1568
    -1.3342  -0.3501  -0.1775   1.5629   2.1766   2.4995   3.1458   3.5535
     3.6364   3.8994   3.9027   4.1190   4.1596   4.6275   4.9564   5.3769
     5.7434   5.9332   5.9895   6.1196   6.1959   6.4003   6.7070   6.7380
     6.7970   6.9121   7.1744   7.8701   8.3288   8.3916   8.9565   9.1572
     9.4445   9.5386   9.7693   9.8690  10.0526  10.3182

          k = 0.0000 0.2887 0.0000 ( 21197 PWs)   bands (ev):

   -53.3784 -53.2086 -53.1782 -53.1521 -27.8924 -27.6714 -27.5995 -27.5535
   -27.4823 -27.3950 -27.2791 -27.2705 -27.2513 -27.2129 -27.1139 -27.0755
   -11.9549  -8.0998  -7.8751  -5.7320  -5.0013  -4.8247  -4.5442  -4.4188
    -1.7888  -0.4941  -0.3987   1.3353   1.7590   2.1924   2.5193   3.3507
     3.6059   3.7700   3.8629   4.0260   4.2994   4.3346   4.5292   4.9240
     5.5092   5.8490   5.8565   5.9535   6.0205   6.4596   6.5820   6.6422
     6.7847   6.7957   7.0707   8.0131   8.1472   8.6448   9.0777   9.1050
     9.3502   9.7096   9.9856  10.1024  10.3398  10.3675

          k = 0.0000 0.3608 0.0000 ( 21187 PWs)   bands (ev):

   -53.3694 -53.1992 -53.1709 -53.1448 -27.8717 -27.7612 -27.6899 -27.5359
   -27.5027 -27.4163 -27.3194 -27.2805 -27.2663 -27.2580 -27.1301 -27.0916
   -11.4654  -7.6679  -7.4415  -6.2017  -4.7130  -4.6825  -4.4790  -4.3728
    -2.0315  -0.7769  -0.5673   1.0123   1.1735   1.8600   2.0021   3.2508
     3.3861   3.5103   3.7633   3.8812   4.0942   4.2493   4.5690   4.7189
     5.2316   5.7255   5.7768   5.8159   5.9886   6.2739   6.5915   6.7038
     6.7422   6.9055   7.0043   8.0897   8.2383   8.9167   9.2043   9.3132
     9.4486   9.8294  10.0434  10.2580  10.3866  10.5149

          k = 0.0000 0.4330 0.0000 ( 21140 PWs)   bands (ev):

   -53.3618 -53.1913 -53.1647 -53.1386 -27.8579 -27.8341 -27.7667 -27.5199
   -27.5182 -27.4342 -27.3761 -27.3372 -27.2559 -27.2476 -27.1437 -27.1052
   -10.9198  -7.3003  -6.9827  -6.8123  -4.7159  -4.5688  -4.3662  -4.1227
    -2.1247  -0.9959  -0.8117   0.6148   0.7545   1.4809   1.7018   3.0625
     3.1810   3.2545   3.4617   3.6707   4.0221   4.2196   4.3995   4.9274
     5.0632   5.6186   5.6633   5.7905   5.9907   6.2324   6.6459   6.7841
     6.8829   7.0163   7.0209   8.1401   8.5197   9.1919   9.4461   9.5815
     9.6893  10.0252  10.0440  10.1752  10.3844  10.7108

          k = 0.0000 0.5052 0.0000 ( 21078 PWs)   bands (ev):

   -53.3567 -53.1860 -53.1606 -53.1345 -27.8888 -27.8481 -27.8115 -27.5314
   -27.5061 -27.4461 -27.4138 -27.3749 -27.2488 -27.2405 -27.1528 -27.1142
   -10.4001  -7.6911  -6.6850  -6.5640  -4.8578  -4.6720  -4.1700  -3.9131
    -2.1316  -1.1333  -1.0347   0.2917   0.5910   1.2322   1.4923   2.7369
     3.0470   3.0853   3.1912   3.6012   3.9879   4.2341   4.3294   4.9490
     4.9938   5.5364   5.5546   5.9081   6.0075   6.2457   6.6942   6.8655
     6.9849   7.1492   7.1567   8.3372   8.7767   9.3535   9.6616   9.8404
     9.8678  10.0583  10.0838  10.2591  10.3607  10.8379

          k = 0.0000-0.5774 0.0000 ( 21006 PWs)   bands (ev):

   -53.3549 -53.1841 -53.1591 -53.1331 -27.9057 -27.8541 -27.8200 -27.5354
   -27.5019 -27.4503 -27.4270 -27.3881 -27.2464 -27.2380 -27.1560 -27.1174
   -10.1450  -7.9885  -6.5092  -6.3830  -4.9555  -4.7529  -4.0929  -3.8329
    -2.1204  -1.1801  -1.1265   0.1802   0.5631   1.1226   1.4272   2.6111
     2.9620   3.0008   3.1370   3.5755   3.9765   4.2146   4.3324   4.9390
     4.9747   5.5074   5.5223   5.9550   6.0190   6.2651   6.6987   6.9158
     7.0127   7.2072   7.2315   8.5139   8.8860   9.3845   9.6505   9.8875
     9.9568  10.1264  10.1267  10.3139  10.3422  10.8942

          k = 0.0625 0.1083 0.0000 ( 21269 PWs)   bands (ev):

   -53.3966 -53.2275 -53.1929 -53.1668 -27.9354 -27.6032 -27.4827 -27.4411
   -27.3960 -27.3522 -27.3039 -27.2956 -27.1116 -27.0814 -27.0731 -27.0430
   -12.7151  -8.8083  -8.5633  -5.8844  -5.5264  -5.2699  -4.7928  -3.8618
    -0.6394  -0.2429   0.1659   1.6875   2.4315   2.8767   3.1898   3.5753
     3.8254   3.8758   4.0546   4.3501   4.6437   5.1574   5.5092   5.5803
     5.9257   6.0058   6.1485   6.3215   6.4931   6.5502   6.7078   6.8315
     6.8781   7.2283   7.5230   7.8036   8.0934   8.2186   8.8639   9.1807
     9.2919   9.6756   9.8051   9.9529  10.0985  10.1841

          k = 0.0625 0.1804 0.0000 ( 21194 PWs)   bands (ev):

   -53.3903 -53.2209 -53.1878 -53.1617 -27.9204 -27.5894 -27.5468 -27.4634
   -27.4569 -27.3689 -27.2952 -27.2869 -27.1594 -27.1209 -27.0940 -27.0555
   -12.4747  -8.5809  -8.3450  -5.7368  -5.3508  -5.1159  -4.6983  -4.0525
    -1.0847  -0.3834  -0.1212   1.6278   2.3331   2.6479   3.1356   3.6134
     3.7212   3.8163   3.9460   4.0497   4.4702   4.8531   5.0893   5.5027
     5.7739   5.8098   5.9513   6.1825   6.3280   6.3902   6.6960   6.7942
     6.8537   7.0102   7.2119   7.9295   8.2547   8.3623   8.9899   9.1855
     9.3681   9.5158   9.7742   9.8746  10.0600  10.2692

          k = 0.0625 0.2526 0.0000 ( 21202 PWs)   bands (ev):

   -53.3820 -53.2123 -53.1811 -53.1550 -27.9008 -27.6313 -27.5756 -27.5435
   -27.4780 -27.3907 -27.2839 -27.2755 -27.2213 -27.1827 -27.1104 -27.0720
   -12.1245  -8.2546  -8.0277  -5.6649  -5.1110  -4.9104  -4.5861  -4.3254
    -1.5939  -0.5937  -0.2624   1.4594   2.0290   2.3355   2.7795   3.3624
     3.5606   3.7691   4.0089   4.0526   4.1946   4.5737   4.7238   5.1556
     5.5444   5.6239   5.7898   6.0074   6.1884   6.3921   6.5764   6.7318
     6.8271   6.9235   7.0521   8.0305   8.2134   8.5242   9.0314   9.1747
     9.4577   9.6182   9.8210  10.0605  10.1782  10.3785

          k = 0.0625 0.3248 0.0000 ( 21194 PWs)   bands (ev):

   -53.3730 -53.2030 -53.1738 -53.1477 -27.8798 -27.7196 -27.6471 -27.5438
   -27.5005 -27.4142 -27.2882 -27.2710 -27.2632 -27.2489 -27.1282 -27.0897
   -11.6774  -7.8499  -7.6276  -5.9409  -4.8283  -4.7175  -4.4842  -4.4415
    -1.9231  -0.8943  -0.3836   1.1857   1.4776   2.0679   2.2069   3.1182
     3.4270   3.6657   3.7944   4.0469   4.2026   4.3812   4.5822   4.7724
     5.3122   5.5501   5.6671   5.8696   6.1167   6.2984   6.4548   6.5826
     6.7739   6.9547   7.1210   8.0930   8.2723   8.7483   9.1278   9.2405
     9.5012   9.7513  10.0132  10.1472  10.3620  10.5787

          k = 0.0625 0.3969 0.0000 ( 21151 PWs)   bands (ev):

   -53.3647 -53.1943 -53.1671 -53.1410 -27.8616 -27.7998 -27.7299 -27.5253
   -27.5210 -27.4358 -27.3486 -27.3097 -27.2599 -27.2516 -27.1445 -27.1060
   -11.1550  -7.4153  -7.1748  -6.5546  -4.6775  -4.5753  -4.4373  -4.2300
    -2.0904  -1.1397  -0.6029   0.8385   0.9589   1.6486   1.8449   2.9834
     3.2585   3.4514   3.5624   3.7303   4.0881   4.2862   4.5106   4.7627
     5.2400   5.4729   5.5813   5.8410   6.0276   6.1951   6.4143   6.6006
     6.7932   7.0756   7.2066   8.1422   8.4778   9.0376   9.3021   9.4215
     9.7107   9.8494  10.1143  10.2065  10.3916  10.7328

          k = 0.0625 0.4691 0.0000 ( 21105 PWs)   bands (ev):

   -53.3584 -53.1877 -53.1619 -53.1358 -27.8657 -27.8448 -27.7905 -27.5372
   -27.5100 -27.4522 -27.3947 -27.3558 -27.2511 -27.2428 -27.1570 -27.1185
   -10.6053  -7.4217  -6.8187  -6.7185  -4.7754  -4.6017  -4.2399  -3.9863
    -2.1567  -1.2875  -0.8645   0.4640   0.6899   1.3497   1.5705   2.8653
     2.9139   3.2655   3.3431   3.4838   4.0365   4.2896   4.4182   4.7667
     5.1765   5.3718   5.5957   5.8470   6.0355   6.1625   6.4778   6.6474
     6.9544   7.2178   7.3147   8.2756   8.6990   9.3071   9.5286   9.6370
     9.8948   9.9773  10.0649  10.2559  10.4405  10.8355

          k = 0.0625 0.5413 0.0000 ( 21084 PWs)   bands (ev):

   -53.3549 -53.1841 -53.1591 -53.1331 -27.8961 -27.8486 -27.8152 -27.5458
   -27.5019 -27.4611 -27.4196 -27.3806 -27.2464 -27.2380 -27.1638 -27.1252
   -10.1711  -7.9148  -6.5304  -6.4005  -4.9240  -4.7228  -4.0956  -3.8359
    -2.1737  -1.3292  -1.0601   0.2492   0.6058   1.1707   1.4314   2.6741
     2.7972   3.0445   3.2740   3.3750   4.0164   4.2753   4.3890   4.7781
     5.1220   5.3316   5.5255   5.8516   6.0879   6.2344   6.5710   6.6572
     7.0953   7.3175   7.3911   8.4804   8.8663   9.3245   9.6496   9.8577
     9.9339  10.0354  10.1825  10.2617  10.4369  10.7519

          k = 0.1250 0.2165 0.0000 ( 21179 PWs)   bands (ev):

   -53.3833 -53.2136 -53.1821 -53.1560 -27.9037 -27.6148 -27.5747 -27.5296
   -27.4790 -27.3918 -27.2856 -27.2772 -27.2087 -27.1702 -27.1112 -27.0727
   -12.1816  -8.3070  -8.0792  -5.6554  -5.1483  -4.9413  -4.6007  -4.2786
    -1.4670  -0.7147  -0.2244   1.5118   2.2055   2.3895   2.7979   3.3695
     3.5153   3.7712   3.9898   4.0602   4.3481   4.6971   4.8220   5.2871
     5.4246   5.4909   5.6841   6.0099   6.2680   6.3970   6.5269   6.7766
     6.8582   6.9615   7.0835   8.0995   8.2498   8.4633   8.9700   9.3264
     9.4052   9.5771   9.8330  10.0912  10.1569  10.3093

          k = 0.1250 0.2887 0.0000 ( 21199 PWs)   bands (ev):

   -53.3750 -53.2050 -53.1754 -53.1493 -27.8843 -27.6902 -27.6175 -27.5473
   -27.5063 -27.4203 -27.2748 -27.2658 -27.2648 -27.2268 -27.1324 -27.0939
   -11.7849  -7.9439  -7.7229  -5.8103  -4.8912  -4.7468  -4.4926  -4.4370
    -1.7812  -1.1383  -0.2709   1.3029   1.7578   2.1582   2.4173   2.8715
     3.3103   3.7941   3.9874   4.1097   4.2114   4.4593   4.7296   4.9554
     5.1630   5.3424   5.5785   5.8111   6.1248   6.3059   6.3710   6.5897
     6.7906   7.0605   7.1956   8.1506   8.3425   8.6336   9.0963   9.3464
     9.5621   9.6678   9.9074  10.1580  10.3849  10.4802

          k = 0.1250 0.3608 0.0000 ( 21195 PWs)   bands (ev):

   -53.3667 -53.1963 -53.1686 -53.1426 -27.8653 -27.7645 -27.6934 -27.5348
   -27.5286 -27.4492 -27.3215 -27.2827 -27.2625 -27.2542 -27.1540 -27.1155
   -11.3000  -7.5198  -7.2976  -6.3190  -4.6579  -4.6176  -4.4414  -4.2945
    -2.0250  -1.4330  -0.4200   1.0266   1.2387   1.7962   1.9995   2.6110
     3.1855   3.5767   3.7704   3.9340   4.1272   4.3838   4.5871   4.7357
     5.2403   5.3054   5.5291   5.6499   6.0592   6.1023   6.3048   6.4722
     6.7932   7.1541   7.3043   8.2460   8.4808   8.8908   9.2382   9.4863
     9.6859   9.8303  10.0715  10.2032  10.4425  10.6727

          k = 0.1250 0.4330 0.0000 ( 21113 PWs)   bands (ev):

   -53.3596 -53.1890 -53.1629 -53.1369 -27.8516 -27.8250 -27.7568 -27.5578
   -27.5130 -27.4737 -27.3683 -27.3294 -27.2529 -27.2446 -27.1725 -27.1339
   -10.7560  -7.2124  -6.8726  -6.8282  -4.7053  -4.5379  -4.2915  -4.0427
    -2.2298  -1.5508  -0.6581   0.6886   0.8797   1.4553   1.6617   2.4945
     2.9641   3.2183   3.5050   3.7657   4.1017   4.3054   4.5161   4.6655
     5.1708   5.2500   5.5460   5.7539   5.9140   6.0553   6.2464   6.5566
     6.8913   7.3019   7.4054   8.3572   8.6430   9.2124   9.4035   9.5480
     9.8061   9.9702  10.1654  10.3307  10.4425  10.7496

          k = 0.1250 0.5052 0.0000 ( 21081 PWs)   bands (ev):

   -53.3549 -53.1841 -53.1591 -53.1331 -27.8704 -27.8402 -27.7958 -27.5735
   -27.5023 -27.4898 -27.3993 -27.3604 -27.2464 -27.2381 -27.1848 -27.1462
   -10.2296  -7.7329  -6.5815  -6.4403  -4.8506  -4.6517  -4.1020  -3.8430
    -2.3767  -1.5346  -0.8994   0.4127   0.7043   1.2652   1.4460   2.4215
     2.7455   2.9525   3.2091   3.6879   4.1110   4.2765   4.4545   4.6272
     5.0763   5.1857   5.5353   5.7820   5.8847   6.1712   6.3327   6.6119
     7.0464   7.4413   7.5200   8.4483   8.7880   9.3033   9.5063   9.6867
     9.9505  10.0392  10.2179  10.3435  10.4783  10.6999

          k = 0.1250 0.5774 0.0000 ( 21108 PWs)   bands (ev):

   -53.3533 -53.1824 -53.1578 -53.1317 -27.8842 -27.8412 -27.8065 -27.5791
   -27.4997 -27.4942 -27.4102 -27.3712 -27.2441 -27.2358 -27.1891 -27.1505
    -9.9636  -8.0406  -6.3994  -6.2618  -4.9484  -4.7338  -4.0294  -3.7675
    -2.4296  -1.4970  -1.0128   0.3125   0.6560   1.1947   1.3824   2.3916
     2.6549   2.8608   3.1018   3.6455   4.0982   4.2818   4.4268   4.6243
     5.0081   5.2058   5.4822   5.7495   5.9539   6.1831   6.5198   6.5683
     7.1122   7.4988   7.5732   8.4968   8.8577   9.1116   9.6714   9.8687
    10.0002  10.0055  10.2616  10.3224  10.5004  10.6103

          k = 0.1875 0.3248 0.0000 ( 21195 PWs)   bands (ev):

   -53.3674 -53.1971 -53.1692 -53.1431 -27.8667 -27.7485 -27.6770 -27.5426
   -27.5303 -27.4576 -27.3093 -27.2705 -27.2634 -27.2551 -27.1601 -27.1216
   -11.3490  -7.5574  -7.3395  -6.2274  -4.6516  -4.6383  -4.4352  -4.3150
    -1.9751  -1.5864  -0.3492   1.1055   1.4079   1.8193   2.1160   2.3878
     3.0733   3.6792   3.8800   4.0172   4.1386   4.4621   4.5915   4.6757
     5.1910   5.3315   5.4221   5.6268   6.0059   6.1033   6.1606   6.5452
     6.8398   7.1449   7.3485   8.2408   8.5245   8.8269   9.2779   9.5638
     9.6099   9.8562  10.0681  10.1946  10.4517  10.4952

          k = 0.1875 0.3969 0.0000 ( 21153 PWs)   bands (ev):

   -53.3603 -53.1897 -53.1635 -53.1374 -27.8511 -27.7984 -27.7287 -27.5783
   -27.5144 -27.4953 -27.3467 -27.3079 -27.2538 -27.2455 -27.1882 -27.1496
   -10.8350  -7.1596  -6.9075  -6.7920  -4.6664  -4.5015  -4.3161  -4.0730
    -2.3420  -1.6711  -0.5154   0.8771   1.0752   1.4815   1.7180   2.1640
     2.7662   3.4113   3.6306   3.8808   4.1423   4.3941   4.5247   4.7194
     4.9639   5.2003   5.4981   5.5890   5.8643   6.0264   6.1413   6.5530
     6.9541   7.2303   7.4315   8.4039   8.6266   9.1295   9.3494   9.7067
     9.7439   9.9692  10.1345  10.3496  10.4549  10.6016

          k = 0.1875 0.4691 0.0000 ( 21101 PWs)   bands (ev):

   -53.3549 -53.1841 -53.1591 -53.1331 -27.8440 -27.8310 -27.7654 -27.6074
   -27.5259 -27.5015 -27.3740 -27.3351 -27.2464 -27.2381 -27.2109 -27.1723
   -10.2826  -7.5402  -6.6353  -6.4773  -4.7808  -4.5823  -4.1081  -3.8500
    -2.6597  -1.5952  -0.7348   0.6105   0.8578   1.2780   1.4612   2.0218
     2.4548   3.1419   3.3479   3.8187   4.2111   4.2730   4.5038   4.6364
     4.9187   5.0778   5.4239   5.5404   5.8873   6.0406   6.3064   6.5988
     7.0608   7.3943   7.5522   8.4622   8.6651   9.3275   9.3929   9.5240
     9.9462  10.0378  10.3328  10.4080  10.4828  10.7058

          k = 0.1875 0.5413 0.0000 ( 21112 PWs)   bands (ev):

   -53.3520 -53.1811 -53.1567 -53.1307 -27.8569 -27.8325 -27.7834 -27.6237
   -27.5428 -27.4946 -27.3883 -27.3494 -27.2424 -27.2340 -27.2236 -27.1849
    -9.8211  -8.0619  -6.3199  -6.1705  -4.9300  -4.7088  -3.9812  -3.7175
    -2.8268  -1.4962  -0.9144   0.4410   0.7243   1.2451   1.3542   1.9229
     2.2592   2.9731   3.1969   3.7904   4.1316   4.3032   4.4549   4.6191
     4.8079   4.9375   5.4811   5.6123   5.8786   6.1182   6.4200   6.6767
     7.1392   7.5219   7.6768   8.3230   8.6169   9.1481   9.5779   9.7070
     9.9993  10.0953  10.2808  10.3615  10.5872  10.8366

          k = 0.2500 0.4330 0.0000 ( 21125 PWs)   bands (ev):

   -53.3549 -53.1841 -53.1591 -53.1331 -27.8398 -27.8177 -27.7489 -27.6247
   -27.5437 -27.5016 -27.3607 -27.3219 -27.2464 -27.2381 -27.2245 -27.1858
   -10.3033  -7.4549  -6.6598  -6.4918  -4.7529  -4.5537  -4.1106  -3.8530
    -2.7886  -1.5963  -0.6673   0.7484   0.9590   1.2205   1.4239   1.8747
     2.3195   3.2848   3.3901   3.7924   4.2313   4.3674   4.4684   4.6071
     4.9728   5.0896   5.2771   5.4183   5.6831   6.1665   6.3795   6.5354
     7.1243   7.3260   7.5533   8.4224   8.6488   9.2921   9.3521   9.5467
     9.9187  10.0155  10.3861  10.4241  10.5578  10.6910

          k = 0.2500 0.5052 0.0000 ( 21117 PWs)   bands (ev):

   -53.3513 -53.1804 -53.1562 -53.1301 -27.8327 -27.8240 -27.7558 -27.6620
   -27.5826 -27.4930 -27.3645 -27.3256 -27.2544 -27.2414 -27.2331 -27.2157
    -9.7560  -8.0348  -6.2890  -6.1284  -4.9022  -4.6800  -3.9560  -3.6915
    -3.0959  -1.4513  -0.8503   0.5897   0.8691   1.1433   1.3270   1.6501
     1.9555   3.1716   3.2881   3.7812   4.0523   4.2701   4.4684   4.6025
     4.8844   4.9739   5.1695   5.5053   5.6690   6.2492   6.4702   6.7217
     7.1936   7.5040   7.7142   8.1164   8.3972   9.2856   9.4833   9.5704
     9.8772  10.1488  10.2959  10.4971  10.7986  10.9342

          k = 0.2500 0.5774 0.0000 ( 21116 PWs)   bands (ev):

   -53.3501 -53.1790 -53.1552 -53.1291 -27.8295 -27.8250 -27.7564 -27.6769
   -27.5981 -27.4900 -27.3640 -27.3251 -27.2667 -27.2397 -27.2314 -27.2280
    -9.4316  -8.3740  -6.1136  -5.9654  -4.9969  -4.7604  -3.8993  -3.6319
    -3.2015  -1.3610  -0.9568   0.5122   0.8116   1.2152   1.3326   1.5156
     1.7990   3.1237   3.2788   3.7521   4.0273   4.1875   4.4381   4.6516
     4.8204   4.8468   5.1513   5.5390   5.8742   6.1463   6.5475   6.9274
     7.1429   7.5946   7.8021   7.8842   8.2180   9.2409   9.6061   9.6582
     9.8890  10.1277  10.2251  10.4415  10.8310  11.2824

          k = 0.3125 0.5413 0.0000 ( 21100 PWs)   bands (ev):

   -53.3494 -53.1783 -53.1546 -53.1286 -27.8242 -27.8073 -27.7362 -27.7065
   -27.6283 -27.4884 -27.3427 -27.3038 -27.2946 -27.2559 -27.2387 -27.2304
    -9.2202  -8.5529  -6.0328  -5.8863  -5.0252  -4.7833  -3.8703  -3.6016
    -3.3408  -1.2712  -1.0110   0.5695   0.9405   1.0956   1.3131   1.4306
     1.5696   3.2268   3.3681   3.7159   3.8908   4.0733   4.5428   4.5770
     4.7707   4.9559   5.1154   5.3897   5.7707   6.3030   6.6527   6.9918
     7.2223   7.5798   7.6441   7.8492   8.0109   9.2313   9.6380   9.6722
     9.7947  10.0905  10.2625  10.5082  10.9749  11.5534

     the Fermi energy is     8.2993 ev

!    total energy              =   -1977.35761005 Ry
     total all-electron energy =    -38770.678455 Ry
     estimated scf accuracy    <          6.8E-09 Ry
     smearing contrib. (-TS)   =      -0.00226918 Ry
     internal energy E=F+TS    =   -1977.35534087 Ry

     The total energy is F=E-TS. E is the sum of the following terms:
     one-electron contribution =   -7052.39686319 Ry
     hartree contribution      =    3568.05839859 Ry
     xc contribution           =    -120.66700339 Ry
     ewald contribution        =    2897.54083780 Ry
     one-center paw contrib.   =   -1269.89071067 Ry

     convergence has been achieved in  16 iterations

     negative rho (up, down):  5.505E-05 0.000E+00

     Forces acting on atoms (cartesian axes, Ry/au):

     atom    1 type  2   force =     0.00000000    0.00000000    0.12310273
     atom    2 type  1   force =     0.00000000    0.00000000   -0.04905988
     atom    3 type  2   force =     0.00000000   -0.00000000   -0.22900647
     atom    4 type  2   force =     0.00000000   -0.00000000    0.00792994
     atom    5 type  1   force =     0.00000000    0.00000000   -0.12284533
     atom    6 type  2   force =     0.00000000   -0.00000000   -0.08738722
     atom    7 type  2   force =     0.00000000   -0.00000000    0.15947756
     atom    8 type  1   force =     0.00000000   -0.00000000    0.05488766
     atom    9 type  2   force =     0.00000000   -0.00000000    0.01650980
     atom   10 type  2   force =     0.00000000    0.00000000    0.21470138
     atom   11 type  1   force =     0.00000000    0.00000000    0.01093382
     atom   12 type  2   force =     0.00000000    0.00000000   -0.09924398

     Total force =     0.421402     Total SCF correction =     0.000258
     Energy error            =      2.1E-01 Ry
     Gradient error          =      2.3E-01 Ry/Bohr

     number of scf cycles    =   8
     number of bfgs steps    =   7

     energy             old  =   -1977.1451824688 Ry
     energy             new  =   -1977.3576100478 Ry

     CASE: energy            _new < energy            _old

     new trust radius        =       0.8000000000 bohr
     new conv_thr            =       0.0000000100 Ry


ATOMIC_POSITIONS (crystal)
S                0.3333330000        0.6666670000       -0.0399148900
Mo              -0.0000000000       -0.0000000000        0.0197787956
S                0.3333330000        0.6666670000        0.0795904354
S                0.6666670000        0.3333330000        0.1448997648
Mo               0.3333330000        0.6666670000        0.1943443619
S                0.6666670000        0.3333330000        0.2390203049
S               -0.0000000000       -0.0000000000        0.2781280752
Mo               0.6666670000        0.3333330000        0.3234523878
S               -0.0000000000       -0.0000000000        0.3738829760
S                0.3333330000        0.6666670000        0.4391383799
Mo               0.0000000000        0.0000000000        0.5024755081
S                0.3333330000        0.6666670000        0.5602039005



     Writing config-only to output data dir ./tmp/relax/mos2_slab.save/ :
     XML data file
     NEW-OLD atomic charge density approx. for the potential

     negative rho (up, down):  3.587E-05 0.000E+00

     total cpu time spent up to now is    21775.2 secs

     Self-consistent Calculation

     iteration #  1     ecut=    80.00 Ry     beta= 0.30
     Davidson diagonalization with overlap
     c_bands:  2 eigenvalues not converged
     c_bands:  3 eigenvalues not converged
     c_bands:  2 eigenvalues not converged
     c_bands:  3 eigenvalues not converged
     c_bands:  1 eigenvalues not converged
     c_bands:  3 eigenvalues not converged
     c_bands:  2 eigenvalues not converged
     c_bands:  1 eigenvalues not converged
     c_bands:  1 eigenvalues not converged
     c_bands:  3 eigenvalues not converged
     c_bands:  1 eigenvalues not converged
     c_bands:  2 eigenvalues not converged
     c_bands:  2 eigenvalues not converged
     c_bands:  2 eigenvalues not converged
     c_bands:  2 eigenvalues not converged
     c_bands:  3 eigenvalues not converged
     c_bands:  2 eigenvalues not converged
     c_bands:  3 eigenvalues not converged
     c_bands:  1 eigenvalues not converged
     c_bands:  1 eigenvalues not converged
     c_bands:  1 eigenvalues not converged
     c_bands:  1 eigenvalues not converged
     c_bands:  1 eigenvalues not converged
     c_bands:  2 eigenvalues not converged
     ethr =  1.00E-06,  avg # of iterations = 19.7

     negative rho (up, down):  9.363E-07 0.000E+00

     total cpu time spent up to now is    22456.2 secs

     total energy              =   -1977.71350049 Ry
     estimated scf accuracy    <       0.19506818 Ry

     iteration #  2     ecut=    80.00 Ry     beta= 0.30
     Davidson diagonalization with overlap
     ethr =  1.88E-04,  avg # of iterations =  2.0

     negative rho (up, down):  1.366E-07 0.000E+00

     total cpu time spent up to now is    22568.4 secs

     total energy              =   -1977.62395918 Ry
     estimated scf accuracy    <       0.08121936 Ry

     iteration #  3     ecut=    80.00 Ry     beta= 0.30
     Davidson diagonalization with overlap
     ethr =  7.81E-05,  avg # of iterations =  2.0

     negative rho (up, down):  1.008E-06 0.000E+00

     total cpu time spent up to now is    22686.0 secs

     total energy              =   -1977.60553384 Ry
     estimated scf accuracy    <       0.02874160 Ry

     iteration #  4     ecut=    80.00 Ry     beta= 0.30
     Davidson diagonalization with overlap
     ethr =  2.76E-05,  avg # of iterations =  3.0

     negative rho (up, down):  1.197E-06 0.000E+00

     total cpu time spent up to now is    22802.6 secs

     total energy              =   -1977.60824478 Ry
     estimated scf accuracy    <       0.00313374 Ry

     iteration #  5     ecut=    80.00 Ry     beta= 0.30
     Davidson diagonalization with overlap
     ethr =  3.01E-06,  avg # of iterations =  7.6

     negative rho (up, down):  1.280E-06 0.000E+00

     total cpu time spent up to now is    22936.7 secs

     total energy              =   -1977.60837616 Ry
     estimated scf accuracy    <       0.00159052 Ry

     iteration #  6     ecut=    80.00 Ry     beta= 0.30
     Davidson diagonalization with overlap
     ethr =  1.53E-06,  avg # of iterations =  2.6

     negative rho (up, down):  2.506E-06 0.000E+00

     total cpu time spent up to now is    23065.5 secs

     total energy              =   -1977.60825417 Ry
     estimated scf accuracy    <       0.00072038 Ry

     iteration #  7     ecut=    80.00 Ry     beta= 0.30
     Davidson diagonalization with overlap
     ethr =  6.93E-07,  avg # of iterations =  2.7

     negative rho (up, down):  4.422E-06 0.000E+00

     total cpu time spent up to now is    23183.1 secs

     total energy              =   -1977.60834949 Ry
     estimated scf accuracy    <       0.00018014 Ry

     iteration #  8     ecut=    80.00 Ry     beta= 0.30
     Davidson diagonalization with overlap
     ethr =  1.73E-07,  avg # of iterations =  3.5

     negative rho (up, down):  1.388E-05 0.000E+00

     total cpu time spent up to now is    23304.4 secs

     total energy              =   -1977.60832163 Ry
     estimated scf accuracy    <       0.00014086 Ry

     iteration #  9     ecut=    80.00 Ry     beta= 0.30
     Davidson diagonalization with overlap
     ethr =  1.35E-07,  avg # of iterations =  2.0

     negative rho (up, down):  2.258E-05 0.000E+00

     total cpu time spent up to now is    23417.8 secs

     total energy              =   -1977.60831879 Ry
     estimated scf accuracy    <       0.00005412 Ry

     iteration # 10     ecut=    80.00 Ry     beta= 0.30
     Davidson diagonalization with overlap
     ethr =  5.20E-08,  avg # of iterations =  1.4

     negative rho (up, down):  4.952E-05 0.000E+00

     total cpu time spent up to now is    23523.0 secs

     total energy              =   -1977.60831705 Ry
     estimated scf accuracy    <       0.00002426 Ry

     iteration # 11     ecut=    80.00 Ry     beta= 0.30
     Davidson diagonalization with overlap
     ethr =  2.33E-08,  avg # of iterations =  2.9

     negative rho (up, down):  5.034E-05 0.000E+00

     total cpu time spent up to now is    23637.1 secs

     total energy              =   -1977.60831825 Ry
     estimated scf accuracy    <       0.00000717 Ry

     iteration # 12     ecut=    80.00 Ry     beta= 0.30
     Davidson diagonalization with overlap
     ethr =  6.89E-09,  avg # of iterations =  3.6

     negative rho (up, down):  4.939E-05 0.000E+00

     total cpu time spent up to now is    23762.3 secs

     total energy              =   -1977.60831801 Ry
     estimated scf accuracy    <       0.00000191 Ry

     iteration # 13     ecut=    80.00 Ry     beta= 0.30
     Davidson diagonalization with overlap
     ethr =  1.84E-09,  avg # of iterations =  3.9

     negative rho (up, down):  4.950E-05 0.000E+00

     total cpu time spent up to now is    23879.6 secs

     total energy              =   -1977.60831776 Ry
     estimated scf accuracy    <       0.00000079 Ry

     iteration # 14     ecut=    80.00 Ry     beta= 0.30
     Davidson diagonalization with overlap
     ethr =  7.56E-10,  avg # of iterations =  2.8

     negative rho (up, down):  5.027E-05 0.000E+00

     total cpu time spent up to now is    24009.6 secs

     total energy              =   -1977.60831782 Ry
     estimated scf accuracy    <       0.00000032 Ry

     iteration # 15     ecut=    80.00 Ry     beta= 0.30
     Davidson diagonalization with overlap
     ethr =  3.04E-10,  avg # of iterations =  3.3

     negative rho (up, down):  5.063E-05 0.000E+00

     total cpu time spent up to now is    24125.8 secs

     total energy              =   -1977.60831775 Ry
     estimated scf accuracy    <       0.00000012 Ry

     iteration # 16     ecut=    80.00 Ry     beta= 0.30
     Davidson diagonalization with overlap
     ethr =  1.18E-10,  avg # of iterations =  4.7

     negative rho (up, down):  4.834E-05 0.000E+00

     total cpu time spent up to now is    24256.4 secs

     total energy              =   -1977.60831793 Ry
     estimated scf accuracy    <       0.00000009 Ry

     iteration # 17     ecut=    80.00 Ry     beta= 0.30
     Davidson diagonalization with overlap
     ethr =  9.07E-11,  avg # of iterations =  2.4

     negative rho (up, down):  4.809E-05 0.000E+00

     total cpu time spent up to now is    24372.6 secs

     total energy              =   -1977.60831794 Ry
     estimated scf accuracy    <       0.00000002 Ry

     iteration # 18     ecut=    80.00 Ry     beta= 0.30
     Davidson diagonalization with overlap
     ethr =  1.99E-11,  avg # of iterations =  2.3

     negative rho (up, down):  4.450E-05 0.000E+00

     total cpu time spent up to now is    24488.3 secs

     End of self-consistent calculation

          k = 0.0000 0.0000 0.0000 ( 21311 PWs)   bands (ev):

   -53.3928 -53.3542 -53.2261 -53.2165 -27.7961 -27.5592 -27.4699 -27.4167
   -27.4167 -27.3397 -27.2923 -27.2923 -27.2138 -27.2138 -27.0756 -27.0756
   -11.9376  -7.9639  -7.7375  -5.9794  -5.7618  -5.4035  -5.0135  -4.0072
    -0.3985   1.5527   1.5528   1.6734   2.3607   3.3901   3.4665   3.4665
     4.3445   4.4437   4.4437   4.9626   4.9626   5.3478   6.0001   6.0001
     6.1008   6.1008   6.3427   6.5739   6.7793   6.9542   6.9542   7.0194
     7.0194   7.8564   7.8565   8.0199   8.6998   8.6998   8.7915   9.2988
     9.2989   9.4587   9.8361   9.8361  10.2110  10.2110

          k = 0.0000 0.0722 0.0000 ( 21283 PWs)   bands (ev):

   -53.3911 -53.3528 -53.2243 -53.2150 -27.7922 -27.5553 -27.4675 -27.4348
   -27.4207 -27.3372 -27.3111 -27.2964 -27.2275 -27.2170 -27.0894 -27.0788
   -11.8759  -7.9053  -7.6855  -5.9255  -5.7131  -5.3635  -4.9817  -4.0249
    -0.3591   1.1948   1.4756   1.7494   2.3934   3.3698   3.4213   3.5507
     4.2103   4.3751   4.4099   4.9275   4.9984   5.3622   5.8411   5.9444
     6.0497   6.1522   6.2750   6.5669   6.7085   6.8646   6.8860   6.9250
     6.9536   7.6706   7.9188   8.0797   8.2999   8.7278   8.8831   9.2762
     9.3518   9.7719   9.8551   9.8748  10.0858  10.1356

          k = 0.0000 0.1443 0.0000 ( 21263 PWs)   bands (ev):

   -53.3861 -53.3487 -53.2193 -53.2109 -27.7812 -27.5443 -27.4859 -27.4607
   -27.4321 -27.3640 -27.3303 -27.3081 -27.2665 -27.2261 -27.1286 -27.0880
   -11.6927  -7.7337  -7.5317  -5.7724  -5.5727  -5.2489  -4.8908  -4.0891
    -0.2753   0.5018   1.2654   1.7977   2.4372   3.1683   3.4697   3.7871
     3.9401   4.1989   4.3713   4.7863   4.9143   5.2809   5.4340   5.5583
     6.1022   6.1742   6.2842   6.4148   6.5417   6.6538   6.6989   6.7424
     6.8231   7.1916   7.5243   8.0401   8.5170   8.8132   9.1458   9.2340
     9.3528   9.6132   9.7939   9.8875   9.9927  10.1824

          k = 0.0000 0.2165 0.0000 ( 21233 PWs)   bands (ev):

   -53.3788 -53.3426 -53.2117 -53.2048 -27.7647 -27.5619 -27.5277 -27.4504
   -27.4490 -27.4420 -27.3254 -27.3245 -27.3199 -27.2398 -27.1869 -27.1017
   -11.3944  -7.4621  -7.2834  -5.5526  -5.3605  -5.0762  -4.7546  -4.2234
    -0.4404  -0.0152   0.9752   1.8000   2.3740   2.9567   3.4598   3.7706
     3.9480   4.1101   4.3891   4.4956   4.5719   4.8108   4.9736   5.2312
     5.8771   6.0671   6.1797   6.1937   6.2873   6.5485   6.6042   6.6615
     6.7645   6.8617   7.0926   8.1089   8.2510   8.9376   9.1162   9.2293
     9.3229   9.6092   9.8845   9.9593  10.0730  10.2996

          k = 0.0000 0.2887 0.0000 ( 21197 PWs)   bands (ev):

   -53.3700 -53.3354 -53.2027 -53.1976 -27.7456 -27.6495 -27.5374 -27.5038
   -27.4688 -27.4384 -27.3922 -27.3459 -27.3075 -27.2559 -27.2550 -27.1179
   -10.9918  -7.1129  -6.9546  -5.3914  -5.1043  -4.8667  -4.5945  -4.3954
    -1.0258  -0.0740   0.6655   1.7087   2.1894   2.6836   3.2100   3.5597
     3.8466   4.0310   4.1251   4.3008   4.4572   4.5139   4.6801   4.8270
     5.6139   5.7901   5.9615   5.9631   6.0312   6.4160   6.6055   6.7018
     6.7077   6.7910   6.9046   8.0248   8.1965   8.9865   9.0185   9.2271
     9.2976   9.7049  10.0007  10.0464  10.3426  10.3435

          k = 0.0000 0.3608 0.0000 ( 21187 PWs)   bands (ev):

   -53.3613 -53.3282 -53.1937 -53.1903 -27.7429 -27.7198 -27.6247 -27.4886
   -27.4861 -27.4598 -27.4258 -27.3662 -27.3225 -27.2952 -27.2719 -27.1339
   -10.5017  -6.7271  -6.5692  -5.5993  -4.8058  -4.6402  -4.4513  -4.3928
    -1.4452  -0.1980   0.3853   1.5222   1.8475   2.3772   2.6058   3.3430
     3.6272   3.8190   3.8915   4.0151   4.1999   4.4534   4.4565   5.1001
     5.3027   5.6469   5.7371   5.8115   5.9098   6.1647   6.5046   6.6697
     6.8379   6.8745   6.9668   7.8861   8.3894   9.0933   9.1598   9.3540
     9.4322   9.8451  10.0184  10.1504  10.4101  10.4521

          k = 0.0000 0.4330 0.0000 ( 21140 PWs)   bands (ev):

   -53.3538 -53.3220 -53.1861 -53.1842 -27.8112 -27.7128 -27.6945 -27.5160
   -27.5053 -27.4694 -27.4157 -27.3834 -27.3791 -27.2854 -27.2847 -27.1475
    -9.9565  -6.4702  -6.1708  -6.0157  -4.5133  -4.4904  -4.3692  -4.1851
    -1.6616  -0.3847   0.1669   1.2806   1.4439   2.0031   2.1239   2.9412
     3.3659   3.6170   3.6869   3.8951   4.0794   4.2934   4.4263   5.1111
     5.3055   5.4871   5.5890   5.8068   5.8439   6.1217   6.5377   6.7751
     6.8732   6.9954   7.0898   7.8412   8.6669   9.3647   9.3700   9.6245
     9.6424   9.9694  10.0055  10.2136  10.4408  10.6095

          k = 0.0000 0.5052 0.0000 ( 21078 PWs)   bands (ev):

   -53.3489 -53.3179 -53.1810 -53.1801 -27.8590 -27.7516 -27.6945 -27.5533
   -27.5164 -27.4580 -27.4167 -27.4088 -27.3948 -27.2945 -27.2777 -27.1566
    -9.4384  -6.8648  -5.8893  -5.8384  -4.4514  -4.3526  -4.2883  -3.9856
    -1.7422  -0.5528   0.0293   1.0179   1.1938   1.6983   1.8688   2.6071
     3.0342   3.4671   3.5551   3.8998   4.0091   4.2334   4.3920   5.0738
     5.2613   5.3451   5.4918   5.7912   5.9936   6.1845   6.5940   6.8711
     6.9991   7.0665   7.1881   7.9492   8.9319   9.4860   9.6768   9.8485
     9.8804  10.0210  10.0772  10.2803  10.4328  10.7521

          k = 0.0000-0.5774 0.0000 ( 21006 PWs)   bands (ev):

   -53.3471 -53.3165 -53.1792 -53.1786 -27.8758 -27.7686 -27.6910 -27.5664
   -27.5203 -27.4540 -27.4298 -27.4064 -27.3988 -27.2976 -27.2752 -27.1597
    -9.1842  -7.1379  -5.7705  -5.7008  -4.4558  -4.3573  -4.2104  -3.9067
    -1.7583  -0.6216  -0.0175   0.9021   1.1197   1.5848   1.7911   2.4800
     2.9094   3.3924   3.5099   3.9042   3.9773   4.2182   4.3771   5.1035
     5.2305   5.2731   5.4582   5.7769   6.0692   6.2242   6.6109   6.9121
     7.0474   7.0855   7.2401   8.0591   9.0456   9.5001   9.7933   9.9416
     9.9709  10.0826  10.1163  10.2934  10.4190  10.8141

          k = 0.0625 0.1083 0.0000 ( 21269 PWs)   bands (ev):

   -53.3877 -53.3501 -53.2209 -53.2123 -27.7848 -27.5478 -27.4689 -27.4629
   -27.4289 -27.3464 -27.3325 -27.3048 -27.2535 -27.2236 -27.1155 -27.0854
   -11.7534  -7.7902  -7.5825  -5.8219  -5.6185  -5.2861  -4.9203  -4.0657
    -0.2957   0.7252   1.2831   1.7979   2.4390   3.2642   3.4534   3.6525
     4.0317   4.2561   4.3811   4.8210   4.9925   5.3346   5.5667   5.6748
     6.1008   6.1756   6.2377   6.4936   6.6153   6.6587   6.6842   6.8361
     6.9120   7.3010   7.6573   8.0396   8.6001   8.7091   8.9545   9.2205
     9.3993   9.7529   9.8070   9.8926  10.0082  10.2000

          k = 0.0625 0.1804 0.0000 ( 21194 PWs)   bands (ev):

   -53.3816 -53.3450 -53.2146 -53.2072 -27.7710 -27.5356 -27.5294 -27.4543
   -27.4444 -27.4105 -27.3238 -27.3208 -27.3009 -27.2361 -27.1632 -27.0980
   -11.5126  -7.5684  -7.3813  -5.6337  -5.4417  -5.1423  -4.8065  -4.1654
    -0.2780   0.1152   0.9682   1.8223   2.4507   3.0890   3.4557   3.7385
     3.8893   4.1959   4.3544   4.5507   4.8287   5.0511   5.1611   5.3626
     5.9330   6.0615   6.1024   6.2863   6.4076   6.5257   6.6458   6.7017
     6.8321   6.9914   7.1843   8.0879   8.5139   8.8024   8.9998   9.3613
     9.4809   9.5342   9.7603   9.9508   9.9866  10.1942

          k = 0.0625 0.2526 0.0000 ( 21202 PWs)   bands (ev):

   -53.3735 -53.3383 -53.2063 -53.2005 -27.7532 -27.6109 -27.5186 -27.4904
   -27.4647 -27.4432 -27.3623 -27.3416 -27.3125 -27.2524 -27.2249 -27.1144
   -11.1617  -7.2571  -7.0922  -5.4271  -5.2091  -4.9519  -4.6576  -4.3281
    -0.7417  -0.0682   0.6512   1.7708   2.3316   2.8432   3.3179   3.6522
     3.9051   4.0915   4.1837   4.4568   4.5164   4.6271   4.7862   5.0662
     5.6512   5.6570   5.8180   6.1759   6.2812   6.4049   6.5729   6.6650
     6.7423   6.8766   6.9457   8.0737   8.3149   8.8128   9.0458   9.2666
     9.4077   9.6439   9.8389  10.0416  10.2587  10.3179

          k = 0.0625 0.3248 0.0000 ( 21194 PWs)   bands (ev):

   -53.3648 -53.3311 -53.1973 -53.1932 -27.7354 -27.6946 -27.5836 -27.4938
   -27.4865 -27.4330 -27.4263 -27.3641 -27.3001 -27.2911 -27.2700 -27.1321
   -10.7139  -6.8856  -6.7332  -5.4459  -4.9321  -4.7303  -4.4987  -4.4257
    -1.2439  -0.1758   0.3733   1.6249   2.0559   2.5611   2.8854   3.5109
     3.6331   3.8751   3.9913   4.2101   4.3022   4.5079   4.6475   4.8815
     5.3465   5.5553   5.6663   5.9053   6.0795   6.2999   6.4024   6.5598
     6.6626   6.9512   7.0246   8.0013   8.3867   8.8677   9.0925   9.3088
     9.4933   9.7548   9.9592  10.1069  10.3403  10.5075

          k = 0.0625 0.3969 0.0000 ( 21151 PWs)   bands (ev):

   -53.3567 -53.3244 -53.1890 -53.1865 -27.7767 -27.7141 -27.6628 -27.5066
   -27.4887 -27.4758 -27.4196 -27.3848 -27.3516 -27.2887 -27.2863 -27.1484
   -10.1915  -6.5217  -6.3366  -5.8447  -4.6301  -4.5343  -4.3926  -4.2794
    -1.5528  -0.3436   0.1206   1.4198   1.6593   2.2225   2.3348   3.1703
     3.4428   3.6436   3.8101   4.0062   4.1318   4.3293   4.4639   4.9534
     5.3334   5.5008   5.5804   5.7239   5.9999   6.1071   6.3565   6.5570
     6.6743   7.0789   7.1520   7.9383   8.6077   9.0895   9.2540   9.4726
     9.7196   9.8552  10.0458  10.1556  10.3797  10.6503

          k = 0.0625 0.4691 0.0000 ( 21105 PWs)   bands (ev):

   -53.3505 -53.3193 -53.1826 -53.1814 -27.8349 -27.7278 -27.6968 -27.5344
   -27.5220 -27.4617 -27.4111 -27.4006 -27.3976 -27.2987 -27.2799 -27.1608
    -9.6432  -6.6220  -5.9832  -5.9601  -4.4489  -4.3758  -4.3323  -4.0564
    -1.6997  -0.4950  -0.0993   1.1764   1.3311   1.8609   1.9739   2.7849
     3.1743   3.4261   3.7087   3.9128   4.0358   4.2326   4.3579   4.9273
     5.2820   5.3999   5.5358   5.7600   5.9154   6.1429   6.4535   6.5633
     6.8157   7.2103   7.2728   7.9622   8.8472   9.4016   9.5151   9.6297
     9.8798   9.9952  10.1434  10.1748  10.4276  10.7610

          k = 0.0625 0.5413 0.0000 ( 21084 PWs)   bands (ev):

   -53.3471 -53.3165 -53.1792 -53.1786 -27.8664 -27.7590 -27.6909 -27.5590
   -27.5303 -27.4540 -27.4224 -27.4091 -27.4064 -27.3054 -27.2752 -27.1675
    -9.2109  -7.0690  -5.7824  -5.7116  -4.4427  -4.3430  -4.2134  -3.9096
    -1.7500  -0.5824  -0.2324   0.9761   1.1875   1.6460   1.8126   2.5496
     2.9482   3.3461   3.5906   3.9074   3.9584   4.2078   4.2940   4.9745
     5.1686   5.3788   5.4468   5.8093   5.8800   6.2836   6.4941   6.6072
     6.9274   7.2971   7.3544   8.0730   9.0167   9.4702   9.7627   9.8201
     9.9561  10.0878  10.1383  10.2624  10.4300  10.7276

          k = 0.1250 0.2165 0.0000 ( 21179 PWs)   bands (ev):

   -53.3747 -53.3393 -53.2076 -53.2015 -27.7558 -27.5949 -27.5198 -27.4753
   -27.4656 -27.4449 -27.3498 -27.3427 -27.3142 -27.2531 -27.2124 -27.1151
   -11.2189  -7.3063  -7.1388  -5.4498  -5.2445  -4.9809  -4.6795  -4.2981
    -0.5709  -0.0896   0.5537   1.7969   2.4216   2.9298   3.2786   3.6703
     3.9465   4.1034   4.1594   4.4484   4.6343   4.7764   4.9314   5.2305
     5.4941   5.5345   5.7533   6.2682   6.3099   6.3598   6.5666   6.7144
     6.7389   6.9117   7.0087   8.0831   8.4767   8.7373   9.0095   9.3935
     9.4270   9.5600   9.8067  10.0232  10.1336  10.2961

          k = 0.1250 0.2887 0.0000 ( 21199 PWs)   bands (ev):

   -53.3667 -53.3326 -53.1993 -53.1948 -27.7385 -27.6673 -27.5550 -27.4976
   -27.4920 -27.4339 -27.4059 -27.3699 -27.3028 -27.2742 -27.2689 -27.1363
   -10.8216  -6.9694  -6.8177  -5.3877  -4.9965  -4.7789  -4.5287  -4.4125
    -1.0057  -0.3013   0.2905   1.6888   2.2380   2.6816   2.9957   3.5926
     3.6897   3.8441   4.0260   4.3502   4.5133   4.5610   4.7474   4.9920
     5.1704   5.2892   5.5402   5.9784   6.1554   6.2278   6.3740   6.5640
     6.6226   7.0214   7.0794   8.1345   8.3946   8.7595   9.1486   9.3680
     9.5458   9.6604   9.8786  10.0585  10.3224  10.4283

          k = 0.1250 0.3608 0.0000 ( 21195 PWs)   bands (ev):

   -53.3586 -53.3260 -53.1909 -53.1881 -27.7444 -27.7155 -27.6280 -27.5189
   -27.4800 -27.4618 -27.4222 -27.3975 -27.3246 -27.2957 -27.2914 -27.1578
   -10.3366  -6.5985  -6.4423  -5.6763  -4.7064  -4.5697  -4.4022  -4.3305
    -1.3629  -0.5481   0.0938   1.5211   1.8893   2.3980   2.5926   3.2343
     3.4151   3.7281   3.8574   4.1299   4.3007   4.4149   4.5506   4.7357
     5.2304   5.2410   5.5681   5.7300   6.0107   6.0589   6.2864   6.3430
     6.6122   7.0895   7.2015   8.1675   8.5315   8.9205   9.1918   9.5383
     9.6876   9.8364  10.0044  10.1065  10.3840  10.5524

          k = 0.1250 0.4330 0.0000 ( 21113 PWs)   bands (ev):

   -53.3517 -53.3203 -53.1839 -53.1824 -27.8016 -27.7066 -27.6862 -27.5418
   -27.5081 -27.4645 -27.4210 -27.4128 -27.3713 -27.3140 -27.2817 -27.1762
    -9.7939  -6.4243  -6.0574  -6.0195  -4.4441  -4.4289  -4.3242  -4.1093
    -1.6030  -0.6982  -0.1434   1.3283   1.5320   2.0708   2.1467   3.0316
     3.1011   3.4563   3.6430   4.0189   4.1097   4.3541   4.4461   4.6160
     5.1236   5.2514   5.5738   5.7239   5.9129   6.0320   6.1285   6.3837
     6.7084   7.2062   7.3259   8.1677   8.7576   9.1871   9.3464   9.6368
     9.8452   9.9941  10.1190  10.2230  10.3569  10.6599

          k = 0.1250 0.5052 0.0000 ( 21081 PWs)   bands (ev):

   -53.3471 -53.3165 -53.1792 -53.1786 -27.8411 -27.7335 -27.6902 -27.5570
   -27.5389 -27.4542 -27.4366 -27.4064 -27.4022 -27.3262 -27.2752 -27.1885
    -9.2706  -6.9013  -5.8120  -5.7360  -4.4119  -4.3093  -4.2205  -3.9164
    -1.7396  -0.7216  -0.3861   1.1127   1.3300   1.8019   1.8837   2.7319
     2.9825   3.2342   3.4870   3.8561   4.0584   4.3100   4.4191   4.5780
     5.0207   5.1854   5.5405   5.7082   5.8723   6.0630   6.2149   6.4939
     6.8421   7.3305   7.4651   8.1753   8.9281   9.4072   9.5594   9.5964
     9.9710  10.1254  10.2195  10.2317  10.4016  10.6658

          k = 0.1250 0.5774 0.0000 ( 21108 PWs)   bands (ev):

   -53.3455 -53.3152 -53.1775 -53.1773 -27.8549 -27.7473 -27.6872 -27.5624
   -27.5497 -27.4507 -27.4420 -27.4131 -27.4042 -27.3305 -27.2729 -27.1928
    -9.0066  -7.1834  -5.6919  -5.6041  -4.4169  -4.3163  -4.1462  -3.8417
    -1.7845  -0.6715  -0.5304   1.0159   1.2660   1.7041   1.8061   2.6190
     2.9006   3.1996   3.4215   3.7748   4.0410   4.2812   4.3994   4.6207
     4.9396   5.1782   5.5629   5.6041   5.9040   6.0954   6.2846   6.5552
     6.8977   7.3856   7.5312   8.1944   8.9877   9.2897   9.7157   9.7729
     9.9905  10.1215  10.1609  10.3295  10.4454  10.5796

          k = 0.1875 0.3248 0.0000 ( 21195 PWs)   bands (ev):

   -53.3593 -53.3265 -53.1916 -53.1887 -27.7329 -27.7129 -27.6122 -27.5267
   -27.4814 -27.4498 -27.4230 -27.4056 -27.3124 -27.3017 -27.2923 -27.1639
   -10.3857  -6.6281  -6.4784  -5.6128  -4.7327  -4.5833  -4.4037  -4.3452
    -1.2031  -0.7589   0.1166   1.5575   2.0124   2.4397   2.7261   3.1354
     3.5691   3.6090   3.9283   4.2569   4.3050   4.5183   4.5782   4.6564
     5.0953   5.1841   5.5019   5.6965   5.9058   6.0918   6.1639   6.4390
     6.6291   7.0692   7.2286   8.2838   8.4406   8.8563   9.3625   9.5412
     9.6525   9.8105   9.9910  10.1188  10.3108  10.4555

          k = 0.1875 0.3969 0.0000 ( 21153 PWs)   bands (ev):

   -53.3524 -53.3208 -53.1846 -53.1830 -27.7750 -27.7049 -27.6613 -27.5616
   -27.4868 -27.4660 -27.4415 -27.4137 -27.3498 -27.3295 -27.2826 -27.1918
    -9.8731  -6.3448  -6.1081  -5.9938  -4.4602  -4.4414  -4.3147  -4.1368
    -1.4673  -1.0132  -0.0635   1.4138   1.7059   2.1633   2.4046   2.8304
     3.2542   3.4610   3.6027   4.0251   4.2346   4.3740   4.5133   4.6679
     4.9185   5.0628   5.4588   5.5608   5.7461   6.0183   6.1481   6.3425
     6.6990   7.1208   7.3433   8.3845   8.5958   9.0653   9.4024   9.7321
     9.7879   9.9491  10.0708  10.2478  10.3280  10.5071

          k = 0.1875 0.4691 0.0000 ( 21101 PWs)   bands (ev):

   -53.3471 -53.3165 -53.1792 -53.1786 -27.8098 -27.7049 -27.6865 -27.5898
   -27.5138 -27.4707 -27.4539 -27.4064 -27.3770 -27.3521 -27.2752 -27.2145
    -9.3246  -6.7279  -5.8446  -5.7585  -4.3825  -4.2769  -4.2268  -3.9230
    -1.7649  -1.0083  -0.2783   1.2511   1.4812   1.9229   2.0655   2.7259
     2.9348   3.2326   3.3187   3.9050   4.2189   4.2441   4.4656   4.5618
     4.8771   4.9768   5.3558   5.4118   5.7517   5.9859   6.1765   6.4628
     6.8195   7.2630   7.4846   8.3701   8.7573   9.2828   9.4180   9.5155
     9.8812  10.0586  10.2571  10.3571  10.4219  10.6014

          k = 0.1875 0.5413 0.0000 ( 21112 PWs)   bands (ev):

   -53.3443 -53.3141 -53.1763 -53.1762 -27.8282 -27.7206 -27.6837 -27.6055
   -27.5280 -27.4869 -27.4474 -27.4025 -27.3913 -27.3647 -27.2712 -27.2271
    -8.8685  -7.1997  -5.6345  -5.5313  -4.3805  -4.2791  -4.0973  -3.7920
    -1.9319  -0.9323  -0.4555   1.1064   1.3909   1.8150   1.8739   2.6657
     2.7499   3.0679   3.1754   3.8615   4.0902   4.2490   4.4066   4.5460
     4.7594   4.9090   5.3272   5.4406   5.7463   5.9295   6.2687   6.6237
     6.9378   7.3893   7.6144   8.2759   8.8035   9.1047   9.5059   9.6825
     9.8574  10.1434  10.1764  10.3437  10.5445  10.7777

          k = 0.2500 0.4330 0.0000 ( 21125 PWs)   bands (ev):

   -53.3471 -53.3165 -53.1792 -53.1786 -27.7937 -27.6968 -27.6779 -27.6065
   -27.5007 -27.4879 -27.4540 -27.4064 -27.3656 -27.3638 -27.2752 -27.2280
    -9.3457  -6.6531  -5.8597  -5.7673  -4.3708  -4.2643  -4.2288  -3.9257
    -1.7972  -1.0970  -0.2305   1.3300   1.5471   1.9599   2.2213   2.5202
     2.9604   3.2593   3.3581   3.7759   4.2819   4.3092   4.4814   4.5298
     4.9045   4.9115   5.2218   5.3194   5.5042   6.0678   6.1725   6.4603
     6.8184   7.2238   7.4880   8.4577   8.6633   9.2251   9.3847   9.5118
     9.8153  10.0309  10.2621  10.4253  10.4659  10.5829

          k = 0.2500 0.5052 0.0000 ( 21117 PWs)   bands (ev):

   -53.3436 -53.3136 -53.1757 -53.1756 -27.8001 -27.6957 -27.6783 -27.6428
   -27.5252 -27.5043 -27.4459 -27.4016 -27.3952 -27.3675 -27.2703 -27.2578
    -8.8066  -7.1718  -5.6100  -5.4959  -4.3535  -4.2517  -4.0721  -3.7661
    -2.1012  -0.9878  -0.4153   1.2479   1.4891   1.8537   2.0321   2.3430
     2.6583   3.1184   3.2405   3.7365   4.0394   4.2358   4.3566   4.5579
     4.7794   4.9001   5.0659   5.2817   5.4686   5.9114   6.2962   6.7064
     6.9774   7.3914   7.6486   8.2399   8.6044   9.0839   9.3888   9.5638
     9.7078  10.0663  10.1615  10.4832  10.7129  10.9331

          k = 0.2500 0.5774 0.0000 ( 21116 PWs)   bands (ev):

   -53.3424 -53.3126 -53.1747 -53.1743 -27.8005 -27.6953 -27.6766 -27.6573
   -27.5401 -27.5038 -27.4431 -27.4075 -27.3998 -27.3670 -27.2701 -27.2685
    -8.4890  -7.4872  -5.5061  -5.3861  -4.3574  -4.2595  -4.0138  -3.7068
    -2.2107  -0.9056  -0.5214   1.1991   1.4971   1.8557   1.9307   2.2719
     2.5383   3.0559   3.2263   3.7767   3.9006   4.1617   4.3049   4.6476
     4.7331   4.7555   5.0210   5.2956   5.5801   5.8057   6.3495   6.8831
     7.0557   7.4780   7.7274   8.0250   8.5253   8.9331   9.4967   9.6587
     9.7162   9.9939  10.0881  10.4258  10.7936  11.2289

          k = 0.3125 0.5413 0.0000 ( 21100 PWs)   bands (ev):

   -53.3417 -53.3120 -53.1741 -53.1736 -27.7799 -27.6865 -27.6847 -27.6648
   -27.5697 -27.4827 -27.4416 -27.4352 -27.3989 -27.3458 -27.2979 -27.2676
    -8.2850  -7.6536  -5.4595  -5.3333  -4.3485  -4.2526  -3.9844  -3.6765
    -2.3317  -0.8416  -0.5814   1.3358   1.4929   1.8792   2.0103   2.1111
     2.3072   3.1409   3.3287   3.6919   3.7750   4.0297   4.3653   4.5997
     4.6355   4.8813   5.0228   5.1215   5.4302   5.8778   6.3410   7.0570
     7.1561   7.5210   7.7230   7.8315   8.3399   8.9119   9.5368   9.5912
     9.6614   9.9430  10.0401  10.4653  10.9151  11.3810

     the Fermi energy is     8.3290 ev

!    total energy              =   -1977.60831817 Ry
     total all-electron energy =    -38770.929163 Ry
     estimated scf accuracy    <          8.0E-09 Ry
     smearing contrib. (-TS)   =      -0.00013796 Ry
     internal energy E=F+TS    =   -1977.60818021 Ry

     The total energy is F=E-TS. E is the sum of the following terms:
     one-electron contribution =   -5979.30902011 Ry
     hartree contribution      =    3031.78313624 Ry
     xc contribution           =    -120.18388790 Ry
     ewald contribution        =    2359.97950564 Ry
     one-center paw contrib.   =   -1269.87791408 Ry

     convergence has been achieved in  18 iterations

     negative rho (up, down):  4.450E-05 0.000E+00

     Forces acting on atoms (cartesian axes, Ry/au):

     atom    1 type  2   force =     0.00000000    0.00000000    0.11517637
     atom    2 type  1   force =     0.00000000    0.00000000   -0.01646670
     atom    3 type  2   force =     0.00000000    0.00000000   -0.17803528
     atom    4 type  2   force =     0.00000000   -0.00000000   -0.02165618
     atom    5 type  1   force =     0.00000000   -0.00000000   -0.14894905
     atom    6 type  2   force =     0.00000000   -0.00000000   -0.13705961
     atom    7 type  2   force =     0.00000000    0.00000000    0.14930422
     atom    8 type  1   force =     0.00000000    0.00000000    0.16495249
     atom    9 type  2   force =     0.00000000    0.00000000    0.00843146
     atom   10 type  2   force =     0.00000000   -0.00000000    0.18145985
     atom   11 type  1   force =     0.00000000    0.00000000   -0.01702106
     atom   12 type  2   force =     0.00000000    0.00000000   -0.10013650

     Total force =     0.423663     Total SCF correction =     0.000317
     Energy error            =      2.5E-01 Ry
     Gradient error          =      1.8E-01 Ry/Bohr

     number of scf cycles    =   9
     number of bfgs steps    =   8

     energy             old  =   -1977.3576100478 Ry
     energy             new  =   -1977.6083181714 Ry

     CASE: energy            _new < energy            _old

     new trust radius        =       0.8000000000 bohr
     new conv_thr            =       0.0000000100 Ry


ATOMIC_POSITIONS (crystal)
S                0.3333330000        0.6666670000       -0.0519202262
Mo              -0.0000000000       -0.0000000000        0.0061729782
S                0.3333330000        0.6666670000        0.0654790431
S                0.6666670000        0.3333330000        0.1403536656
Mo               0.3333330000        0.6666670000        0.1893840128
S                0.6666670000        0.3333330000        0.2356310539
S               -0.0000000000       -0.0000000000        0.2817884624
Mo               0.6666670000        0.3333330000        0.3287087491
S               -0.0000000000       -0.0000000000        0.3780596625
S                0.3333330000        0.6666670000        0.4529200446
Mo               0.0000000000        0.0000000000        0.5155110994
S                0.3333330000        0.6666670000        0.5729114546



     Writing config-only to output data dir ./tmp/relax/mos2_slab.save/ :
     XML data file
     NEW-OLD atomic charge density approx. for the potential

     negative rho (up, down):  2.686E-05 0.000E+00

     total cpu time spent up to now is    24543.7 secs

     Self-consistent Calculation

     iteration #  1     ecut=    80.00 Ry     beta= 0.30
     Davidson diagonalization with overlap
     c_bands:  4 eigenvalues not converged
     c_bands:  3 eigenvalues not converged
     c_bands:  2 eigenvalues not converged
     c_bands:  3 eigenvalues not converged
     c_bands:  1 eigenvalues not converged
     c_bands:  2 eigenvalues not converged
     c_bands:  3 eigenvalues not converged
     c_bands:  2 eigenvalues not converged
     c_bands:  1 eigenvalues not converged
     c_bands:  2 eigenvalues not converged
     c_bands:  3 eigenvalues not converged
     c_bands:  3 eigenvalues not converged
     c_bands:  1 eigenvalues not converged
     c_bands:  3 eigenvalues not converged
     c_bands:  2 eigenvalues not converged
     c_bands:  2 eigenvalues not converged
     c_bands:  1 eigenvalues not converged
     c_bands:  1 eigenvalues not converged
     c_bands:  4 eigenvalues not converged
     c_bands:  1 eigenvalues not converged
     c_bands:  3 eigenvalues not converged
     c_bands:  1 eigenvalues not converged
     c_bands:  1 eigenvalues not converged
     ethr =  1.00E-06,  avg # of iterations = 19.5

     negative rho (up, down):  8.551E-07 0.000E+00

     total cpu time spent up to now is    25232.5 secs

     total energy              =   -1977.97106627 Ry
     estimated scf accuracy    <       0.21666169 Ry

     iteration #  2     ecut=    80.00 Ry     beta= 0.30
     Davidson diagonalization with overlap
     ethr =  2.08E-04,  avg # of iterations =  2.0

     negative rho (up, down):  3.750E-08 0.000E+00

     total cpu time spent up to now is    25343.9 secs

     total energy              =   -1977.87334864 Ry
     estimated scf accuracy    <       0.10192237 Ry

     iteration #  3     ecut=    80.00 Ry     beta= 0.30
     Davidson diagonalization with overlap
     ethr =  9.80E-05,  avg # of iterations =  2.1

     negative rho (up, down):  2.007E-07 0.000E+00

     total cpu time spent up to now is    25462.1 secs

     total energy              =   -1977.87019965 Ry
     estimated scf accuracy    <       0.02752324 Ry

     iteration #  4     ecut=    80.00 Ry     beta= 0.30
     Davidson diagonalization with overlap
     ethr =  2.65E-05,  avg # of iterations =  3.2

     negative rho (up, down):  4.362E-07 0.000E+00

     total cpu time spent up to now is    25576.4 secs

     total energy              =   -1977.87236404 Ry
     estimated scf accuracy    <       0.00578087 Ry

     iteration #  5     ecut=    80.00 Ry     beta= 0.30
     Davidson diagonalization with overlap
     c_bands:  1 eigenvalues not converged
     c_bands:  1 eigenvalues not converged
     ethr =  5.56E-06,  avg # of iterations =  8.1

     negative rho (up, down):  3.545E-06 0.000E+00

     total cpu time spent up to now is    25699.0 secs

     total energy              =   -1977.87212180 Ry
     estimated scf accuracy    <       0.00395183 Ry

     iteration #  6     ecut=    80.00 Ry     beta= 0.30
     Davidson diagonalization with overlap
     ethr =  3.80E-06,  avg # of iterations =  3.6

     negative rho (up, down):  2.014E-05 0.000E+00

     total cpu time spent up to now is    25816.1 secs

     total energy              =   -1977.87210876 Ry
     estimated scf accuracy    <       0.00290636 Ry

     iteration #  7     ecut=    80.00 Ry     beta= 0.30
     Davidson diagonalization with overlap
     c_bands:  1 eigenvalues not converged
     ethr =  2.79E-06,  avg # of iterations =  2.9

     negative rho (up, down):  1.107E-04 0.000E+00

     total cpu time spent up to now is    25923.5 secs

     total energy              =   -1977.87219615 Ry
     estimated scf accuracy    <       0.00182537 Ry

     iteration #  8     ecut=    80.00 Ry     beta= 0.30
     Davidson diagonalization with overlap
     c_bands:  1 eigenvalues not converged
     c_bands:  1 eigenvalues not converged
     ethr =  1.76E-06,  avg # of iterations =  6.7

     negative rho (up, down):  3.096E-04 0.000E+00

     total cpu time spent up to now is    26037.8 secs

     total energy              =   -1977.87212379 Ry
     estimated scf accuracy    <       0.00085913 Ry

     iteration #  9     ecut=    80.00 Ry     beta= 0.30
     Davidson diagonalization with overlap
     c_bands:  1 eigenvalues not converged
     ethr =  8.26E-07,  avg # of iterations =  7.1

     negative rho (up, down):  1.960E-04 0.000E+00

     total cpu time spent up to now is    26158.7 secs

     total energy              =   -1977.87209795 Ry
     estimated scf accuracy    <       0.00032344 Ry

     iteration # 10     ecut=    80.00 Ry     beta= 0.30
     Davidson diagonalization with overlap
     ethr =  3.11E-07,  avg # of iterations =  1.7

     negative rho (up, down):  9.693E-05 0.000E+00

     total cpu time spent up to now is    26266.0 secs

     total energy              =   -1977.87207520 Ry
     estimated scf accuracy    <       0.00016650 Ry

     iteration # 11     ecut=    80.00 Ry     beta= 0.30
     Davidson diagonalization with overlap
     ethr =  1.60E-07,  avg # of iterations =  3.5

     negative rho (up, down):  7.005E-05 0.000E+00

     total cpu time spent up to now is    26389.6 secs

     total energy              =   -1977.87208656 Ry
     estimated scf accuracy    <       0.00005053 Ry

     iteration # 12     ecut=    80.00 Ry     beta= 0.30
     Davidson diagonalization with overlap
     ethr =  4.86E-08,  avg # of iterations =  4.1

     negative rho (up, down):  3.230E-05 0.000E+00

     total cpu time spent up to now is    26506.2 secs

     total energy              =   -1977.87207788 Ry
     estimated scf accuracy    <       0.00002028 Ry

     iteration # 13     ecut=    80.00 Ry     beta= 0.30
     Davidson diagonalization with overlap
     ethr =  1.95E-08,  avg # of iterations =  3.4

     negative rho (up, down):  4.223E-05 0.000E+00

     total cpu time spent up to now is    26633.5 secs

     total energy              =   -1977.87207614 Ry
     estimated scf accuracy    <       0.00001214 Ry

     iteration # 14     ecut=    80.00 Ry     beta= 0.30
     Davidson diagonalization with overlap
     ethr =  1.17E-08,  avg # of iterations =  2.7

     negative rho (up, down):  3.608E-05 0.000E+00

     total cpu time spent up to now is    26756.6 secs

     total energy              =   -1977.87207824 Ry
     estimated scf accuracy    <       0.00000629 Ry

     iteration # 15     ecut=    80.00 Ry     beta= 0.30
     Davidson diagonalization with overlap
     ethr =  6.05E-09,  avg # of iterations =  2.0

     negative rho (up, down):  3.195E-05 0.000E+00

     total cpu time spent up to now is    26870.1 secs

     total energy              =   -1977.87207812 Ry
     estimated scf accuracy    <       0.00000187 Ry

     iteration # 16     ecut=    80.00 Ry     beta= 0.30
     Davidson diagonalization with overlap
     c_bands:  1 eigenvalues not converged
     ethr =  1.80E-09,  avg # of iterations =  5.9

     negative rho (up, down):  3.555E-05 0.000E+00

     total cpu time spent up to now is    27000.1 secs

     total energy              =   -1977.87207779 Ry
     estimated scf accuracy    <       0.00000155 Ry

     iteration # 17     ecut=    80.00 Ry     beta= 0.30
     Davidson diagonalization with overlap
     ethr =  1.49E-09,  avg # of iterations =  1.0

     negative rho (up, down):  4.143E-05 0.000E+00

     total cpu time spent up to now is    27102.4 secs

     total energy              =   -1977.87207706 Ry
     estimated scf accuracy    <       0.00000086 Ry

     iteration # 18     ecut=    80.00 Ry     beta= 0.30
     Davidson diagonalization with overlap
     ethr =  8.27E-10,  avg # of iterations =  2.2

     negative rho (up, down):  3.970E-05 0.000E+00

     total cpu time spent up to now is    27221.2 secs

     total energy              =   -1977.87207727 Ry
     estimated scf accuracy    <       0.00000012 Ry

     iteration # 19     ecut=    80.00 Ry     beta= 0.30
     Davidson diagonalization with overlap
     ethr =  1.20E-10,  avg # of iterations =  3.7

     negative rho (up, down):  3.648E-05 0.000E+00

     total cpu time spent up to now is    27341.8 secs

     total energy              =   -1977.87207749 Ry
     estimated scf accuracy    <       0.00000007 Ry

     iteration # 20     ecut=    80.00 Ry     beta= 0.30
     Davidson diagonalization with overlap
     ethr =  6.76E-11,  avg # of iterations =  2.1

     negative rho (up, down):  3.627E-05 0.000E+00

     total cpu time spent up to now is    27474.8 secs

     total energy              =   -1977.87207748 Ry
     estimated scf accuracy    <       0.00000003 Ry

     iteration # 21     ecut=    80.00 Ry     beta= 0.30
     Davidson diagonalization with overlap
     ethr =  3.26E-11,  avg # of iterations =  2.1

     negative rho (up, down):  3.222E-05 0.000E+00

     total cpu time spent up to now is    27592.9 secs

     End of self-consistent calculation

          k = 0.0000 0.0000 0.0000 ( 21311 PWs)   bands (ev):

   -53.5679 -53.4976 -53.2493 -53.0924 -27.7508 -27.6880 -27.5435 -27.5435
   -27.5380 -27.4244 -27.4244 -27.2870 -27.2870 -27.2201 -26.9573 -26.9573
   -10.6676  -7.4387  -7.0650  -6.1381  -5.7968  -5.4686  -5.0713  -4.2822
    -0.2104   1.6405   2.3073   2.7448   2.7448   3.0804   3.7194   3.7194
     4.3586   4.6599   4.6599   5.1329   5.1330   5.2867   5.7698   5.7698
     6.1442   6.1442   6.3831   6.7402   6.8066   6.8067   7.0900   7.0900
     7.2478   7.5885   8.2439   8.2439   8.6300   9.0285   9.2349   9.2349
     9.7013   9.7013   9.9905   9.9905  10.0853  10.0853

          k = 0.0000 0.0722 0.0000 ( 21283 PWs)   bands (ev):

   -53.5665 -53.4959 -53.2476 -53.0910 -27.7471 -27.6856 -27.5612 -27.5474
   -27.5343 -27.4382 -27.4277 -27.3050 -27.2910 -27.2176 -26.9712 -26.9605
   -10.6058  -7.3806  -7.0165  -6.0847  -5.7456  -5.4303  -5.0385  -4.2873
    -0.1628   1.6587   2.3492   2.5028   2.7018   3.1261   3.6155   3.7977
     4.2075   4.5817   4.6013   5.0684   5.0775   5.3499   5.6265   5.8192
     5.9924   6.2010   6.3694   6.7174   6.7206   6.7619   6.9938   7.0329
     7.0758   7.3576   8.2201   8.2926   8.4716   9.1099   9.2569   9.4773
     9.6510   9.6879   9.9630  10.0054  10.0467  10.1308

          k = 0.0000 0.1443 0.0000 ( 21263 PWs)   bands (ev):

   -53.5624 -53.4910 -53.2426 -53.0868 -27.7366 -27.6787 -27.6111 -27.5585
   -27.5237 -27.4774 -27.4368 -27.3561 -27.3023 -27.2105 -27.0109 -26.9698
   -10.4230  -7.2117  -6.8741  -5.9295  -5.5982  -5.3185  -4.9448  -4.3079
    -0.0425   1.5862   2.0046   2.4682   2.5619   3.2089   3.3764   3.9238
     4.0207   4.3660   4.5222   4.8986   4.9117   5.2477   5.3139   5.5860
     5.9396   6.2767   6.3617   6.5199   6.5326   6.6003   6.7192   6.7468
     6.9845   7.0983   7.7191   8.1592   8.3567   9.2551   9.2672   9.5082
     9.6776   9.7932   9.8033  10.0134  10.0484  10.2100

          k = 0.0000 0.2165 0.0000 ( 21233 PWs)   bands (ev):

   -53.5563 -53.4837 -53.2353 -53.0807 -27.7212 -27.6849 -27.6684 -27.5751
   -27.5355 -27.5079 -27.4505 -27.4315 -27.3191 -27.1998 -27.0698 -26.9836
   -10.1262  -6.9481  -6.6489  -5.6877  -5.3774  -5.1415  -4.8061  -4.3544
     0.0732   0.9652   1.9103   2.3262   2.5280   3.0891   3.2797   3.7681
     4.0860   4.3422   4.5290   4.5318   4.6507   4.8131   5.0216   5.0932
     5.9367   5.9622   6.1513   6.3893   6.4205   6.4307   6.5410   6.5962
     6.7626   6.8922   7.2041   7.9179   8.3567   8.9576   9.2108   9.3670
     9.6607   9.6636   9.8327  10.1557  10.1851  10.3426

          k = 0.0000 0.2887 0.0000 ( 21197 PWs)   bands (ev):

   -53.5490 -53.4751 -53.2265 -53.0734 -27.7719 -27.7018 -27.6563 -27.6034
   -27.5945 -27.5208 -27.4878 -27.4666 -27.3389 -27.1871 -27.1387 -26.9999
    -9.7275  -6.6164  -6.3609  -5.3870  -5.1490  -4.9060  -4.6713  -4.4004
    -0.0357   0.3646   1.8647   2.0425   2.4269   2.8556   3.2997   3.5784
     3.9147   4.0201   4.3016   4.3428   4.5024   4.5696   4.7229   4.8643
     5.5409   5.7431   5.8557   6.1062   6.1158   6.4077   6.5014   6.5789
     6.6137   6.8511   6.9316   7.6784   8.3781   8.8181   9.1687   9.3118
     9.6333   9.7167   9.9333  10.1486  10.2776  10.4414

          k = 0.0000 0.3608 0.0000 ( 21187 PWs)   bands (ev):

   -53.5418 -53.4665 -53.2178 -53.0661 -27.8568 -27.6833 -27.6712 -27.6435
   -27.6139 -27.6068 -27.4827 -27.4695 -27.3586 -27.2069 -27.1744 -27.0161
    -9.2458  -6.2559  -6.0467  -5.1635  -5.0059  -4.6515  -4.5661  -4.3105
    -0.5460   0.1659   1.7208   1.7713   2.1684   2.6626   3.0466   3.1443
     3.6923   3.7681   3.9401   4.0339   4.1640   4.3968   4.6630   5.2216
     5.3010   5.5085   5.7199   5.8520   5.9359   6.2162   6.3205   6.5295
     6.7605   6.8164   7.0664   7.4372   8.5094   8.9394   9.2338   9.4699
     9.6672   9.8007  10.0302  10.1305  10.3637  10.5245

          k = 0.0000 0.4330 0.0000 ( 21140 PWs)   bands (ev):

   -53.5357 -53.4591 -53.2104 -53.0599 -27.9280 -27.7275 -27.6802 -27.6665
   -27.6334 -27.6303 -27.4962 -27.4534 -27.3752 -27.2641 -27.1637 -27.0298
    -8.7157  -5.9431  -5.7882  -5.3597  -4.7208  -4.4971  -4.3162  -4.1367
    -0.9562  -0.0027   1.5296   1.5551   1.8793   2.3113   2.5740   2.7218
     3.4017   3.5982   3.7277   3.8219   3.9341   4.3047   4.7092   5.0238
     5.2876   5.5807   5.6600   5.7792   5.8267   6.1378   6.3814   6.6042
     6.8777   6.8801   7.2071   7.2605   8.7433   9.2318   9.4067   9.7088
     9.7297   9.9138   9.9996  10.3092  10.4841  10.5506

          k = 0.0000 0.5052 0.0000 ( 21078 PWs)   bands (ev):

   -53.5316 -53.4542 -53.2054 -53.0557 -27.9751 -27.7650 -27.7276 -27.6565
   -27.6412 -27.6265 -27.5053 -27.4426 -27.3863 -27.3021 -27.1565 -27.0389
    -8.2183  -6.0385  -5.6120  -5.3645  -4.5009  -4.3802  -4.1513  -3.9660
    -1.1753  -0.1458   1.3460   1.4176   1.6727   2.0121   2.2123   2.4007
     3.0977   3.3715   3.6882   3.7340   3.8074   4.2531   4.7182   4.9559
     5.1718   5.4851   5.5996   5.7458   6.0961   6.1357   6.4909   6.7140
     6.9456   7.0240   7.2405   7.2824   8.9829   9.5439   9.5596   9.7091
     9.8924  10.1033  10.1287  10.4060  10.5422  10.6103

          k = 0.0000-0.5774 0.0000 ( 21006 PWs)   bands (ev):

   -53.5301 -53.4525 -53.2037 -53.0543 -27.9916 -27.7781 -27.7443 -27.6528
   -27.6450 -27.6240 -27.5085 -27.4388 -27.3902 -27.3154 -27.1539 -27.0421
    -7.9766  -6.2297  -5.5215  -5.3002  -4.4249  -4.3325  -4.1024  -3.8909
    -1.2400  -0.2025   1.2612   1.3706   1.6019   1.9121   2.0802   2.2777
     2.9823   3.2830   3.6426   3.7277   3.7602   4.2314   4.7167   4.9477
     5.1327   5.4461   5.5693   5.7670   6.1392   6.1980   6.5206   6.7683
     6.9689   7.0771   7.2974   7.3081   9.0869   9.5443   9.7414   9.7628
     9.8972  10.2022  10.2120  10.4324  10.5318  10.6790

          k = 0.0625 0.1083 0.0000 ( 21269 PWs)   bands (ev):

   -53.5637 -53.4926 -53.2442 -53.0882 -27.7400 -27.6809 -27.5945 -27.5554
   -27.5271 -27.4643 -27.4343 -27.3391 -27.2991 -27.2128 -26.9977 -26.9672
   -10.4835  -7.2671  -6.9210  -5.9804  -5.6462  -5.3552  -4.9752  -4.3001
    -0.0784   1.6536   2.1367   2.4039   2.5972   3.1901   3.4858   3.8997
     4.0141   4.4428   4.5241   4.9515   4.9805   5.3415   5.3820   5.7173
     5.8969   6.3046   6.3304   6.5103   6.6677   6.6939   6.7507   6.7641
     7.0653   7.1810   7.8732   8.1135   8.5121   9.2022   9.3538   9.4772
     9.6312   9.7748   9.8287  10.0055  10.0376  10.2318

          k = 0.0625 0.1804 0.0000 ( 21194 PWs)   bands (ev):

   -53.5586 -53.4865 -53.2381 -53.0830 -27.7270 -27.6723 -27.6550 -27.5706
   -27.5139 -27.5118 -27.4468 -27.4009 -27.3146 -27.2039 -27.0459 -26.9798
   -10.2436  -7.0507  -6.7369  -5.7817  -5.4611  -5.2109  -4.8583  -4.3340
     0.0439   1.2832   1.8953   2.2582   2.5857   3.2430   3.2874   3.8221
     3.9921   4.3572   4.4650   4.7258   4.7499   5.0022   5.1986   5.2683
     5.8865   6.1082   6.2463   6.3337   6.4110   6.4801   6.6112   6.6980
     6.8902   7.0091   7.3547   7.8935   8.6052   8.9496   9.2820   9.3794
     9.6217   9.6885   9.8214  10.0218  10.1520  10.2448

          k = 0.0625 0.2526 0.0000 ( 21202 PWs)   bands (ev):

   -53.5519 -53.4785 -53.2300 -53.0763 -27.7343 -27.7088 -27.6611 -27.5905
   -27.5734 -27.4979 -27.4794 -27.4631 -27.3348 -27.1922 -27.1083 -26.9964
    -9.8954  -6.7524  -6.4793  -5.5093  -5.2309  -5.0050  -4.7164  -4.3873
     0.0872   0.6040   1.8662   1.9868   2.5449   3.0014   3.3127   3.6674
     3.9482   4.2081   4.3739   4.5147   4.6093   4.6734   4.7905   4.9499
     5.4814   5.7949   5.9452   6.0844   6.3430   6.4277   6.5117   6.6681
     6.7070   6.8168   7.0274   7.7225   8.5600   8.7665   9.2007   9.2931
     9.5941   9.6407   9.8944  10.0991  10.2215  10.4198

          k = 0.0625 0.3248 0.0000 ( 21194 PWs)   bands (ev):

   -53.5447 -53.4699 -53.2213 -53.0690 -27.8174 -27.6907 -27.6497 -27.6387
   -27.6119 -27.5667 -27.4808 -27.4770 -27.3565 -27.1796 -27.1751 -27.0142
    -9.4539  -6.4045  -6.1749  -5.2105  -5.0652  -4.7466  -4.6207  -4.3645
    -0.2600   0.2405   1.6703   1.8134   2.3247   2.8020   3.2275   3.3718
     3.7679   3.8748   4.0844   4.2089   4.2849   4.5583   4.6664   4.9872
     5.1916   5.5790   5.6989   5.8973   6.1450   6.2343   6.3720   6.4875
     6.6708   6.7803   7.0835   7.5588   8.5824   8.7649   9.2367   9.3311
     9.6611   9.7285   9.9778  10.1077  10.2933  10.5201

          k = 0.0625 0.3969 0.0000 ( 21151 PWs)   bands (ev):

   -53.5380 -53.4619 -53.2132 -53.0623 -27.8936 -27.7002 -27.6737 -27.6441
   -27.6373 -27.6316 -27.4971 -27.4596 -27.3766 -27.2364 -27.1678 -27.0306
    -8.9435  -6.0571  -5.8761  -5.2496  -4.8409  -4.5546  -4.4193  -4.2105
    -0.7455   0.0823   1.3856   1.6754   2.0368   2.5212   2.8265   2.9564
     3.5429   3.7166   3.7517   3.9231   4.0875   4.3742   4.5948   4.8872
     5.3769   5.4918   5.5420   5.7802   5.9955   6.1702   6.2099   6.4623
     6.6554   6.8974   7.2165   7.4010   8.7500   8.9539   9.4192   9.4942
     9.7595   9.8188  10.0633  10.2053  10.3237  10.6215

          k = 0.0625 0.4691 0.0000 ( 21105 PWs)   bands (ev):

   -53.5329 -53.4558 -53.2070 -53.0571 -27.9514 -27.7460 -27.7035 -27.6599
   -27.6466 -27.6287 -27.5095 -27.4461 -27.3919 -27.2829 -27.1588 -27.0432
    -8.4144  -5.9075  -5.6825  -5.3974  -4.5756  -4.4166  -4.1996  -4.0289
    -1.0570  -0.0670   1.1450   1.5165   1.8153   2.1613   2.4041   2.5777
     3.2337   3.4889   3.6707   3.7758   3.9354   4.3144   4.5138   4.8108
     5.2896   5.3544   5.6866   5.7872   5.8866   6.1994   6.3184   6.5137
     6.7709   7.0047   7.2683   7.3857   8.9540   9.2770   9.5958   9.7034
     9.7944   9.9345  10.2142  10.3039  10.4077  10.6853

          k = 0.0625 0.5413 0.0000 ( 21084 PWs)   bands (ev):

   -53.5301 -53.4525 -53.2037 -53.0543 -27.9824 -27.7707 -27.7350 -27.6548
   -27.6527 -27.6240 -27.5162 -27.4388 -27.4001 -27.3079 -27.1539 -27.0500
    -8.0024  -6.1755  -5.5247  -5.3041  -4.4269  -4.3296  -4.0990  -3.8935
    -1.1953  -0.1611   1.0054   1.3819   1.7203   1.9565   2.1475   2.3513
     3.0185   3.3424   3.6048   3.7666   3.8127   4.2782   4.4776   4.8042
     5.1562   5.3342   5.6599   5.7875   5.9640   6.2790   6.4588   6.5293
     6.8478   7.0817   7.3110   7.4605   9.0879   9.5180   9.6197   9.8287
     9.9480  10.0443  10.2526  10.3567  10.4921  10.7529

          k = 0.1250 0.2165 0.0000 ( 21179 PWs)   bands (ev):

   -53.5530 -53.4798 -53.2313 -53.0773 -27.7201 -27.7099 -27.6628 -27.5915
   -27.5609 -27.4997 -27.4641 -27.4639 -27.3358 -27.1940 -27.0956 -26.9971
    -9.9521  -6.7993  -6.5198  -5.5519  -5.2631  -5.0380  -4.7350  -4.3777
     0.1124   0.7813   1.7403   1.9628   2.6077   3.0908   3.3324   3.6453
     3.9431   4.2197   4.4276   4.5339   4.6552   4.7609   4.9022   5.0950
     5.3683   5.6942   5.9331   6.1165   6.3277   6.4769   6.5273   6.7047
     6.7899   6.8837   7.0627   7.7189   8.6313   8.8964   9.1270   9.3673
     9.5353   9.5747   9.8771  10.0093  10.1805  10.4206

          k = 0.1250 0.2887 0.0000 ( 21199 PWs)   bands (ev):

   -53.5463 -53.4718 -53.2232 -53.0706 -27.7896 -27.6947 -27.6517 -27.6173
   -27.6172 -27.5386 -27.4850 -27.4809 -27.3621 -27.1823 -27.1528 -27.0185
    -9.5598  -6.4831  -6.2427  -5.2711  -5.0836  -4.8046  -4.6320  -4.3801
     0.0037   0.2891   1.4223   1.8533   2.4614   2.8994   3.2660   3.4939
     3.8484   3.9583   4.1683   4.2536   4.4913   4.7323   4.7606   4.8860
     4.9869   5.2848   5.6801   6.0076   6.1157   6.2304   6.4078   6.5146
     6.6624   6.8335   7.1360   7.6518   8.4944   9.0014   9.0951   9.4409
     9.5392   9.6172   9.9736  10.0407  10.2523  10.4507

          k = 0.1250 0.3608 0.0000 ( 21195 PWs)   bands (ev):

   -53.5396 -53.4638 -53.2151 -53.0638 -27.8599 -27.6776 -27.6733 -27.6436
   -27.6399 -27.6099 -27.5065 -27.4637 -27.3888 -27.2090 -27.1705 -27.0402
    -9.0848  -6.1412  -5.9418  -5.1697  -4.9161  -4.5869  -4.4845  -4.2515
    -0.4476   0.1023   1.1088   1.7417   2.1811   2.6979   3.0272   3.2138
     3.5502   3.7626   3.9298   4.0299   4.1999   4.5185   4.5692   4.6597
     5.1126   5.1997   5.6123   5.8230   5.9430   6.0315   6.2846   6.3738
     6.4790   6.8877   7.2567   7.6128   8.5916   9.0833   9.1875   9.6044
     9.6870   9.7579  10.0359  10.1218  10.2831  10.5276

          k = 0.1250 0.4330 0.0000 ( 21113 PWs)   bands (ev):

   -53.5339 -53.4570 -53.2082 -53.0581 -27.9186 -27.7197 -27.6711 -27.6660
   -27.6615 -27.6304 -27.5249 -27.4488 -27.4116 -27.2562 -27.1606 -27.0587
    -8.5594  -5.8638  -5.7060  -5.3744  -4.6357  -4.4379  -4.2392  -4.0712
    -0.8381  -0.0166   0.8062   1.6194   1.9244   2.3704   2.6693   2.8339
     3.3335   3.5422   3.6893   3.8144   4.0569   4.4145   4.4562   4.5313
     5.0965   5.2426   5.4449   5.7618   5.9283   6.0373   6.1003   6.3428
     6.5735   6.9875   7.3606   7.5589   8.8496   9.2107   9.4367   9.6719
     9.8152   9.9575  10.1107  10.1538  10.3939  10.6698

          k = 0.1250 0.5052 0.0000 ( 21081 PWs)   bands (ev):

   -53.5301 -53.4525 -53.2037 -53.0543 -27.9575 -27.7506 -27.7097 -27.6810
   -27.6527 -27.6240 -27.5371 -27.4389 -27.4267 -27.2875 -27.1539 -27.0711
    -8.0601  -6.0478  -5.5310  -5.3143  -4.4325  -4.3218  -4.0913  -3.8992
    -1.0644  -0.0885   0.5718   1.4691   1.8163   2.0872   2.3461   2.5349
     3.1096   3.4013   3.5520   3.7114   3.9117   4.3160   4.4332   4.4968
     5.0533   5.1693   5.3888   5.7921   5.8371   5.9851   6.1999   6.4768
     6.7264   7.1111   7.4225   7.5742   9.0664   9.3650   9.5044   9.7737
     9.9163  10.0587  10.1570  10.2885  10.5040  10.7654

          k = 0.1250 0.5774 0.0000 ( 21108 PWs)   bands (ev):

   -53.5288 -53.4509 -53.2020 -53.0529 -27.9711 -27.7614 -27.7236 -27.6862
   -27.6493 -27.6218 -27.5414 -27.4356 -27.4319 -27.2985 -27.1516 -27.0755
    -7.8110  -6.2545  -5.4450  -5.2445  -4.3646  -4.2730  -4.0465  -3.8266
    -1.1361  -0.1096   0.4811   1.3939   1.7995   1.9878   2.2173   2.4231
     3.0045   3.3676   3.5183   3.6435   3.8623   4.2689   4.4005   4.5428
     4.9893   5.1437   5.4133   5.7208   5.8335   6.0006   6.2882   6.5369
     6.7986   7.1716   7.4262   7.6215   9.0822   9.3987   9.5506   9.9341
     9.9452   9.9931  10.2489  10.3154  10.5711  10.7346

          k = 0.1875 0.3248 0.0000 ( 21195 PWs)   bands (ev):

   -53.5401 -53.4645 -53.2158 -53.0644 -27.8447 -27.6790 -27.6613 -27.6512
   -27.6406 -27.5945 -27.5126 -27.4651 -27.3965 -27.1967 -27.1715 -27.0463
    -9.1326  -6.1711  -5.9656  -5.1452  -4.9399  -4.5975  -4.5048  -4.2642
    -0.2114   0.0064   0.9760   1.7655   2.2548   2.7487   3.0722   3.3501
     3.5814   3.7584   4.0154   4.0966   4.2395   4.4562   4.6361   4.6744
     4.9947   5.0310   5.5820   5.7103   5.9103   6.0060   6.2573   6.3588
     6.5464   6.8696   7.2785   7.7207   8.4797   9.0455   9.3410   9.5799
     9.6848   9.7245   9.9660  10.1560  10.2563  10.3904

          k = 0.1875 0.3969 0.0000 ( 21153 PWs)   bands (ev):

   -53.5345 -53.4577 -53.2089 -53.0587 -27.8922 -27.6983 -27.6854 -27.6646
   -27.6425 -27.6313 -27.5405 -27.4503 -27.4313 -27.2345 -27.1616 -27.0746
    -8.6359  -5.8748  -5.7081  -5.3300  -4.6688  -4.4469  -4.2622  -4.0912
    -0.5501  -0.1599   0.6305   1.6902   1.9797   2.5202   2.8876   3.0735
     3.2818   3.5818   3.6904   3.8675   4.0802   4.3512   4.5376   4.6056
     4.8826   4.9496   5.3916   5.5061   5.7031   5.9342   6.2234   6.2621
     6.5259   6.9205   7.3861   7.7712   8.6433   9.1808   9.4862   9.6889
     9.8561   9.9275  10.0115  10.0730  10.3993  10.5323

          k = 0.1875 0.4691 0.0000 ( 21101 PWs)   bands (ev):

   -53.5301 -53.4525 -53.2037 -53.0543 -27.9268 -27.7254 -27.7130 -27.6786
   -27.6526 -27.6240 -27.5631 -27.4595 -27.4388 -27.2620 -27.1540 -27.0974
    -8.1123  -5.9241  -5.5337  -5.3258  -4.4389  -4.3129  -4.0842  -3.9044
    -0.8606  -0.1931   0.3380   1.5821   1.8318   2.2661   2.6238   2.7609
     3.1365   3.2988   3.4574   3.7188   4.0406   4.2221   4.4688   4.5710
     4.7756   4.9377   5.2138   5.3041   5.6240   5.9196   6.0787   6.4186
     6.7234   7.0589   7.5022   7.7443   8.8951   9.2962   9.4059   9.6661
     9.7668  10.0754  10.2045  10.2631  10.5336  10.6528

          k = 0.1875 0.5413 0.0000 ( 21112 PWs)   bands (ev):

   -53.5278 -53.4497 -53.2008 -53.0519 -27.9449 -27.7396 -27.7285 -27.6970
   -27.6467 -27.6201 -27.5757 -27.4752 -27.4327 -27.2765 -27.1498 -27.1102
    -7.6841  -6.2594  -5.3864  -5.2014  -4.3189  -4.2250  -4.0016  -3.7771
    -1.0305  -0.1389   0.1173   1.4489   1.8579   2.1174   2.4044   2.5730
     3.0232   3.1438   3.3752   3.6135   3.9839   4.2052   4.3740   4.5411
     4.6864   4.9430   5.1115   5.2991   5.6136   5.7581   6.1315   6.5855
     6.9332   7.1910   7.5461   7.7580   8.9195   9.1960   9.3665   9.7303
     9.8376   9.9854  10.3521  10.4236  10.5600  10.8001

          k = 0.2500 0.4330 0.0000 ( 21125 PWs)   bands (ev):

   -53.5301 -53.4525 -53.2037 -53.0543 -27.9109 -27.7295 -27.7122 -27.6631
   -27.6520 -27.6240 -27.5766 -27.4762 -27.4389 -27.2487 -27.1540 -27.1111
    -8.1326  -5.8744  -5.5326  -5.3312  -4.4417  -4.3090  -4.0814  -3.9063
    -0.6817  -0.3996   0.3233   1.7069   1.7554   2.3530   2.7903   2.8825
     3.0345   3.3512   3.4877   3.5702   4.0996   4.2275   4.5051   4.6002
     4.6773   4.7942   5.0775   5.2553   5.4040   5.8361   6.0940   6.4219
     6.7078   7.0324   7.5153   7.8390   8.7964   9.2793   9.3688   9.6395
     9.6738  10.0892  10.1920  10.2761  10.5592  10.6521

          k = 0.2500 0.5052 0.0000 ( 21117 PWs)   bands (ev):

   -53.5272 -53.4490 -53.2001 -53.0513 -27.9172 -27.7651 -27.7159 -27.6690
   -27.6451 -27.6191 -27.6063 -27.5123 -27.4313 -27.2525 -27.1489 -27.1412
    -7.6283  -6.2324  -5.3555  -5.1805  -4.2943  -4.1978  -3.9750  -3.7513
    -0.9335  -0.3673   0.1010   1.5724   1.8271   2.2439   2.6291   2.6925
     2.8451   3.1819   3.3057   3.5401   4.0203   4.1222   4.2776   4.5254
     4.6255   4.8080   4.9267   5.0915   5.2711   5.7195   5.9962   6.6651
     6.9903   7.2013   7.6019   7.8537   8.7622   9.0531   9.2359   9.5474
     9.7339   9.9925  10.1934  10.5696  10.6614  10.9328

          k = 0.2500 0.5774 0.0000 ( 21116 PWs)   bands (ev):

   -53.5262 -53.4478 -53.1989 -53.0503 -27.9176 -27.7794 -27.7154 -27.6695
   -27.6425 -27.6188 -27.6173 -27.5268 -27.4286 -27.2520 -27.1535 -27.1471
    -7.3361  -6.4855  -5.2861  -5.1167  -4.2484  -4.1505  -3.9398  -3.6916
    -1.0375  -0.3046  -0.0117   1.5038   1.9180   2.2439   2.4603   2.6275
     2.7691   3.1119   3.2738   3.5927   3.9234   4.0411   4.1832   4.5046
     4.6741   4.7524   4.8492   5.0923   5.2559   5.6516   5.9818   6.8173
     7.1476   7.2851   7.5849   7.8887   8.6230   8.8223   9.3455   9.5183
     9.8132   9.8803  10.1713  10.6046  10.7019  11.1090

          k = 0.3125 0.5413 0.0000 ( 21100 PWs)   bands (ev):

   -53.5256 -53.4472 -53.1982 -53.0498 -27.8970 -27.8083 -27.6942 -27.6496
   -27.6463 -27.6402 -27.6165 -27.5560 -27.4271 -27.2308 -27.1814 -27.1461
    -7.1514  -6.6239  -5.2503  -5.0859  -4.2242  -4.1228  -3.9174  -3.6611
    -1.0685  -0.3454  -0.0488   1.5958   1.8756   2.3159   2.5523   2.6360
     2.6487   3.0415   3.3606   3.5962   3.7765   3.9847   4.0607   4.3702
     4.6924   4.8183   4.8766   4.9838   5.0388   5.6658   5.8775   6.9776
     7.2507   7.3155   7.5568   7.9297   8.4982   8.6348   9.3447   9.4268
     9.7865   9.8194  10.0953  10.6433  10.7707  11.1257

     the Fermi energy is     8.3072 ev

!    total energy              =   -1977.87207780 Ry
     total all-electron energy =    -38771.192923 Ry
     estimated scf accuracy    <          9.2E-09 Ry
     smearing contrib. (-TS)   =       0.00116182 Ry
     internal energy E=F+TS    =   -1977.87323962 Ry

     The total energy is F=E-TS. E is the sum of the following terms:
     one-electron contribution =   -5010.85591909 Ry
     hartree contribution      =    2547.68879847 Ry
     xc contribution           =    -119.85853685 Ry
     ewald contribution        =    1875.02852703 Ry
     one-center paw contrib.   =   -1269.87610919 Ry

     convergence has been achieved in  21 iterations

     negative rho (up, down):  3.222E-05 0.000E+00

     Forces acting on atoms (cartesian axes, Ry/au):

     atom    1 type  2   force =     0.00000000    0.00000000    0.09843696
     atom    2 type  1   force =     0.00000000    0.00000000    0.00683816
     atom    3 type  2   force =     0.00000000    0.00000000   -0.14256413
     atom    4 type  2   force =     0.00000000    0.00000000   -0.06309424
     atom    5 type  1   force =     0.00000000    0.00000000   -0.10834214
     atom    6 type  2   force =     0.00000000    0.00000000   -0.13801319
     atom    7 type  2   force =     0.00000000    0.00000000    0.10930293
     atom    8 type  1   force =     0.00000000   -0.00000000    0.16509047
     atom    9 type  2   force =     0.00000000    0.00000000    0.04150512
     atom   10 type  2   force =     0.00000000    0.00000000    0.15916383
     atom   11 type  1   force =     0.00000000    0.00000000   -0.03251401
     atom   12 type  2   force =     0.00000000    0.00000000   -0.09580978

     Total force =     0.375928     Total SCF correction =     0.000458
     Energy error            =      2.6E-01 Ry
     Gradient error          =      1.7E-01 Ry/Bohr

     number of scf cycles    =  10
     number of bfgs steps    =   9

     energy             old  =   -1977.6083181714 Ry
     energy             new  =   -1977.8720778045 Ry

     CASE: energy            _new < energy            _old

     new trust radius        =       0.8000000000 bohr
     new conv_thr            =       0.0000000100 Ry


ATOMIC_POSITIONS (crystal)
S                0.3333330000        0.6666670000       -0.0630807351
Mo              -0.0000000000       -0.0000000000       -0.0067023093
S                0.3333330000        0.6666670000        0.0513676508
S                0.6666670000        0.3333330000        0.1350445855
Mo               0.3333330000        0.6666670000        0.1845338035
S                0.6666670000        0.3333330000        0.2315969374
S               -0.0000000000       -0.0000000000        0.2854554164
Mo               0.6666670000        0.3333330000        0.3345578669
S               -0.0000000000       -0.0000000000        0.3828307819
S                0.3333330000        0.6666670000        0.4669914677
Mo               0.0000000000        0.0000000000        0.5278132785
S                0.3333330000        0.6666670000        0.5845912557



     Writing config-only to output data dir ./tmp/relax/mos2_slab.save/ :
     XML data file
     NEW-OLD atomic charge density approx. for the potential

     negative rho (up, down):  1.643E-05 0.000E+00

     total cpu time spent up to now is    27652.1 secs

     Self-consistent Calculation

     iteration #  1     ecut=    80.00 Ry     beta= 0.30
     Davidson diagonalization with overlap
     c_bands:  1 eigenvalues not converged
     c_bands:  2 eigenvalues not converged
     c_bands:  2 eigenvalues not converged
     c_bands:  1 eigenvalues not converged
     c_bands:  2 eigenvalues not converged
     c_bands:  1 eigenvalues not converged
     c_bands:  2 eigenvalues not converged
     c_bands:  3 eigenvalues not converged
     c_bands:  4 eigenvalues not converged
     c_bands:  2 eigenvalues not converged
     c_bands:  1 eigenvalues not converged
     c_bands:  1 eigenvalues not converged
     c_bands:  1 eigenvalues not converged
     c_bands:  1 eigenvalues not converged
     c_bands:  3 eigenvalues not converged
     c_bands:  2 eigenvalues not converged
     c_bands:  2 eigenvalues not converged
     c_bands:  1 eigenvalues not converged
     c_bands:  1 eigenvalues not converged
     c_bands:  1 eigenvalues not converged
     ethr =  1.00E-06,  avg # of iterations = 19.2

     negative rho (up, down):  5.794E-07 0.000E+00

     total cpu time spent up to now is    28359.2 secs

     total energy              =   -1978.17090341 Ry
     estimated scf accuracy    <       0.24782699 Ry

     iteration #  2     ecut=    80.00 Ry     beta= 0.30
     Davidson diagonalization with overlap
     ethr =  2.38E-04,  avg # of iterations =  1.0

     negative rho (up, down):  8.037E-08 0.000E+00

     total cpu time spent up to now is    28466.6 secs

     total energy              =   -1978.07555647 Ry
     estimated scf accuracy    <       0.12161326 Ry

     iteration #  3     ecut=    80.00 Ry     beta= 0.30
     Davidson diagonalization with overlap
     ethr =  1.17E-04,  avg # of iterations =  2.1

     negative rho (up, down):  5.342E-07 0.000E+00

     total cpu time spent up to now is    28593.1 secs

     total energy              =   -1978.08097471 Ry
     estimated scf accuracy    <       0.02278889 Ry

     iteration #  4     ecut=    80.00 Ry     beta= 0.30
     Davidson diagonalization with overlap
     ethr =  2.19E-05,  avg # of iterations =  3.0

     negative rho (up, down):  3.092E-06 0.000E+00

     total cpu time spent up to now is    28714.7 secs

     total energy              =   -1978.08254262 Ry
     estimated scf accuracy    <       0.00534062 Ry

     iteration #  5     ecut=    80.00 Ry     beta= 0.30
     Davidson diagonalization with overlap
     ethr =  5.14E-06,  avg # of iterations =  8.9

     negative rho (up, down):  1.340E-05 0.000E+00

     total cpu time spent up to now is    28853.1 secs

     total energy              =   -1978.08213575 Ry
     estimated scf accuracy    <       0.00185988 Ry

     iteration #  6     ecut=    80.00 Ry     beta= 0.30
     Davidson diagonalization with overlap
     ethr =  1.79E-06,  avg # of iterations =  6.5

     negative rho (up, down):  5.569E-05 0.000E+00

     total cpu time spent up to now is    28987.7 secs

     total energy              =   -1978.08225403 Ry
     estimated scf accuracy    <       0.00110135 Ry

     iteration #  7     ecut=    80.00 Ry     beta= 0.30
     Davidson diagonalization with overlap
     ethr =  1.06E-06,  avg # of iterations =  1.8

     negative rho (up, down):  8.977E-05 0.000E+00

     total cpu time spent up to now is    29100.6 secs

     total energy              =   -1978.08241587 Ry
     estimated scf accuracy    <       0.00068576 Ry

     iteration #  8     ecut=    80.00 Ry     beta= 0.30
     Davidson diagonalization with overlap
     ethr =  6.59E-07,  avg # of iterations =  2.2

     negative rho (up, down):  2.410E-04 0.000E+00

     total cpu time spent up to now is    29217.6 secs

     total energy              =   -1978.08222727 Ry
     estimated scf accuracy    <       0.00037799 Ry

     iteration #  9     ecut=    80.00 Ry     beta= 0.30
     Davidson diagonalization with overlap
     ethr =  3.63E-07,  avg # of iterations =  2.6

     negative rho (up, down):  2.335E-04 0.000E+00

     total cpu time spent up to now is    29336.3 secs

     total energy              =   -1978.08226258 Ry
     estimated scf accuracy    <       0.00011522 Ry

     iteration # 10     ecut=    80.00 Ry     beta= 0.30
     Davidson diagonalization with overlap
     ethr =  1.11E-07,  avg # of iterations =  1.8

     negative rho (up, down):  9.740E-05 0.000E+00

     total cpu time spent up to now is    29445.4 secs

     total energy              =   -1978.08224848 Ry
     estimated scf accuracy    <       0.00010349 Ry

     iteration # 11     ecut=    80.00 Ry     beta= 0.30
     Davidson diagonalization with overlap
     ethr =  9.95E-08,  avg # of iterations =  1.9

     negative rho (up, down):  3.758E-05 0.000E+00

     total cpu time spent up to now is    29558.0 secs

     total energy              =   -1978.08225401 Ry
     estimated scf accuracy    <       0.00008062 Ry

     iteration # 12     ecut=    80.00 Ry     beta= 0.30
     Davidson diagonalization with overlap
     ethr =  7.75E-08,  avg # of iterations =  1.1

     negative rho (up, down):  1.686E-05 0.000E+00

     total cpu time spent up to now is    29662.6 secs

     total energy              =   -1978.08224944 Ry
     estimated scf accuracy    <       0.00005518 Ry

     iteration # 13     ecut=    80.00 Ry     beta= 0.30
     Davidson diagonalization with overlap
     ethr =  5.31E-08,  avg # of iterations =  3.9

     negative rho (up, down):  9.628E-06 0.000E+00

     total cpu time spent up to now is    29787.7 secs

     total energy              =   -1978.08225934 Ry
     estimated scf accuracy    <       0.00005154 Ry

     iteration # 14     ecut=    80.00 Ry     beta= 0.30
     Davidson diagonalization with overlap
     ethr =  4.96E-08,  avg # of iterations =  1.0

     negative rho (up, down):  4.033E-06 0.000E+00

     total cpu time spent up to now is    29890.4 secs

     total energy              =   -1978.08225472 Ry
     estimated scf accuracy    <       0.00003124 Ry

     iteration # 15     ecut=    80.00 Ry     beta= 0.30
     Davidson diagonalization with overlap
     ethr =  3.00E-08,  avg # of iterations =  2.2
     Minimization algorithm failed to find Fermi energy: reverting to bisection
     Possible cause: smearing is larger than the electronic band-gap.

     negative rho (up, down):  1.886E-06 0.000E+00

     total cpu time spent up to now is    30003.4 secs

     total energy              =   -1978.08225289 Ry
     estimated scf accuracy    <       0.00001427 Ry

     iteration # 16     ecut=    80.00 Ry     beta= 0.30
     Davidson diagonalization with overlap
     ethr =  1.37E-08,  avg # of iterations =  2.4

     negative rho (up, down):  2.696E-06 0.000E+00

     total cpu time spent up to now is    30117.0 secs

     total energy              =   -1978.08224986 Ry
     estimated scf accuracy    <       0.00001136 Ry

     iteration # 17     ecut=    80.00 Ry     beta= 0.30
     Davidson diagonalization with overlap
     ethr =  1.09E-08,  avg # of iterations =  2.4

     negative rho (up, down):  3.367E-06 0.000E+00

     total cpu time spent up to now is    30234.2 secs

     total energy              =   -1978.08225017 Ry
     estimated scf accuracy    <       0.00000188 Ry

     iteration # 18     ecut=    80.00 Ry     beta= 0.30
     Davidson diagonalization with overlap
     ethr =  1.81E-09,  avg # of iterations =  7.0

     negative rho (up, down):  4.870E-06 0.000E+00

     total cpu time spent up to now is    30374.7 secs

     total energy              =   -1978.08225048 Ry
     estimated scf accuracy    <       0.00000063 Ry

     iteration # 19     ecut=    80.00 Ry     beta= 0.30
     Davidson diagonalization with overlap
     ethr =  6.02E-10,  avg # of iterations =  2.8

     negative rho (up, down):  8.319E-06 0.000E+00

     total cpu time spent up to now is    30490.5 secs

     total energy              =   -1978.08225018 Ry
     estimated scf accuracy    <       0.00000029 Ry

     iteration # 20     ecut=    80.00 Ry     beta= 0.30
     Davidson diagonalization with overlap
     ethr =  2.78E-10,  avg # of iterations =  2.4

     negative rho (up, down):  1.107E-05 0.000E+00

     total cpu time spent up to now is    30605.2 secs

     total energy              =   -1978.08224981 Ry
     estimated scf accuracy    <       0.00000015 Ry

     iteration # 21     ecut=    80.00 Ry     beta= 0.30
     Davidson diagonalization with overlap
     ethr =  1.40E-10,  avg # of iterations =  2.6

     negative rho (up, down):  1.376E-05 0.000E+00

     total cpu time spent up to now is    30720.6 secs

     total energy              =   -1978.08224950 Ry
     estimated scf accuracy    <       0.00000007 Ry

     iteration # 22     ecut=    80.00 Ry     beta= 0.30
     Davidson diagonalization with overlap
     ethr =  6.42E-11,  avg # of iterations =  2.4

     negative rho (up, down):  1.655E-05 0.000E+00

     total cpu time spent up to now is    30836.6 secs

     total energy              =   -1978.08224921 Ry
     estimated scf accuracy    <       0.00000004 Ry

     iteration # 23     ecut=    80.00 Ry     beta= 0.30
     Davidson diagonalization with overlap
     ethr =  3.75E-11,  avg # of iterations =  1.9

     negative rho (up, down):  1.783E-05 0.000E+00

     total cpu time spent up to now is    30948.2 secs

     total energy              =   -1978.08224910 Ry
     estimated scf accuracy    <       0.00000002 Ry

     iteration # 24     ecut=    80.00 Ry     beta= 0.30
     Davidson diagonalization with overlap
     ethr =  1.78E-11,  avg # of iterations =  2.2

     negative rho (up, down):  2.132E-05 0.000E+00

     total cpu time spent up to now is    31061.5 secs

     End of self-consistent calculation

          k = 0.0000 0.0000 0.0000 ( 21311 PWs)   bands (ev):

   -53.5293 -53.4976 -53.3700 -53.1784 -27.7286 -27.6243 -27.6167 -27.5679
   -27.5679 -27.3926 -27.3926 -27.3609 -27.3609 -27.3134 -27.0569 -27.0569
    -9.5868  -7.1916  -6.6968  -6.1654  -5.9580  -5.4467  -5.1723  -4.6195
    -0.0460   1.6518   2.2401   2.7619   3.4477   3.4477   3.8635   3.8635
     4.4184   4.8603   4.8603   5.1713   5.2342   5.2342   5.7279   5.7279
     5.8641   5.8641   6.1602   6.6927   6.7647   6.7647   6.8542   6.8542
     7.0103   8.0303   8.2521   8.6582   8.6583   9.0684   9.6746   9.6746
     9.9684   9.9684  10.1018  10.1019  10.1733  10.1733

          k = 0.0000 0.0722 0.0000 ( 21283 PWs)   bands (ev):

   -53.5276 -53.4961 -53.3683 -53.1769 -27.7250 -27.6218 -27.6131 -27.5852
   -27.5717 -27.4101 -27.3965 -27.3749 -27.3642 -27.3108 -27.0712 -27.0602
    -9.5259  -7.1327  -6.6513  -6.1108  -5.9052  -5.4121  -5.1410  -4.6164
     0.0048   1.6945   2.2972   2.8177   3.2516   3.4542   3.7540   3.9357
     4.2318   4.7599   4.7695   5.0726   5.1665   5.3030   5.5867   5.7167
     5.7799   5.9216   6.1763   6.6244   6.6766   6.7590   6.7631   6.8526
     7.0162   7.7109   8.0291   8.3127   8.6934   9.6155   9.6652   9.6746
     9.9184   9.9629  10.0521  10.0806  10.1361  10.2249

          k = 0.0000 0.1443 0.0000 ( 21263 PWs)   bands (ev):

   -53.5228 -53.4920 -53.3635 -53.1727 -27.7149 -27.6341 -27.6147 -27.6030
   -27.5826 -27.4597 -27.4145 -27.4075 -27.3734 -27.3033 -27.1117 -27.0696
    -9.3459  -6.9623  -6.5190  -5.9515  -5.7506  -5.3116  -5.0507  -4.6094
     0.1369   1.7991   2.4368   2.7368   2.9720   3.4322   3.4847   3.8818
     4.1398   4.4976   4.6143   4.8901   4.9697   5.1732   5.2314   5.3305
     5.9112   6.0827   6.1796   6.4670   6.4707   6.5166   6.6647   6.7894
     6.9522   7.1561   7.6514   7.9087   8.7131   9.3945   9.6090   9.6600
     9.8381   9.8920   9.9262  10.1128  10.2165  10.2392

          k = 0.0000 0.2165 0.0000 ( 21233 PWs)   bands (ev):

   -53.5156 -53.4858 -53.3562 -53.1664 -27.7066 -27.6997 -27.6041 -27.5989
   -27.5878 -27.5330 -27.4734 -27.4239 -27.3873 -27.2922 -27.1718 -27.0837
    -9.0555  -6.6993  -6.3126  -5.7017  -5.5072  -5.1571  -4.9157  -4.6017
     0.2836   1.8046   2.1268   2.5967   3.0940   3.2195   3.2914   3.6279
     4.1650   4.4038   4.5276   4.5931   4.7319   4.7818   4.8130   4.8760
     5.9458   5.9637   6.1644   6.1928   6.3611   6.3627   6.4364   6.5650
     6.7542   6.8693   7.1760   7.5595   8.6535   9.0713   9.4057   9.4852
     9.7478   9.8244   9.8715  10.1013  10.2661  10.3692

          k = 0.0000 0.2887 0.0000 ( 21197 PWs)   bands (ev):

   -53.5071 -53.4785 -53.3477 -53.1591 -27.7911 -27.6817 -27.6192 -27.6180
   -27.5916 -27.5691 -27.5422 -27.4433 -27.4035 -27.2790 -27.2420 -27.1002
    -8.6692  -6.3750  -6.0535  -5.3863  -5.2056  -4.9750  -4.7746  -4.5697
     0.3309   1.2062   2.0174   2.5572   2.9125   3.0409   3.2494   3.5254
     3.8651   4.0426   4.2988   4.3194   4.3793   4.4620   4.6605   4.9640
     5.6124   5.7120   5.8629   5.8998   6.1256   6.3375   6.5152   6.5414
     6.5460   6.6209   6.8573   7.2718   8.6099   8.9459   9.3290   9.3971
     9.7272   9.7637   9.9921  10.1292  10.1706  10.6128

          k = 0.0000 0.3608 0.0000 ( 21187 PWs)   bands (ev):

   -53.4986 -53.4713 -53.3391 -53.1516 -27.8745 -27.7035 -27.6636 -27.6371
   -27.6106 -27.5786 -27.5511 -27.4625 -27.4197 -27.3116 -27.2657 -27.1166
    -8.2095  -6.0345  -5.7754  -5.0708  -4.9713  -4.7689  -4.6442  -4.4443
     0.1470   0.6437   1.8844   2.3289   2.7755   2.7943   3.0392   3.1894
     3.5998   3.7769   3.9002   4.0104   4.0601   4.1671   4.8054   5.3198
     5.3796   5.4635   5.5961   5.7305   5.9575   6.1002   6.2557   6.4078
     6.7161   6.7564   6.8653   7.0221   8.6735   9.0749   9.4161   9.4849
     9.7063   9.7971   9.9550  10.1707  10.3367  10.7198

          k = 0.0000 0.4330 0.0000 ( 21140 PWs)   bands (ev):

   -53.4914 -53.4651 -53.3318 -53.1454 -27.9443 -27.7741 -27.6677 -27.6532
   -27.6483 -27.5680 -27.5357 -27.4788 -27.4334 -27.3699 -27.2545 -27.1305
    -7.7138  -5.7422  -5.5371  -5.1018  -4.6953  -4.4694  -4.4615  -4.2818
    -0.2435   0.3523   1.7065   2.0835   2.4749   2.5587   2.6078   2.8052
     3.2826   3.5096   3.7156   3.7709   3.8500   4.1062   4.9096   5.1325
     5.2490   5.3678   5.6016   5.8243   5.8639   6.0423   6.2327   6.4734
     6.7529   6.8764   6.8971   7.0354   8.8496   9.3630   9.5376   9.6905
     9.7696   9.8581   9.9162  10.2767  10.5593  10.7672

          k = 0.0000 0.5052 0.0000 ( 21078 PWs)   bands (ev):

   -53.4866 -53.4609 -53.3270 -53.1411 -27.9905 -27.8209 -27.7057 -27.6639
   -27.6380 -27.5609 -27.5253 -27.4896 -27.4425 -27.4086 -27.2470 -27.1398
    -7.2609  -5.6410  -5.4221  -5.1480  -4.4693  -4.3113  -4.2216  -4.1573
    -0.5433   0.1896   1.5679   1.8998   2.1449   2.2505   2.4201   2.5193
     2.9992   3.2696   3.5564   3.7170   3.7467   4.0464   4.9491   5.0485
     5.1297   5.2475   5.5023   5.8206   6.0983   6.1164   6.3444   6.6112
     6.8145   6.9427   6.9662   7.1261   9.0515   9.5585   9.6785   9.7460
     9.9285  10.0307  10.0617  10.3367  10.7250  10.7761

          k = 0.0000-0.5774 0.0000 ( 21006 PWs)   bands (ev):

   -53.4849 -53.4594 -53.3253 -53.1397 -28.0066 -27.8372 -27.7190 -27.6676
   -27.6344 -27.5584 -27.5217 -27.4934 -27.4457 -27.4222 -27.2443 -27.1431
    -7.0458  -5.7183  -5.3713  -5.1164  -4.3920  -4.2447  -4.1357  -4.1052
    -0.6460   0.1311   1.5126   1.8279   2.0274   2.1169   2.3726   2.4075
     2.8910   3.1797   3.4941   3.6717   3.7332   4.0185   4.9512   5.0278
     5.0929   5.2107   5.4680   5.7985   6.1800   6.2224   6.3543   6.6919
     6.8513   6.9862   7.0048   7.1541   9.1427   9.5285   9.8144   9.8537
     9.9481  10.0925  10.1676  10.3713  10.7736  10.7946

          k = 0.0625 0.1083 0.0000 ( 21269 PWs)   bands (ev):

   -53.5244 -53.4933 -53.3650 -53.1741 -27.7182 -27.6178 -27.6170 -27.6063
   -27.5796 -27.4431 -27.4044 -27.4013 -27.3709 -27.3058 -27.0981 -27.0670
    -9.4054  -7.0180  -6.5624  -6.0038  -5.8014  -5.3445  -5.0801  -4.6114
     0.0967   1.7699   2.3984   2.9055   2.9318   3.3556   3.6519   3.9816
     4.0530   4.5843   4.6348   4.9400   5.0356   5.2505   5.3431   5.4529
     5.8667   6.0280   6.2133   6.4551   6.5286   6.5726   6.7521   6.8277
     7.0047   7.2866   7.7719   7.9855   8.7500   9.4642   9.6701   9.7411
     9.8162   9.8998   9.9492  10.0926  10.1888  10.2154

          k = 0.0625 0.1804 0.0000 ( 21194 PWs)   bands (ev):

   -53.5184 -53.4882 -53.3590 -53.1688 -27.7055 -27.6772 -27.6082 -27.5945
   -27.5936 -27.5033 -27.4495 -27.4195 -27.3835 -27.2965 -27.1473 -27.0798
    -9.1701  -6.8011  -6.3928  -5.7991  -5.6021  -5.2166  -4.9668  -4.6043
     0.2390   1.8700   2.3376   2.5493   3.0775   3.1232   3.4660   3.7564
     4.1484   4.3951   4.5355   4.6947   4.7909   4.9572   5.0077   5.0546
     5.8832   6.0767   6.1190   6.2406   6.3040   6.4667   6.5593   6.7192
     6.8846   6.9915   7.3479   7.6052   8.7624   9.1328   9.4660   9.5609
     9.7407   9.7792   9.8977  10.0624  10.1376  10.3869

          k = 0.0625 0.2526 0.0000 ( 21202 PWs)   bands (ev):

   -53.5105 -53.4815 -53.3511 -53.1620 -27.7539 -27.6889 -27.6140 -27.5966
   -27.5835 -27.5743 -27.5118 -27.4392 -27.4000 -27.2843 -27.2110 -27.0966
    -8.8314  -6.5068  -6.1594  -5.5157  -5.3271  -5.0465  -4.8257  -4.5885
     0.3427   1.5529   2.0312   2.5928   2.8520   3.1460   3.2885   3.5979
     3.9548   4.2492   4.3553   4.4807   4.5825   4.6379   4.7218   4.7793
     5.4904   5.6698   5.9804   6.1593   6.3329   6.3643   6.4373   6.5156
     6.7129   6.7558   6.9689   7.3250   8.7308   8.8905   9.2736   9.4692
     9.6618   9.7616   9.9249  10.0940  10.1450  10.3889

          k = 0.0625 0.3248 0.0000 ( 21194 PWs)   bands (ev):

   -53.5020 -53.4742 -53.3425 -53.1546 -27.8358 -27.6711 -27.6641 -27.6351
   -27.5850 -27.5777 -27.5584 -27.4605 -27.4179 -27.2793 -27.2709 -27.1148
    -8.4070  -6.1728  -5.8885  -5.1887  -5.0416  -4.8664  -4.7021  -4.5054
     0.2890   0.9065   1.9601   2.4465   2.6303   2.9423   3.2169   3.3996
     3.7209   3.8791   4.0723   4.1579   4.2083   4.3233   4.7046   5.0559
     5.1940   5.3866   5.7663   5.9785   6.0825   6.2354   6.2959   6.3787
     6.5347   6.7594   6.9238   7.0979   8.7515   8.8731   9.2779   9.4880
     9.6934   9.7971   9.9730  10.1118  10.1949  10.5571

          k = 0.0625 0.3969 0.0000 ( 21151 PWs)   bands (ev):

   -53.4942 -53.4674 -53.3346 -53.1478 -27.9105 -27.7400 -27.6545 -27.6542
   -27.6400 -27.5721 -27.5416 -27.4801 -27.4343 -27.3416 -27.2588 -27.1315
    -7.9252  -5.8519  -5.6232  -5.0483  -4.8200  -4.5927  -4.5402  -4.3463
    -0.0170   0.4916   1.7853   2.1673   2.4535   2.6938   2.8685   3.0214
     3.4364   3.6849   3.7614   3.8742   3.9704   4.1853   4.7187   4.9321
     5.2081   5.4547   5.5563   5.8519   5.9722   6.1271   6.2022   6.2417
     6.5152   6.8493   6.9302   7.0817   8.8858   9.0673   9.4465   9.6161
     9.7485   9.8302  10.0042  10.2098  10.3583  10.7183

          k = 0.0625 0.4691 0.0000 ( 21105 PWs)   bands (ev):

   -53.4881 -53.4623 -53.3285 -53.1425 -27.9672 -27.7973 -27.6864 -27.6692
   -27.6414 -27.5632 -27.5287 -27.4950 -27.4468 -27.3890 -27.2494 -27.1442
    -7.4377  -5.6343  -5.4481  -5.1432  -4.5454  -4.3655  -4.3056  -4.1976
    -0.3818   0.2853   1.6047   1.9201   2.2895   2.3313   2.4848   2.6980
     3.1242   3.4060   3.6312   3.7417   3.8292   4.1212   4.6876   4.8556
     5.1234   5.3365   5.6197   5.7398   5.9679   6.1816   6.2949   6.3438
     6.6060   6.7753   7.0221   7.2250   9.0713   9.3775   9.6000   9.7445
     9.8051   9.9351  10.1439  10.3077  10.5264  10.7885

          k = 0.0625 0.5413 0.0000 ( 21084 PWs)   bands (ev):

   -53.4849 -53.4595 -53.3253 -53.1397 -27.9976 -27.8281 -27.7114 -27.6772
   -27.6344 -27.5584 -27.5217 -27.5031 -27.4536 -27.4145 -27.2443 -27.1511
    -7.0686  -5.6848  -5.3687  -5.1157  -4.3942  -4.2455  -4.1376  -4.1053
    -0.5839   0.1797   1.4916   1.7770   2.0849   2.1670   2.2895   2.5067
     2.9166   3.2501   3.5623   3.6439   3.7718   4.0682   4.6754   4.8387
     5.0959   5.2055   5.5311   5.7502   6.0913   6.2665   6.3802   6.4424
     6.6618   6.8110   7.0996   7.3298   9.1868   9.5099   9.6918   9.8895
     9.9744  10.0217  10.1987  10.4056  10.5859  10.8555

          k = 0.1250 0.2165 0.0000 ( 21179 PWs)   bands (ev):

   -53.5117 -53.4825 -53.3523 -53.1631 -27.7384 -27.6914 -27.6150 -27.5983
   -27.5803 -27.5643 -27.4992 -27.4402 -27.4008 -27.2861 -27.1981 -27.0974
    -8.8862  -6.5524  -6.1957  -5.5604  -5.3699  -5.0720  -4.8453  -4.5913
     0.3441   1.7817   1.9872   2.5419   2.8092   3.1696   3.3288   3.6588
     3.9335   4.2643   4.3881   4.5472   4.6579   4.7163   4.7387   4.8681
     5.3707   5.5334   6.0580   6.1549   6.3307   6.3841   6.4845   6.6240
     6.7903   6.8750   7.0111   7.3133   8.8278   8.8649   9.2411   9.5180
     9.6125   9.6909   9.9332   9.9913  10.1349  10.3115

          k = 0.1250 0.2887 0.0000 ( 21199 PWs)   bands (ev):

   -53.5039 -53.4758 -53.3444 -53.1562 -27.8085 -27.6748 -27.6404 -27.6368
   -27.5868 -27.5622 -27.5561 -27.4659 -27.4221 -27.2740 -27.2563 -27.1191
    -8.5081  -6.2466  -5.9483  -5.2614  -5.0944  -4.9053  -4.7255  -4.5302
     0.3635   1.1961   1.9881   2.3165   2.6015   3.0228   3.3016   3.5053
     3.7425   3.9893   4.1673   4.2246   4.4193   4.5773   4.7257   4.8260
     4.9231   5.0892   5.8133   6.0297   6.1962   6.2110   6.3785   6.4350
     6.5810   6.8164   6.9959   7.1323   8.6870   8.9535   9.1238   9.5673
     9.5986   9.7280   9.9665  10.0320  10.1404  10.3084

          k = 0.1250 0.3608 0.0000 ( 21195 PWs)   bands (ev):

   -53.4960 -53.4690 -53.3365 -53.1494 -27.8774 -27.7065 -27.6662 -27.6581
   -27.6128 -27.5748 -27.5456 -27.4920 -27.4439 -27.3138 -27.2617 -27.1412
    -8.0574  -5.9274  -5.6829  -5.0235  -4.8944  -4.6723  -4.5826  -4.3853
     0.2096   0.6796   1.8398   2.0690   2.3672   2.8731   3.0733   3.2475
     3.4782   3.8240   3.8927   4.0101   4.0840   4.3321   4.6067   4.6404
     4.9382   5.0600   5.7534   5.8513   5.9552   6.0164   6.2133   6.2493
     6.3880   6.8910   6.9890   7.1208   8.7620   9.0950   9.1933   9.6933
     9.7500   9.7997  10.0031  10.1457  10.1885  10.4774

          k = 0.1250 0.4330 0.0000 ( 21113 PWs)   bands (ev):

   -53.4893 -53.4633 -53.3298 -53.1436 -27.9350 -27.7648 -27.6882 -27.6598
   -27.6439 -27.5650 -27.5313 -27.5142 -27.4624 -27.3618 -27.2513 -27.1601
    -7.5697  -5.6604  -5.4610  -5.1037  -4.6076  -4.4021  -4.3716  -4.2248
    -0.1271   0.4134   1.5486   1.8788   2.2140   2.5774   2.7348   2.9209
     3.2441   3.5173   3.6414   3.8179   3.9792   4.2661   4.4643   4.5393
     4.8747   5.2061   5.5426   5.7633   5.8963   5.9463   6.0475   6.2675
     6.4019   6.8827   7.0030   7.2584   9.0143   9.2807   9.4459   9.6769
     9.8508   9.9826  10.1212  10.2460  10.3213  10.6635

          k = 0.1250 0.5052 0.0000 ( 21081 PWs)   bands (ev):

   -53.4849 -53.4595 -53.3253 -53.1397 -27.9732 -27.8034 -27.7029 -27.6911
   -27.6345 -27.5584 -27.5291 -27.5217 -27.4748 -27.3937 -27.2443 -27.1727
    -7.1194  -5.6122  -5.3583  -5.1133  -4.4002  -4.2467  -4.1443  -4.1032
    -0.4069   0.2916   1.3165   1.7165   2.1701   2.2845   2.4342   2.6455
     2.9841   3.3754   3.5378   3.6682   3.8711   4.1864   4.3345   4.5597
     4.8823   5.2512   5.3706   5.7068   5.7975   5.8952   6.1261   6.3800
     6.5463   6.8664   7.1331   7.4089   9.2402   9.4211   9.5189   9.7626
     9.9909  10.1046  10.2349  10.3035  10.4703  10.7310

          k = 0.1250 0.5774 0.0000 ( 21108 PWs)   bands (ev):

   -53.4833 -53.4581 -53.3237 -53.1383 -27.9865 -27.8169 -27.7081 -27.7020
   -27.6311 -27.5561 -27.5343 -27.5184 -27.4791 -27.4049 -27.2419 -27.1771
    -6.9006  -5.7141  -5.3072  -5.0711  -4.3304  -4.1809  -4.0730  -4.0441
    -0.5060   0.2523   1.2307   1.6516   2.1639   2.1879   2.3042   2.5394
     2.8761   3.3167   3.5460   3.5764   3.8298   4.1473   4.2757   4.6013
     4.9059   5.1643   5.3876   5.6145   5.8186   5.8885   6.1902   6.3983
     6.6324   6.8992   7.1983   7.4823   9.2274   9.3893   9.6346   9.9027
    10.0614  10.1496  10.2559  10.3237  10.5181  10.7135

          k = 0.1875 0.3248 0.0000 ( 21195 PWs)   bands (ev):

   -53.4967 -53.4696 -53.3371 -53.1499 -27.8625 -27.6914 -27.6737 -27.6595
   -27.6005 -27.5757 -27.5469 -27.4995 -27.4500 -27.3012 -27.2627 -27.1475
    -8.1023  -5.9541  -5.7040  -5.0225  -4.9151  -4.6983  -4.5957  -4.3980
     0.3040   0.7993   1.8333   1.9462   2.4000   2.9279   3.1271   3.3591
     3.5053   3.8606   4.0063   4.0831   4.1497   4.3749   4.4741   4.6579
     4.7959   4.8866   5.6450   5.7429   5.8820   6.0244   6.2324   6.3292
     6.4492   6.8835   7.0618   7.1399   8.6544   9.0628   9.2301   9.6878
     9.7406   9.8033   9.9374  10.1210  10.1752  10.3104

          k = 0.1875 0.3969 0.0000 ( 21153 PWs)   bands (ev):

   -53.4900 -53.4638 -53.3304 -53.1441 -27.9090 -27.7385 -27.7073 -27.6453
   -27.6382 -27.5659 -27.5337 -27.5325 -27.4782 -27.3398 -27.2523 -27.1762
    -7.6396  -5.6815  -5.4709  -5.0692  -4.6422  -4.4204  -4.4069  -4.2382
     0.1275   0.4724   1.4093   1.8899   2.1572   2.7560   2.9387   3.1381
     3.2912   3.5358   3.6831   3.8639   4.0806   4.2927   4.3815   4.5557
     4.7306   4.8236   5.3352   5.5582   5.6753   5.7978   6.1373   6.2762
     6.3962   6.9562   7.0348   7.2653   8.8213   9.1902   9.5266   9.6841
     9.8811   9.9464  10.0394  10.1166  10.3559  10.4440

          k = 0.1875 0.4691 0.0000 ( 21101 PWs)   bands (ev):

   -53.4849 -53.4595 -53.3253 -53.1397 -27.9429 -27.7728 -27.7344 -27.6656
   -27.6345 -27.5610 -27.5584 -27.5218 -27.5010 -27.3678 -27.2443 -27.1994
    -7.1654  -5.5539  -5.3396  -5.1088  -4.4067  -4.2472  -4.1524  -4.0994
    -0.1501   0.3487   1.0736   1.7599   2.0907   2.5276   2.7237   2.8304
     3.0743   3.3075   3.4693   3.6715   4.0213   4.2495   4.3224   4.4788
     4.6796   4.8087   5.1838   5.3665   5.4546   5.7753   5.8987   6.4164
     6.5741   6.9676   7.1128   7.4224   9.0878   9.3413   9.4500   9.6583
     9.9435  10.0817  10.1971  10.2620  10.4960  10.5807

          k = 0.1875 0.5413 0.0000 ( 21112 PWs)   bands (ev):

   -53.4821 -53.4571 -53.3225 -53.1373 -27.9607 -27.7908 -27.7496 -27.6800
   -27.6286 -27.5763 -27.5543 -27.5158 -27.5138 -27.3825 -27.2400 -27.2124
    -6.7906  -5.7036  -5.2563  -5.0340  -4.2837  -4.1310  -4.0280  -3.9934
    -0.3305   0.3251   0.8769   1.6287   2.1857   2.3752   2.5444   2.6280
     2.8793   3.1783   3.4661   3.5003   3.9420   4.2032   4.2763   4.4163
     4.7187   4.8176   5.1532   5.2086   5.4078   5.6246   5.8815   6.5263
     6.7647   6.9785   7.2527   7.5666   9.0685   9.2055   9.4776   9.7980
     9.9352  10.1073  10.3259  10.4283  10.5519  10.6861

          k = 0.2500 0.4330 0.0000 ( 21125 PWs)   bands (ev):

   -53.4849 -53.4595 -53.3253 -53.1397 -27.9273 -27.7570 -27.7506 -27.6523
   -27.6345 -27.5773 -27.5584 -27.5218 -27.5147 -27.3542 -27.2444 -27.2134
    -7.1833  -5.5347  -5.3286  -5.1061  -4.4095  -4.2471  -4.1560  -4.0975
     0.0487   0.2724   0.9849   1.8837   1.9452   2.6405   2.8699   2.9409
     3.1329   3.2147   3.4596   3.7212   4.1183   4.1488   4.3706   4.5481
     4.5696   4.6726   4.9178   5.1280   5.4125   5.6468   5.9314   6.4275
     6.5701   7.0217   7.1052   7.4241   8.9992   9.2941   9.4361   9.6342
     9.8352  10.1089  10.2004  10.2211  10.5033  10.5633

          k = 0.2500 0.5052 0.0000 ( 21117 PWs)   bands (ev):

   -53.4815 -53.4565 -53.3218 -53.1367 -27.9333 -27.7857 -27.7632 -27.6561
   -27.6273 -27.6127 -27.5533 -27.5447 -27.5145 -27.3582 -27.2439 -27.2390
    -6.7427  -5.6787  -5.2272  -5.0143  -4.2590  -4.1043  -4.0031  -3.9667
    -0.1068   0.2353   0.7005   1.7233   2.0680   2.5597   2.7262   2.7833
     2.9430   3.0183   3.3871   3.6017   4.0085   4.0819   4.2637   4.4358
     4.5172   4.6497   4.7491   4.9504   5.1828   5.5434   5.7236   6.6146
     6.8417   7.0141   7.2835   7.6113   8.9260   9.0603   9.3444   9.6930
     9.7367  10.1124  10.2031  10.4522  10.6152  10.7731

          k = 0.2500 0.5774 0.0000 ( 21116 PWs)   bands (ev):

   -53.4802 -53.4555 -53.3206 -53.1357 -27.9336 -27.7998 -27.7636 -27.6556
   -27.6270 -27.6246 -27.5571 -27.5515 -27.5119 -27.3577 -27.2564 -27.2372
    -6.4969  -5.8446  -5.1793  -4.9662  -4.2085  -4.0472  -3.9646  -3.9011
    -0.1881   0.2670   0.5821   1.6485   2.2143   2.5467   2.6349   2.6765
     2.8008   3.0021   3.3660   3.5737   3.9274   4.0301   4.1837   4.4201
     4.4811   4.6474   4.7722   4.9088   5.0928   5.4795   5.6670   6.6885
     6.9335   7.1058   7.3767   7.7073   8.7379   8.8561   9.4453   9.6986
     9.7416  10.0228  10.1827  10.5754  10.6455  10.8795

          k = 0.3125 0.5413 0.0000 ( 21100 PWs)   bands (ev):

   -53.4796 -53.4549 -53.3200 -53.1351 -27.9129 -27.8286 -27.7429 -27.6558
   -27.6344 -27.6233 -27.5850 -27.5506 -27.5105 -27.3365 -27.2845 -27.2362
    -6.3461  -5.9406  -5.1514  -4.9406  -4.1823  -4.0168  -3.9421  -3.8681
    -0.0774   0.1546   0.5070   1.7431   2.0911   2.5631   2.6860   2.7245
     2.8849   3.1676   3.2071   3.6601   3.7256   3.9680   4.0142   4.3076
     4.4968   4.6501   4.7290   4.7903   4.9781   5.4382   5.5512   6.7566
     7.0045   7.1883   7.4347   7.7709   8.5783   8.6782   9.4157   9.6085
     9.6893   9.9857  10.1016  10.5819  10.6737  10.9439

     the Fermi energy is     8.5016 ev

!    total energy              =   -1978.08224876 Ry
     total all-electron energy =    -38771.403094 Ry
     estimated scf accuracy    <          7.7E-09 Ry
     smearing contrib. (-TS)   =       0.00138383 Ry
     internal energy E=F+TS    =   -1978.08363259 Ry

     The total energy is F=E-TS. E is the sum of the following terms:
     one-electron contribution =   -4163.83629846 Ry
     hartree contribution      =    2124.17633453 Ry
     xc contribution           =    -119.64671524 Ry
     ewald contribution        =    1451.09148496 Ry
     one-center paw contrib.   =   -1269.86843839 Ry

     convergence has been achieved in  24 iterations

     negative rho (up, down):  2.132E-05 0.000E+00

     Forces acting on atoms (cartesian axes, Ry/au):

     atom    1 type  2   force =     0.00000000    0.00000000    0.07548236
     atom    2 type  1   force =     0.00000000    0.00000000    0.01756877
     atom    3 type  2   force =     0.00000000   -0.00000000   -0.10984691
     atom    4 type  2   force =     0.00000000    0.00000000   -0.06778366
     atom    5 type  1   force =     0.00000000   -0.00000000   -0.08030042
     atom    6 type  2   force =     0.00000000    0.00000000   -0.06051159
     atom    7 type  2   force =     0.00000000    0.00000000    0.07623326
     atom    8 type  1   force =     0.00000000   -0.00000000    0.05217526
     atom    9 type  2   force =     0.00000000    0.00000000    0.08342570
     atom   10 type  2   force =     0.00000000   -0.00000000    0.13355508
     atom   11 type  1   force =     0.00000000   -0.00000000   -0.03429555
     atom   12 type  2   force =     0.00000000    0.00000000   -0.08570230

     Total force =     0.273182     Total SCF correction =     0.000349
     Energy error            =      2.1E-01 Ry
     Gradient error          =      1.3E-01 Ry/Bohr

     number of scf cycles    =  11
     number of bfgs steps    =  10

     energy             old  =   -1977.8720778045 Ry
     energy             new  =   -1978.0822487636 Ry

     CASE: energy            _new < energy            _old

     new trust radius        =       0.8000000000 bohr
     new conv_thr            =       0.0000000100 Ry


ATOMIC_POSITIONS (crystal)
S                0.3333330000        0.6666670000       -0.0727812747
Mo              -0.0000000000       -0.0000000000       -0.0182984135
S                0.3333330000        0.6666670000        0.0375754388
S                0.6666670000        0.3333330000        0.1294013969
Mo               0.3333330000        0.6666670000        0.1794360959
S                0.6666670000        0.3333330000        0.2281531758
S               -0.0000000000       -0.0000000000        0.2892852888
Mo               0.6666670000        0.3333330000        0.3391976066
S               -0.0000000000       -0.0000000000        0.3885929799
S                0.3333330000        0.6666670000        0.4811028600
Mo               0.0000000000        0.0000000000        0.5388840519
S                0.3333330000        0.6666670000        0.5944507936



     Writing config-only to output data dir ./tmp/relax/mos2_slab.save/ :
     XML data file
     NEW-OLD atomic charge density approx. for the potential

     negative rho (up, down):  9.571E-06 0.000E+00

     total cpu time spent up to now is    31117.1 secs

     Self-consistent Calculation

     iteration #  1     ecut=    80.00 Ry     beta= 0.30
     Davidson diagonalization with overlap
     c_bands:  2 eigenvalues not converged
     c_bands:  2 eigenvalues not converged
     c_bands:  3 eigenvalues not converged
     c_bands:  1 eigenvalues not converged
     c_bands:  1 eigenvalues not converged
     c_bands:  1 eigenvalues not converged
     c_bands:  1 eigenvalues not converged
     c_bands:  1 eigenvalues not converged
     c_bands:  1 eigenvalues not converged
     c_bands:  1 eigenvalues not converged
     c_bands:  1 eigenvalues not converged
     ethr =  1.00E-06,  avg # of iterations = 18.3

     negative rho (up, down):  2.347E-07 0.000E+00

     total cpu time spent up to now is    31772.6 secs

     total energy              =   -1978.29842034 Ry
     estimated scf accuracy    <       0.17624838 Ry

     iteration #  2     ecut=    80.00 Ry     beta= 0.30
     Davidson diagonalization with overlap
     ethr =  1.69E-04,  avg # of iterations =  1.0

     negative rho (up, down):  1.465E-08 0.000E+00

     total cpu time spent up to now is    31873.8 secs

     total energy              =   -1978.22212427 Ry
     estimated scf accuracy    <       0.08935755 Ry

     iteration #  3     ecut=    80.00 Ry     beta= 0.30
     Davidson diagonalization with overlap
     ethr =  8.59E-05,  avg # of iterations =  2.1
     Minimization algorithm failed to find Fermi energy: reverting to bisection
     Possible cause: smearing is larger than the electronic band-gap.

     negative rho (up, down):  1.413E-07 0.000E+00

     total cpu time spent up to now is    31994.5 secs

     total energy              =   -1978.22889178 Ry
     estimated scf accuracy    <       0.01597471 Ry

     iteration #  4     ecut=    80.00 Ry     beta= 0.30
     Davidson diagonalization with overlap
     ethr =  1.54E-05,  avg # of iterations =  3.3
     Minimization algorithm failed to find Fermi energy: reverting to bisection
     Possible cause: smearing is larger than the electronic band-gap.

     negative rho (up, down):  7.570E-07 0.000E+00

     total cpu time spent up to now is    32110.2 secs

     total energy              =   -1978.22985788 Ry
     estimated scf accuracy    <       0.00323233 Ry

     iteration #  5     ecut=    80.00 Ry     beta= 0.30
     Davidson diagonalization with overlap
     ethr =  3.11E-06,  avg # of iterations =  8.8
     Minimization algorithm failed to find Fermi energy: reverting to bisection
     Possible cause: smearing is larger than the electronic band-gap.

     negative rho (up, down):  2.967E-06 0.000E+00

     total cpu time spent up to now is    32246.2 secs

     total energy              =   -1978.22990028 Ry
     estimated scf accuracy    <       0.00085451 Ry

     iteration #  6     ecut=    80.00 Ry     beta= 0.30
     Davidson diagonalization with overlap
     ethr =  8.22E-07,  avg # of iterations =  4.6
     Minimization algorithm failed to find Fermi energy: reverting to bisection
     Possible cause: smearing is larger than the electronic band-gap.

     negative rho (up, down):  2.966E-05 0.000E+00

     total cpu time spent up to now is    32369.7 secs

     total energy              =   -1978.22991570 Ry
     estimated scf accuracy    <       0.00050816 Ry

     iteration #  7     ecut=    80.00 Ry     beta= 0.30
     Davidson diagonalization with overlap
     ethr =  4.89E-07,  avg # of iterations =  2.0
     Minimization algorithm failed to find Fermi energy: reverting to bisection
     Possible cause: smearing is larger than the electronic band-gap.

     negative rho (up, down):  3.400E-05 0.000E+00

     total cpu time spent up to now is    32488.9 secs

     total energy              =   -1978.22998004 Ry
     estimated scf accuracy    <       0.00020898 Ry

     iteration #  8     ecut=    80.00 Ry     beta= 0.30
     Davidson diagonalization with overlap
     ethr =  2.01E-07,  avg # of iterations =  2.1
     Minimization algorithm failed to find Fermi energy: reverting to bisection
     Possible cause: smearing is larger than the electronic band-gap.

     negative rho (up, down):  8.087E-05 0.000E+00

     total cpu time spent up to now is    32600.6 secs

     total energy              =   -1978.22994891 Ry
     estimated scf accuracy    <       0.00015446 Ry

     iteration #  9     ecut=    80.00 Ry     beta= 0.30
     Davidson diagonalization with overlap
     ethr =  1.49E-07,  avg # of iterations =  2.2
     Minimization algorithm failed to find Fermi energy: reverting to bisection
     Possible cause: smearing is larger than the electronic band-gap.

     negative rho (up, down):  7.786E-05 0.000E+00

     total cpu time spent up to now is    32715.5 secs

     total energy              =   -1978.22995537 Ry
     estimated scf accuracy    <       0.00011099 Ry

     iteration # 10     ecut=    80.00 Ry     beta= 0.30
     Davidson diagonalization with overlap
     ethr =  1.07E-07,  avg # of iterations =  1.0
     Minimization algorithm failed to find Fermi energy: reverting to bisection
     Possible cause: smearing is larger than the electronic band-gap.

     negative rho (up, down):  2.048E-05 0.000E+00

     total cpu time spent up to now is    32816.4 secs

     total energy              =   -1978.22994867 Ry
     estimated scf accuracy    <       0.00010487 Ry

     iteration # 11     ecut=    80.00 Ry     beta= 0.30
     Davidson diagonalization with overlap
     ethr =  1.01E-07,  avg # of iterations =  2.1
     Minimization algorithm failed to find Fermi energy: reverting to bisection
     Possible cause: smearing is larger than the electronic band-gap.

     negative rho (up, down):  4.113E-06 0.000E+00

     total cpu time spent up to now is    32929.7 secs

     total energy              =   -1978.22994955 Ry
     estimated scf accuracy    <       0.00009967 Ry

     iteration # 12     ecut=    80.00 Ry     beta= 0.30
     Davidson diagonalization with overlap
     ethr =  9.58E-08,  avg # of iterations =  1.6
     Minimization algorithm failed to find Fermi energy: reverting to bisection
     Possible cause: smearing is larger than the electronic band-gap.

     negative rho (up, down):  6.756E-07 0.000E+00

     total cpu time spent up to now is    33035.8 secs

     total energy              =   -1978.22993614 Ry
     estimated scf accuracy    <       0.00006525 Ry

     iteration # 13     ecut=    80.00 Ry     beta= 0.30
     Davidson diagonalization with overlap
     ethr =  6.27E-08,  avg # of iterations =  2.3
     Minimization algorithm failed to find Fermi energy: reverting to bisection
     Possible cause: smearing is larger than the electronic band-gap.

     negative rho (up, down):  2.289E-07 0.000E+00

     total cpu time spent up to now is    33151.3 secs

     total energy              =   -1978.22994383 Ry
     estimated scf accuracy    <       0.00003855 Ry

     iteration # 14     ecut=    80.00 Ry     beta= 0.30
     Davidson diagonalization with overlap
     ethr =  3.71E-08,  avg # of iterations =  2.7
     Minimization algorithm failed to find Fermi energy: reverting to bisection
     Possible cause: smearing is larger than the electronic band-gap.

     negative rho (up, down):  2.115E-07 0.000E+00

     total cpu time spent up to now is    33265.2 secs

     total energy              =   -1978.22994171 Ry
     estimated scf accuracy    <       0.00005900 Ry

     iteration # 15     ecut=    80.00 Ry     beta= 0.30
     Davidson diagonalization with overlap
     ethr =  3.71E-08,  avg # of iterations =  1.1
     Minimization algorithm failed to find Fermi energy: reverting to bisection
     Possible cause: smearing is larger than the electronic band-gap.

     negative rho (up, down):  2.988E-06 0.000E+00

     total cpu time spent up to now is    33367.3 secs

     total energy              =   -1978.22993732 Ry
     estimated scf accuracy    <       0.00003389 Ry

     iteration # 16     ecut=    80.00 Ry     beta= 0.30
     Davidson diagonalization with overlap
     ethr =  3.26E-08,  avg # of iterations =  4.0
     Minimization algorithm failed to find Fermi energy: reverting to bisection
     Possible cause: smearing is larger than the electronic band-gap.

     negative rho (up, down):  2.644E-06 0.000E+00

     total cpu time spent up to now is    33501.3 secs

     total energy              =   -1978.22993644 Ry
     estimated scf accuracy    <       0.00005114 Ry

     iteration # 17     ecut=    80.00 Ry     beta= 0.30
     Davidson diagonalization with overlap
     ethr =  3.26E-08,  avg # of iterations =  2.1
     Minimization algorithm failed to find Fermi energy: reverting to bisection
     Possible cause: smearing is larger than the electronic band-gap.

     negative rho (up, down):  2.260E-06 0.000E+00

     total cpu time spent up to now is    33614.5 secs

     total energy              =   -1978.22993910 Ry
     estimated scf accuracy    <       0.00002480 Ry

     iteration # 18     ecut=    80.00 Ry     beta= 0.30
     Davidson diagonalization with overlap
     ethr =  2.38E-08,  avg # of iterations =  2.5
     Minimization algorithm failed to find Fermi energy: reverting to bisection
     Possible cause: smearing is larger than the electronic band-gap.

     negative rho (up, down):  2.026E-06 0.000E+00

     total cpu time spent up to now is    33727.9 secs

     total energy              =   -1978.22993659 Ry
     estimated scf accuracy    <       0.00002026 Ry

     iteration # 19     ecut=    80.00 Ry     beta= 0.30
     Davidson diagonalization with overlap
     ethr =  1.95E-08,  avg # of iterations =  3.1
     Minimization algorithm failed to find Fermi energy: reverting to bisection
     Possible cause: smearing is larger than the electronic band-gap.

     negative rho (up, down):  1.580E-05 0.000E+00

     total cpu time spent up to now is    33843.1 secs

     total energy              =   -1978.22992974 Ry
     estimated scf accuracy    <       0.00001008 Ry

     iteration # 20     ecut=    80.00 Ry     beta= 0.30
     Davidson diagonalization with overlap
     ethr =  9.69E-09,  avg # of iterations =  8.9
     Minimization algorithm failed to find Fermi energy: reverting to bisection
     Possible cause: smearing is larger than the electronic band-gap.

     negative rho (up, down):  2.453E-05 0.000E+00

     total cpu time spent up to now is    33982.7 secs

     total energy              =   -1978.22992811 Ry
     estimated scf accuracy    <       0.00000477 Ry

     iteration # 21     ecut=    80.00 Ry     beta= 0.30
     Davidson diagonalization with overlap
     ethr =  4.59E-09,  avg # of iterations =  2.2
     Minimization algorithm failed to find Fermi energy: reverting to bisection
     Possible cause: smearing is larger than the electronic band-gap.

     negative rho (up, down):  3.869E-05 0.000E+00

     total cpu time spent up to now is    34114.8 secs

     total energy              =   -1978.22992719 Ry
     estimated scf accuracy    <       0.00000166 Ry

     iteration # 22     ecut=    80.00 Ry     beta= 0.30
     Davidson diagonalization with overlap
     ethr =  1.60E-09,  avg # of iterations =  2.7
     Minimization algorithm failed to find Fermi energy: reverting to bisection
     Possible cause: smearing is larger than the electronic band-gap.

     negative rho (up, down):  4.063E-05 0.000E+00

     total cpu time spent up to now is    34236.2 secs

     total energy              =   -1978.22992678 Ry
     estimated scf accuracy    <       0.00000138 Ry

     iteration # 23     ecut=    80.00 Ry     beta= 0.30
     Davidson diagonalization with overlap
     ethr =  1.33E-09,  avg # of iterations =  2.1
     Minimization algorithm failed to find Fermi energy: reverting to bisection
     Possible cause: smearing is larger than the electronic band-gap.

     negative rho (up, down):  3.886E-05 0.000E+00

     total cpu time spent up to now is    34349.7 secs

     total energy              =   -1978.22992653 Ry
     estimated scf accuracy    <       0.00000083 Ry

     iteration # 24     ecut=    80.00 Ry     beta= 0.30
     Davidson diagonalization with overlap
     c_bands:  1 eigenvalues not converged
     ethr =  8.02E-10,  avg # of iterations =  8.1
     Minimization algorithm failed to find Fermi energy: reverting to bisection
     Possible cause: smearing is larger than the electronic band-gap.

     negative rho (up, down):  3.157E-05 0.000E+00

     total cpu time spent up to now is    34519.0 secs

     total energy              =   -1978.22992721 Ry
     estimated scf accuracy    <       0.00000135 Ry

     iteration # 25     ecut=    80.00 Ry     beta= 0.30
     Davidson diagonalization with overlap
     ethr =  8.02E-10,  avg # of iterations =  2.3
     Minimization algorithm failed to find Fermi energy: reverting to bisection
     Possible cause: smearing is larger than the electronic band-gap.

     negative rho (up, down):  1.715E-05 0.000E+00

     total cpu time spent up to now is    34631.3 secs

     total energy              =   -1978.22992862 Ry
     estimated scf accuracy    <       0.00000053 Ry

     iteration # 26     ecut=    80.00 Ry     beta= 0.30
     Davidson diagonalization with overlap
     ethr =  5.14E-10,  avg # of iterations =  5.7
     Minimization algorithm failed to find Fermi energy: reverting to bisection
     Possible cause: smearing is larger than the electronic band-gap.

     negative rho (up, down):  1.512E-05 0.000E+00

     total cpu time spent up to now is    34784.6 secs

     total energy              =   -1978.22992888 Ry
     estimated scf accuracy    <       0.00000024 Ry

     iteration # 27     ecut=    80.00 Ry     beta= 0.30
     Davidson diagonalization with overlap
     ethr =  2.32E-10,  avg # of iterations =  5.1
     Minimization algorithm failed to find Fermi energy: reverting to bisection
     Possible cause: smearing is larger than the electronic band-gap.

     negative rho (up, down):  1.574E-05 0.000E+00

     total cpu time spent up to now is    34922.3 secs

     total energy              =   -1978.22992880 Ry
     estimated scf accuracy    <       0.00000004 Ry

     iteration # 28     ecut=    80.00 Ry     beta= 0.30
     Davidson diagonalization with overlap
     ethr =  3.89E-11,  avg # of iterations =  3.6
     Minimization algorithm failed to find Fermi energy: reverting to bisection
     Possible cause: smearing is larger than the electronic band-gap.

     negative rho (up, down):  1.296E-05 0.000E+00

     total cpu time spent up to now is    35046.6 secs

     End of self-consistent calculation

          k = 0.0000 0.0000 0.0000 ( 21311 PWs)   bands (ev):

   -53.5035 -53.4107 -53.3779 -53.3309 -27.6887 -27.5955 -27.5512 -27.5136
   -27.5136 -27.4806 -27.3761 -27.3761 -27.2934 -27.2934 -27.2317 -27.2317
    -8.6522  -6.9782  -6.4957  -6.3053  -6.1280  -5.4042  -5.3043  -4.8421
     0.2394   1.6855   2.0854   2.5288   3.9539   3.9539   4.1651   4.1651
     4.4674   5.1857   5.1905   5.1905   5.4027   5.4027   5.4589   5.4589
     5.5518   5.5518   5.9017   6.4423   6.4423   6.5712   6.5713   6.7423
     6.9805   7.8427   8.0176   9.1659   9.1659   9.1909   9.9576   9.9576
    10.1359  10.1359  10.1615  10.1616  10.2691  10.2692

          k = 0.0000 0.0722 0.0000 ( 21283 PWs)   bands (ev):

   -53.5019 -53.4092 -53.3762 -53.3294 -27.6853 -27.5921 -27.5486 -27.5303
   -27.5173 -27.4778 -27.3930 -27.3798 -27.3078 -27.2968 -27.2465 -27.2351
    -8.5921  -6.9191  -6.4458  -6.2483  -6.0821  -5.3729  -5.2745  -4.8333
     0.2946   1.7411   2.1490   2.5893   3.7889   3.9906   4.0463   4.2340
     4.2963   5.0051   5.0883   5.1594   5.2643   5.3745   5.3759   5.4153
     5.4661   5.6087   5.9547   6.3467   6.4222   6.4778   6.5629   6.8082
     6.9835   7.7726   7.8818   8.3548   9.1891   9.8274   9.9163   9.9677
    10.0661  10.1034  10.1255  10.1461  10.2107  10.2304

          k = 0.0000 0.1443 0.0000 ( 21263 PWs)   bands (ev):

   -53.4972 -53.4050 -53.3715 -53.3252 -27.6756 -27.5824 -27.5778 -27.5410
   -27.5280 -27.4698 -27.4408 -27.3905 -27.3486 -27.3062 -27.2883 -27.2448
    -8.4155  -6.7478  -6.3029  -6.0822  -5.9453  -5.2822  -5.1879  -4.8092
     0.4412   1.8889   2.3197   2.7506   3.3531   3.7499   3.9427   4.0628
     4.4306   4.6989   4.8778   4.8829   4.9138   5.0343   5.0999   5.1561
     5.6315   5.7643   6.0413   6.1027   6.2439   6.3316   6.5490   6.8423
     6.9474   7.3727   7.5432   7.7650   9.1653   9.5921   9.7435   9.8804
     9.8831   9.9826  10.0290  10.0553  10.1679  10.2524

          k = 0.0000 0.2165 0.0000 ( 21233 PWs)   bands (ev):

   -53.4902 -53.3987 -53.3645 -53.3188 -27.6610 -27.6482 -27.5678 -27.5439
   -27.5297 -27.5117 -27.4580 -27.4092 -27.4065 -27.3504 -27.3204 -27.2592
    -8.1326  -6.4830  -6.0866  -5.8215  -5.7214  -5.1431  -5.0523  -4.7762
     0.6174   2.0516   2.5191   2.7257   2.9969   3.3922   3.6129   4.0157
     4.3165   4.4134   4.4723   4.6048   4.6838   4.6842   4.8134   4.8914
     5.7427   5.8377   5.9271   5.9282   6.1034   6.1568   6.4001   6.6786
     6.7800   6.8940   7.1230   7.3599   9.0481   9.2625   9.4332   9.7237
     9.8296   9.8623   9.9238  10.0440  10.2582  10.2744

          k = 0.0000 0.2887 0.0000 ( 21197 PWs)   bands (ev):

   -53.4819 -53.3913 -53.3561 -53.3112 -27.7302 -27.6438 -27.5945 -27.5625
   -27.5503 -27.5163 -27.4800 -27.4439 -27.4253 -27.4228 -27.3370 -27.2761
    -7.7608  -6.1558  -5.8264  -5.4927  -5.4215  -4.9828  -4.8812  -4.7368
     0.7166   1.8962   2.3169   2.6082   2.9967   3.1373   3.4114   3.7782
     3.9165   3.9968   4.0231   4.1785   4.2388   4.5179   4.9106   5.1749
     5.4435   5.5608   5.6605   5.9070   6.1235   6.2037   6.3448   6.3450
     6.5102   6.6154   6.7417   7.0346   8.9490   9.1429   9.3413   9.6004
     9.7210   9.7925  10.0256  10.0658  10.1989  10.5503

          k = 0.0000 0.3608 0.0000 ( 21187 PWs)   bands (ev):

   -53.4735 -53.3839 -53.3478 -53.3036 -27.8112 -27.6760 -27.6266 -27.5811
   -27.5501 -27.5331 -27.5027 -27.4946 -27.4440 -27.4297 -27.3535 -27.2929
    -7.3261  -5.8108  -5.5563  -5.1392  -5.0758  -4.8756  -4.6939  -4.6558
     0.6446   1.3320   2.1616   2.4522   2.7574   2.8710   3.1939   3.5069
     3.5197   3.7143   3.7872   3.8422   3.9297   4.2432   5.0943   5.1705
     5.2885   5.4188   5.5939   5.6876   5.8879   6.1322   6.2474   6.4651
     6.4826   6.5637   6.5984   6.7853   8.9561   9.2652   9.4754   9.5737
     9.6666   9.8246   9.8771  10.1742  10.4738  10.7955

          k = 0.0000 0.4330 0.0000 ( 21140 PWs)   bands (ev):

   -53.4665 -53.3775 -53.3407 -53.2972 -27.8791 -27.7443 -27.6119 -27.6089
   -27.5969 -27.5548 -27.5183 -27.4913 -27.4598 -27.4178 -27.3675 -27.3072
    -6.8696  -5.5091  -5.3181  -4.9429  -4.7612  -4.7307  -4.5221  -4.5117
     0.4015   0.8938   1.9536   2.2127   2.3808   2.4763   2.9188   3.1288
     3.2864   3.4023   3.5904   3.7461   3.8405   4.0285   4.9360   5.0632
     5.2545   5.2825   5.5187   5.7236   5.9705   6.0773   6.2455   6.5211
     6.6150   6.6736   6.6931   6.7805   9.0778   9.5339   9.6327   9.6975
     9.7403   9.7761   9.9207  10.2688  10.7433  11.0128

          k = 0.0000 0.5052 0.0000 ( 21078 PWs)   bands (ev):

   -53.4618 -53.3733 -53.3360 -53.2929 -27.9240 -27.7895 -27.6479 -27.6073
   -27.6021 -27.5947 -27.5084 -27.4837 -27.4704 -27.4098 -27.3768 -27.3167
    -6.4669  -5.3390  -5.1772  -4.9664  -4.5212  -4.4881  -4.4081  -4.3755
     0.1336   0.6641   1.7842   1.9790   2.0739   2.2000   2.6571   2.8409
     3.1464   3.1747   3.4493   3.6955   3.7505   3.8936   4.8017   4.9316
     5.1696   5.3679   5.4097   5.6197   6.1371   6.2337   6.3621   6.6340
     6.7484   6.7917   6.8139   6.8784   9.2368   9.6099   9.7964   9.8229
     9.8409  10.0043  10.0720  10.3022  10.9219  11.0340

          k = 0.0000-0.5774 0.0000 ( 21006 PWs)   bands (ev):

   -53.4601 -53.3718 -53.3343 -53.2914 -27.9397 -27.8053 -27.6616 -27.6110
   -27.6087 -27.5986 -27.5050 -27.4810 -27.4740 -27.4069 -27.3801 -27.3200
    -6.2815  -5.3366  -5.1354  -4.9505  -4.4288  -4.4036  -4.3652  -4.3163
     0.0257   0.5912   1.7155   1.8719   1.9630   2.1170   2.5535   2.7365
     3.0901   3.0986   3.3894   3.6706   3.7104   3.8477   4.7558   4.8864
     5.1448   5.3737   5.3946   5.5833   6.1637   6.3272   6.4383   6.6957
     6.8213   6.8520   6.8661   6.9082   9.3101   9.5917   9.8531   9.8868
     9.9688  10.0914  10.2053  10.2799  10.9898  11.0350

          k = 0.0625 0.1083 0.0000 ( 21269 PWs)   bands (ev):

   -53.4987 -53.4064 -53.3730 -53.3266 -27.6787 -27.5855 -27.5620 -27.5435
   -27.5250 -27.4724 -27.4248 -27.3876 -27.3350 -27.3036 -27.2743 -27.2421
    -8.4738  -6.8039  -6.3494  -6.1368  -5.9907  -5.3119  -5.2163  -4.8168
     0.3958   1.8437   2.2668   2.7021   3.5049   3.7980   4.0282   4.1080
     4.3452   4.8107   4.9003   4.9914   5.0175   5.1421   5.1954   5.2251
     5.5755   5.7116   6.0629   6.1264   6.2576   6.4047   6.6050   6.8575
     6.9691   7.5481   7.6235   7.8771   9.1731   9.6912   9.8417   9.9041
     9.9334   9.9963  10.0019  10.0898  10.1719  10.2168

          k = 0.0625 0.1804 0.0000 ( 21194 PWs)   bands (ev):

   -53.4928 -53.4011 -53.3672 -53.3212 -27.6666 -27.6196 -27.5733 -27.5396
   -27.5340 -27.4829 -27.4625 -27.4022 -27.3846 -27.3251 -27.3165 -27.2552
    -8.2440  -6.5857  -6.1697  -5.9232  -5.8101  -5.1966  -5.1050  -4.7881
     0.5601   2.0092   2.4592   2.8667   3.0366   3.4832   3.7110   4.0875
     4.4273   4.5701   4.6228   4.6648   4.7428   4.7723   4.8799   4.9453
     5.6934   5.7790   5.8232   5.9656   6.1586   6.3551   6.5708   6.8241
     6.8598   7.0336   7.2957   7.4497   9.0843   9.3444   9.5215   9.7784
     9.8147   9.8583   9.9492   9.9986  10.1208  10.2466

          k = 0.0625 0.2526 0.0000 ( 21202 PWs)   bands (ev):

   -53.4852 -53.3943 -53.3595 -53.3142 -27.6940 -27.6507 -27.5598 -27.5586
   -27.5555 -27.5216 -27.4495 -27.4487 -27.4214 -27.3908 -27.3334 -27.2725
    -7.9162  -6.2890  -5.9315  -5.6277  -5.5469  -5.0446  -4.9511  -4.7525
     0.7036   2.0925   2.4322   2.6218   3.0568   3.1915   3.4662   3.7850
     4.1193   4.1533   4.2029   4.3980   4.4638   4.5784   4.8065   4.9771
     5.3305   5.4033   5.9815   6.0264   6.1472   6.2255   6.3441   6.5206
     6.6960   6.7566   6.8797   7.1097   8.9878   9.1078   9.3068   9.6627
     9.7029   9.8281   9.9287  10.0394  10.1024  10.2903

          k = 0.0625 0.3248 0.0000 ( 21194 PWs)   bands (ev):

   -53.4769 -53.3868 -53.3511 -53.3067 -27.7736 -27.6382 -27.6335 -27.5792
   -27.5400 -27.5178 -27.5079 -27.4613 -27.4420 -27.4354 -27.3516 -27.2911
    -7.5116  -5.9512  -5.6659  -5.2838  -5.2209  -4.9046  -4.7707  -4.6967
     0.7199   1.6421   2.2457   2.5672   2.8928   3.0330   3.2993   3.4092
     3.7543   3.8665   3.8934   3.9972   4.1046   4.3180   4.9320   5.0346
     5.0864   5.2958   5.7782   5.9832   6.0739   6.1620   6.2185   6.2764
     6.4101   6.6815   6.6980   6.8551   8.9702   9.0907   9.2896   9.6371
     9.6888   9.8245   9.9297  10.0713  10.2678  10.5202

          k = 0.0625 0.3969 0.0000 ( 21151 PWs)   bands (ev):

   -53.4692 -53.3800 -53.3434 -53.2996 -27.8463 -27.7113 -27.6175 -27.5981
   -27.5804 -27.5256 -27.5240 -27.4957 -27.4611 -27.4224 -27.3684 -27.3082
    -7.0623  -5.6245  -5.4086  -4.9697  -4.8796  -4.8319  -4.5865  -4.5738
     0.5615   1.1177   2.0587   2.3400   2.5812   2.6837   3.0672   3.1434
     3.3471   3.5622   3.7503   3.8385   3.8877   4.1109   4.8442   4.8685
     5.0345   5.5023   5.6279   5.7652   5.9066   6.1118   6.2202   6.2352
     6.3194   6.6558   6.8021   6.8295   9.0793   9.2599   9.4320   9.6890
     9.7679   9.8836   9.9031  10.1957  10.5310  10.7619

          k = 0.0625 0.4691 0.0000 ( 21105 PWs)   bands (ev):

   -53.4633 -53.3747 -53.3375 -53.2943 -27.9013 -27.7667 -27.6282 -27.6125
   -27.6053 -27.5745 -27.5117 -27.4862 -27.4756 -27.4124 -27.3813 -27.3212
    -6.6218  -5.3804  -5.2136  -4.9530  -4.6064  -4.5718  -4.4438  -4.4218
     0.2903   0.7940   1.8582   2.1084   2.2189   2.3167   2.7676   2.9321
     3.0202   3.3493   3.6161   3.7392   3.7959   3.9528   4.7381   4.7810
     5.0300   5.3800   5.5338   5.6891   5.9264   6.1379   6.2955   6.3683
     6.4223   6.6635   6.9692   6.9755   9.2506   9.5189   9.6242   9.7075
     9.8754  10.0030  10.0551  10.2786  10.7629  10.9067

          k = 0.0625 0.5413 0.0000 ( 21084 PWs)   bands (ev):

   -53.4601 -53.3718 -53.3343 -53.2914 -27.9309 -27.7965 -27.6538 -27.6203
   -27.6008 -27.5986 -27.5050 -27.4834 -27.4810 -27.4069 -27.3882 -27.3283
    -6.3004  -5.3190  -5.1309  -4.9471  -4.4329  -4.4065  -4.3628  -4.3166
     0.0936   0.6511   1.7337   1.9503   2.0008   2.1126   2.5761   2.7422
     2.8872   3.2368   3.5190   3.6909   3.7246   3.8593   4.6938   4.7609
     5.0042   5.2825   5.4279   5.6290   6.0851   6.1604   6.3728   6.4207
     6.5619   6.7723   7.0836   7.1010   9.3564   9.5799   9.7813   9.8332
     9.9819  10.1278  10.2027  10.3170  10.8401  11.0196

          k = 0.1250 0.2165 0.0000 ( 21179 PWs)   bands (ev):

   -53.4864 -53.3953 -53.3606 -53.3153 -27.6790 -27.6531 -27.5601 -27.5596
   -27.5425 -27.5235 -27.4515 -27.4357 -27.4223 -27.3775 -27.3342 -27.2733
    -7.9689  -6.3350  -5.9681  -5.6742  -5.5893  -5.0671  -4.9750  -4.7569
     0.6972   2.1473   2.5418   2.6183   3.0758   3.1730   3.4715   3.8227
     4.1467   4.2126   4.2880   4.5111   4.5418   4.6348   4.7959   4.8915
     5.1820   5.2594   5.9377   6.0439   6.1996   6.3466   6.4518   6.6399
     6.7908   6.8246   6.9433   7.1068   9.0058   9.0852   9.2872   9.6531
     9.6943   9.7839   9.9140   9.9561  10.0648  10.1896

          k = 0.1250 0.2887 0.0000 ( 21199 PWs)   bands (ev):

   -53.4787 -53.3885 -53.3529 -53.3083 -27.7471 -27.6372 -27.6114 -27.5843
   -27.5437 -27.5112 -27.4943 -27.4472 -27.4393 -27.4369 -27.3561 -27.2956
    -7.6072  -6.0261  -5.7242  -5.3614  -5.2965  -4.9268  -4.8104  -4.7099
     0.7651   1.9517   2.2708   2.6547   2.9052   3.1129   3.2054   3.5145
     3.7679   3.9643   3.9783   4.2021   4.3036   4.4318   4.7243   4.7700
     4.8709   5.0514   5.9405   5.9513   6.0042   6.2667   6.2971   6.4341
     6.5536   6.7640   6.7769   6.8726   8.9009   9.0589   9.1616   9.6033
     9.7059   9.8304   9.9187   9.9549  10.0808  10.2689

          k = 0.1250 0.3608 0.0000 ( 21195 PWs)   bands (ev):

   -53.4710 -53.3816 -53.3452 -53.3013 -27.8140 -27.6788 -27.6213 -27.6095
   -27.5524 -27.5277 -27.4986 -27.4969 -27.4726 -27.4254 -27.3783 -27.3183
    -7.1840  -5.7024  -5.4687  -5.0331  -4.9648  -4.8460  -4.6294  -4.6061
     0.6993   1.4214   2.1486   2.4510   2.6967   2.8830   2.9289   3.2784
     3.4654   3.7063   3.8109   3.9369   3.9914   4.2718   4.5644   4.6043
     4.7902   5.1447   5.7828   5.8057   5.8684   6.0400   6.1028   6.2588
     6.3638   6.7195   6.8464   6.8514   8.9577   9.1587   9.2507   9.6751
     9.8365   9.8863   9.9655  10.0751  10.2573  10.4482

          k = 0.1250 0.4330 0.0000 ( 21113 PWs)   bands (ev):

   -53.4645 -53.3757 -53.3387 -53.2953 -27.8700 -27.7352 -27.6310 -27.6077
   -27.6008 -27.5465 -27.5141 -27.4941 -27.4881 -27.4144 -27.3973 -27.3376
    -6.7387  -5.4236  -5.2437  -4.9242  -4.6717  -4.6391  -4.4677  -4.4527
     0.5041   1.0139   1.9194   2.1609   2.4317   2.5526   2.7249   3.0167
     3.0897   3.4675   3.6244   3.8516   3.9125   4.1192   4.5081   4.5443
     4.6401   5.2568   5.6275   5.7108   5.7672   5.8203   5.9083   6.2709
     6.3846   6.7001   6.9828   6.9968   9.1817   9.3533   9.4992   9.7134
     9.9040  10.0534  10.1171  10.1996  10.4414  10.6635

          k = 0.1250 0.5052 0.0000 ( 21081 PWs)   bands (ev):

   -53.4601 -53.3718 -53.3343 -53.2914 -27.9071 -27.7725 -27.6453 -27.6329
   -27.5987 -27.5794 -27.5086 -27.5050 -27.4810 -27.4100 -27.4070 -27.3506
    -6.3428  -5.2852  -5.1172  -4.9367  -4.4428  -4.4142  -4.3567  -4.3163
     0.2777   0.8065   1.7207   1.9555   2.1875   2.2779   2.5986   2.7575
     2.7894   3.3574   3.5988   3.7234   3.8162   3.9686   4.4808   4.5394
     4.5729   5.3461   5.4090   5.5947   5.7096   5.7872   5.9192   6.1849
     6.5973   6.8270   7.1396   7.1709   9.3837   9.5241   9.6385   9.7172
    10.0314  10.1996  10.2433  10.3697  10.5594  10.7436

          k = 0.1250 0.5774 0.0000 ( 21108 PWs)   bands (ev):

   -53.4586 -53.3704 -53.3328 -53.2900 -27.9201 -27.7856 -27.6503 -27.6442
   -27.5955 -27.5909 -27.5137 -27.5018 -27.4785 -27.4144 -27.4044 -27.3551
    -6.1569  -5.3072  -5.0764  -4.9087  -4.3581  -4.3401  -4.3135  -4.2551
     0.1821   0.7458   1.6439   1.8825   2.0921   2.1736   2.5378   2.6578
     2.7018   3.3032   3.6288   3.6415   3.7694   3.9095   4.4304   4.5761
     4.5796   5.3018   5.3745   5.5169   5.7214   5.7883   5.9668   6.1372
     6.6948   6.9189   7.2169   7.2572   9.3920   9.4885   9.7349   9.7875
    10.1393  10.2578  10.3215  10.4262  10.5617  10.7562

          k = 0.1875 0.3248 0.0000 ( 21195 PWs)   bands (ev):

   -53.4716 -53.3821 -53.3459 -53.3019 -27.7995 -27.6642 -27.6226 -27.6168
   -27.5397 -27.5291 -27.4996 -27.4840 -27.4799 -27.4265 -27.3846 -27.3247
    -7.2255  -5.7297  -5.4897  -5.0599  -4.9950  -4.8461  -4.6440  -4.6157
     0.7541   1.6030   2.1847   2.4957   2.6102   2.9106   2.9822   3.3979
     3.4504   3.7965   3.9021   3.9689   4.0460   4.3297   4.3683   4.5057
     4.7520   4.9409   5.6283   5.6377   5.8358   6.1384   6.2433   6.3012
     6.4138   6.7746   6.8496   6.8595   8.8646   9.0828   9.2702   9.6595
     9.8345   9.8882   9.9657  10.0322  10.1363  10.3151

          k = 0.1875 0.3969 0.0000 ( 21153 PWs)   bands (ev):

   -53.4651 -53.3763 -53.3393 -53.2959 -27.8447 -27.7097 -27.6495 -27.6091
   -27.5786 -27.5238 -27.5155 -27.5128 -27.4891 -27.4155 -27.4135 -27.3542
    -6.8010  -5.4494  -5.2615  -4.9050  -4.7059  -4.6756  -4.4794  -4.4677
     0.6644   1.2274   1.9322   2.1929   2.4574   2.6863   2.7748   3.1765
     3.2156   3.4550   3.5902   3.9613   4.0337   4.2084   4.2835   4.4593
     4.5879   4.8283   5.2842   5.3194   5.7257   5.8447   6.0237   6.3394
     6.3686   6.7640   6.9561   6.9863   9.0229   9.2169   9.5315   9.7591
     9.9270  10.0070  10.1348  10.1951  10.2200  10.4151

          k = 0.1875 0.4691 0.0000 ( 21101 PWs)   bands (ev):

   -53.4601 -53.3718 -53.3343 -53.2914 -27.8775 -27.7428 -27.6760 -27.6068
   -27.5987 -27.5527 -27.5395 -27.5050 -27.4810 -27.4369 -27.4070 -27.3781
    -6.3812  -5.2625  -5.1001  -4.9220  -4.4525  -4.4227  -4.3504  -4.3149
     0.5089   0.9697   1.6283   1.9678   2.4002   2.5119   2.5876   2.8131
     2.8582   3.3967   3.5250   3.7399   3.9626   4.0967   4.2939   4.4180
     4.4878   4.7988   5.1057   5.1998   5.5208   5.6550   5.7641   6.2964
     6.5731   6.8420   7.1260   7.1659   9.2528   9.4007   9.5817   9.6733
    10.0721  10.1936  10.2727  10.3005  10.3874  10.5488

          k = 0.1875 0.5413 0.0000 ( 21112 PWs)   bands (ev):

   -53.4574 -53.3694 -53.3316 -53.2889 -27.8948 -27.7601 -27.6908 -27.6216
   -27.5931 -27.5679 -27.5544 -27.4994 -27.4767 -27.4500 -27.4024 -27.3915
    -6.0637  -5.2823  -5.0286  -4.8730  -4.3066  -4.2929  -4.2703  -4.2063
     0.3711   0.8761   1.4463   1.8330   2.3554   2.4050   2.5499   2.5992
     2.6427   3.3391   3.4591   3.5919   3.8639   4.0119   4.2487   4.4162
     4.5109   4.8260   5.0728   5.1701   5.3276   5.5008   5.7038   6.2145
     6.7748   7.0041   7.2840   7.3329   9.2250   9.3358   9.6042   9.6785
    10.2117  10.2638  10.3390  10.4460  10.5333  10.6366

          k = 0.2500 0.4330 0.0000 ( 21125 PWs)   bands (ev):

   -53.4601 -53.3718 -53.3343 -53.2914 -27.8622 -27.7274 -27.6918 -27.5987
   -27.5932 -27.5554 -27.5388 -27.5050 -27.4811 -27.4509 -27.4070 -27.3924
    -6.3962  -5.2559  -5.0927  -4.9143  -4.4564  -4.4264  -4.3478  -4.3141
     0.6339   1.0218   1.5809   2.0428   2.3189   2.6285   2.6942   2.8389
     2.9259   3.3021   3.5002   3.8713   4.0809   4.1581   4.2002   4.4170
     4.4971   4.5692   4.8119   4.8445   5.5117   5.5971   5.7941   6.3615
     6.5541   6.8486   7.1132   7.1568   9.1835   9.3398   9.5502   9.6732
    10.0743  10.1096  10.2145  10.2985  10.4009  10.4906

          k = 0.2500 0.5052 0.0000 ( 21117 PWs)   bands (ev):

   -53.4568 -53.3688 -53.3309 -53.2883 -27.8678 -27.7331 -27.7262 -27.5972
   -27.5918 -27.5899 -27.5430 -27.4981 -27.4817 -27.4756 -27.4238 -27.4013
    -6.0230  -5.2573  -5.0007  -4.8529  -4.2806  -4.2681  -4.2453  -4.1800
     0.5810   0.8885   1.3194   1.9314   2.3748   2.5644   2.6412   2.6599
     2.6910   3.1052   3.4808   3.6755   3.9859   4.0722   4.1627   4.3237
     4.4573   4.4940   4.5922   4.7112   5.2938   5.4255   5.5544   6.3004
     6.8235   7.0337   7.3170   7.3685   9.0801   9.2045   9.4882   9.5770
    10.0226  10.2328  10.2508  10.4032  10.5461  10.7009

          k = 0.2500 0.5774 0.0000 ( 21116 PWs)   bands (ev):

   -53.4556 -53.3678 -53.3298 -53.2873 -27.8680 -27.7401 -27.7333 -27.6039
   -27.5968 -27.5893 -27.5427 -27.4956 -27.4943 -27.4738 -27.4366 -27.3993
    -5.8248  -5.3502  -4.9589  -4.8104  -4.2312  -4.2195  -4.1926  -4.1214
     0.5353   0.8714   1.2247   1.8615   2.4486   2.5423   2.5725   2.6690
     2.6881   2.9300   3.4068   3.6316   3.8519   4.0091   4.1863   4.2778
     4.4403   4.5114   4.5973   4.7005   5.1784   5.3513   5.4814   6.2525
     6.9589   7.1741   7.4214   7.4794   8.9228   9.0218   9.5173   9.5482
     9.9959  10.2117  10.2334  10.5253  10.6443  10.7719

          k = 0.3125 0.5413 0.0000 ( 21100 PWs)   bands (ev):

   -53.4549 -53.3672 -53.3291 -53.2867 -27.8472 -27.7688 -27.7125 -27.6326
   -27.5880 -27.5755 -27.5224 -27.5214 -27.4943 -27.4727 -27.4648 -27.3983
    -5.7077  -5.4083  -4.9329  -4.7860  -4.2079  -4.1944  -4.1612  -4.0902
     0.6681   0.7827   1.1572   2.0070   2.3405   2.4077   2.5136   2.8282
     2.9478   2.9756   3.2994   3.6324   3.7304   3.8963   4.0019   4.2299
     4.3306   4.5407   4.5555   4.6094   5.0933   5.2857   5.3670   6.2646
     7.0557   7.2593   7.4853   7.5473   8.7726   8.8635   9.4571   9.4687
     9.9052  10.1501  10.2017  10.4767  10.7044  10.8407

     the Fermi energy is     8.7664 ev

!    total energy              =   -1978.22992911 Ry
     total all-electron energy =    -38771.550774 Ry
     estimated scf accuracy    <          9.7E-09 Ry
     smearing contrib. (-TS)   =       0.00217665 Ry
     internal energy E=F+TS    =   -1978.23210577 Ry

     The total energy is F=E-TS. E is the sum of the following terms:
     one-electron contribution =   -3466.40625543 Ry
     hartree contribution      =    1775.47906258 Ry
     xc contribution           =    -119.53348982 Ry
     ewald contribution        =    1102.09239623 Ry
     one-center paw contrib.   =   -1269.86381933 Ry

     convergence has been achieved in  28 iterations

     negative rho (up, down):  1.296E-05 0.000E+00

     Forces acting on atoms (cartesian axes, Ry/au):

     atom    1 type  2   force =     0.00000000   -0.00000000    0.04410366
     atom    2 type  1   force =     0.00000000    0.00000000    0.01891256
     atom    3 type  2   force =     0.00000000    0.00000000   -0.06917099
     atom    4 type  2   force =     0.00000000    0.00000000   -0.05644772
     atom    5 type  1   force =     0.00000000    0.00000000   -0.04283091
     atom    6 type  2   force =     0.00000000   -0.00000000   -0.02889805
     atom    7 type  2   force =     0.00000000    0.00000000    0.03796771
     atom    8 type  1   force =     0.00000000    0.00000000    0.02778096
     atom    9 type  2   force =     0.00000000    0.00000000    0.06372156
     atom   10 type  2   force =     0.00000000   -0.00000000    0.09339049
     atom   11 type  1   force =     0.00000000   -0.00000000   -0.02439409
     atom   12 type  2   force =     0.00000000    0.00000000   -0.06413518

     Total force =     0.180686     Total SCF correction =     0.000511
     Energy error            =      1.5E-01 Ry
     Gradient error          =      9.3E-02 Ry/Bohr

     number of scf cycles    =  12
     number of bfgs steps    =  11

     energy             old  =   -1978.0822487636 Ry
     energy             new  =   -1978.2299291142 Ry

     CASE: energy            _new < energy            _old

     new trust radius        =       0.8000000000 bohr
     new conv_thr            =       0.0000000100 Ry


ATOMIC_POSITIONS (crystal)
S                0.3333330000        0.6666670000       -0.0819667017
Mo              -0.0000000000       -0.0000000000       -0.0292162983
S                0.3333330000        0.6666670000        0.0240717351
S                0.6666670000        0.3333330000        0.1235281747
Mo               0.3333330000        0.6666670000        0.1745175736
S                0.6666670000        0.3333330000        0.2249296164
S               -0.0000000000       -0.0000000000        0.2929044860
Mo               0.6666670000        0.3333330000        0.3436950828
S               -0.0000000000       -0.0000000000        0.3945290411
S                0.3333330000        0.6666670000        0.4952142523
Mo               0.0000000000        0.0000000000        0.5494056494
S                0.3333330000        0.6666670000        0.6033873886



     Writing config-only to output data dir ./tmp/relax/mos2_slab.save/ :
     XML data file
     NEW-OLD atomic charge density approx. for the potential

     negative rho (up, down):  3.309E-06 0.000E+00
     Minimization algorithm failed to find Fermi energy: reverting to bisection
     Possible cause: smearing is larger than the electronic band-gap.

     total cpu time spent up to now is    35102.2 secs

     Self-consistent Calculation

     iteration #  1     ecut=    80.00 Ry     beta= 0.30
     Davidson diagonalization with overlap
     c_bands:  4 eigenvalues not converged
     c_bands:  3 eigenvalues not converged
     c_bands:  2 eigenvalues not converged
     c_bands:  2 eigenvalues not converged
     c_bands:  1 eigenvalues not converged
     c_bands:  1 eigenvalues not converged
     c_bands:  1 eigenvalues not converged
     c_bands:  1 eigenvalues not converged
     ethr =  1.00E-06,  avg # of iterations = 17.6
     Minimization algorithm failed to find Fermi energy: reverting to bisection
     Possible cause: smearing is larger than the electronic band-gap.

     negative rho (up, down):  4.935E-08 0.000E+00

     total cpu time spent up to now is    35744.3 secs

     total energy              =   -1978.37648566 Ry
     estimated scf accuracy    <       0.14033823 Ry

     iteration #  2     ecut=    80.00 Ry     beta= 0.30
     Davidson diagonalization with overlap
     ethr =  1.35E-04,  avg # of iterations =  1.0
     Minimization algorithm failed to find Fermi energy: reverting to bisection
     Possible cause: smearing is larger than the electronic band-gap.

     total cpu time spent up to now is    35844.9 secs

     total energy              =   -1978.30932603 Ry
     estimated scf accuracy    <       0.07210235 Ry

     iteration #  3     ecut=    80.00 Ry     beta= 0.30
     Davidson diagonalization with overlap
     ethr =  6.93E-05,  avg # of iterations =  2.2
     Minimization algorithm failed to find Fermi energy: reverting to bisection
     Possible cause: smearing is larger than the electronic band-gap.

     negative rho (up, down):  7.952E-08 0.000E+00

     total cpu time spent up to now is    35966.5 secs

     total energy              =   -1978.31530383 Ry
     estimated scf accuracy    <       0.01365413 Ry

     iteration #  4     ecut=    80.00 Ry     beta= 0.30
     Davidson diagonalization with overlap
     ethr =  1.31E-05,  avg # of iterations =  2.9
     Minimization algorithm failed to find Fermi energy: reverting to bisection
     Possible cause: smearing is larger than the electronic band-gap.

     negative rho (up, down):  4.877E-07 0.000E+00

     total cpu time spent up to now is    36082.4 secs

     total energy              =   -1978.31624456 Ry
     estimated scf accuracy    <       0.00171636 Ry

     iteration #  5     ecut=    80.00 Ry     beta= 0.30
     Davidson diagonalization with overlap
     c_bands:  2 eigenvalues not converged
     c_bands:  1 eigenvalues not converged
     c_bands:  1 eigenvalues not converged
     ethr =  1.65E-06,  avg # of iterations = 10.8
     Minimization algorithm failed to find Fermi energy: reverting to bisection
     Possible cause: smearing is larger than the electronic band-gap.

     negative rho (up, down):  5.100E-07 0.000E+00

     total cpu time spent up to now is    36235.3 secs

     total energy              =   -1978.31642674 Ry
     estimated scf accuracy    <       0.00078169 Ry

     iteration #  6     ecut=    80.00 Ry     beta= 0.30
     Davidson diagonalization with overlap
     ethr =  7.52E-07,  avg # of iterations =  1.5
     Minimization algorithm failed to find Fermi energy: reverting to bisection
     Possible cause: smearing is larger than the electronic band-gap.

     negative rho (up, down):  8.847E-06 0.000E+00

     total cpu time spent up to now is    36340.7 secs

     total energy              =   -1978.31638022 Ry
     estimated scf accuracy    <       0.00050358 Ry

     iteration #  7     ecut=    80.00 Ry     beta= 0.30
     Davidson diagonalization with overlap
     ethr =  4.84E-07,  avg # of iterations =  2.0
     Minimization algorithm failed to find Fermi energy: reverting to bisection
     Possible cause: smearing is larger than the electronic band-gap.

     negative rho (up, down):  7.764E-06 0.000E+00

     total cpu time spent up to now is    36466.3 secs

     total energy              =   -1978.31638102 Ry
     estimated scf accuracy    <       0.00022334 Ry

     iteration #  8     ecut=    80.00 Ry     beta= 0.30
     Davidson diagonalization with overlap
     ethr =  2.15E-07,  avg # of iterations =  2.1
     Minimization algorithm failed to find Fermi energy: reverting to bisection
     Possible cause: smearing is larger than the electronic band-gap.

     negative rho (up, down):  8.406E-06 0.000E+00

     total cpu time spent up to now is    36577.7 secs

     total energy              =   -1978.31636721 Ry
     estimated scf accuracy    <       0.00019693 Ry

     iteration #  9     ecut=    80.00 Ry     beta= 0.30
     Davidson diagonalization with overlap
     ethr =  1.89E-07,  avg # of iterations =  2.2
     Minimization algorithm failed to find Fermi energy: reverting to bisection
     Possible cause: smearing is larger than the electronic band-gap.

     negative rho (up, down):  8.053E-06 0.000E+00

     total cpu time spent up to now is    36692.7 secs

     total energy              =   -1978.31639712 Ry
     estimated scf accuracy    <       0.00019352 Ry

     iteration # 10     ecut=    80.00 Ry     beta= 0.30
     Davidson diagonalization with overlap
     ethr =  1.86E-07,  avg # of iterations =  1.1
     Minimization algorithm failed to find Fermi energy: reverting to bisection
     Possible cause: smearing is larger than the electronic band-gap.

     negative rho (up, down):  7.822E-06 0.000E+00

     total cpu time spent up to now is    36794.1 secs

     total energy              =   -1978.31636976 Ry
     estimated scf accuracy    <       0.00023744 Ry

     iteration # 11     ecut=    80.00 Ry     beta= 0.30
     Davidson diagonalization with overlap
     ethr =  1.86E-07,  avg # of iterations =  1.0
     Minimization algorithm failed to find Fermi energy: reverting to bisection
     Possible cause: smearing is larger than the electronic band-gap.

     negative rho (up, down):  3.412E-06 0.000E+00

     total cpu time spent up to now is    36895.1 secs

     total energy              =   -1978.31636560 Ry
     estimated scf accuracy    <       0.00018426 Ry

     iteration # 12     ecut=    80.00 Ry     beta= 0.30
     Davidson diagonalization with overlap
     ethr =  1.77E-07,  avg # of iterations =  1.2
     Minimization algorithm failed to find Fermi energy: reverting to bisection
     Possible cause: smearing is larger than the electronic band-gap.

     negative rho (up, down):  4.612E-06 0.000E+00

     total cpu time spent up to now is    36997.1 secs

     total energy              =   -1978.31637317 Ry
     estimated scf accuracy    <       0.00015098 Ry

     iteration # 13     ecut=    80.00 Ry     beta= 0.30
     Davidson diagonalization with overlap
     ethr =  1.45E-07,  avg # of iterations =  1.0
     Minimization algorithm failed to find Fermi energy: reverting to bisection
     Possible cause: smearing is larger than the electronic band-gap.

     negative rho (up, down):  9.641E-06 0.000E+00

     total cpu time spent up to now is    37097.6 secs

     total energy              =   -1978.31638147 Ry
     estimated scf accuracy    <       0.00014855 Ry

     iteration # 14     ecut=    80.00 Ry     beta= 0.30
     Davidson diagonalization with overlap
     ethr =  1.43E-07,  avg # of iterations =  1.1
     Minimization algorithm failed to find Fermi energy: reverting to bisection
     Possible cause: smearing is larger than the electronic band-gap.

     negative rho (up, down):  4.089E-06 0.000E+00

     total cpu time spent up to now is    37199.3 secs

     total energy              =   -1978.31637984 Ry
     estimated scf accuracy    <       0.00014293 Ry

     iteration # 15     ecut=    80.00 Ry     beta= 0.30
     Davidson diagonalization with overlap
     ethr =  1.37E-07,  avg # of iterations =  1.0
     Minimization algorithm failed to find Fermi energy: reverting to bisection
     Possible cause: smearing is larger than the electronic band-gap.

     negative rho (up, down):  1.936E-06 0.000E+00

     total cpu time spent up to now is    37299.8 secs

     total energy              =   -1978.31639185 Ry
     estimated scf accuracy    <       0.00012345 Ry

     iteration # 16     ecut=    80.00 Ry     beta= 0.30
     Davidson diagonalization with overlap
     ethr =  1.19E-07,  avg # of iterations =  1.0
     Minimization algorithm failed to find Fermi energy: reverting to bisection
     Possible cause: smearing is larger than the electronic band-gap.

     negative rho (up, down):  1.883E-06 0.000E+00

     total cpu time spent up to now is    37400.3 secs

     total energy              =   -1978.31639610 Ry
     estimated scf accuracy    <       0.00013790 Ry

     iteration # 17     ecut=    80.00 Ry     beta= 0.30
     Davidson diagonalization with overlap
     ethr =  1.19E-07,  avg # of iterations =  1.0
     Minimization algorithm failed to find Fermi energy: reverting to bisection
     Possible cause: smearing is larger than the electronic band-gap.

     negative rho (up, down):  1.996E-06 0.000E+00

     total cpu time spent up to now is    37500.6 secs

     total energy              =   -1978.31639826 Ry
     estimated scf accuracy    <       0.00012475 Ry

     iteration # 18     ecut=    80.00 Ry     beta= 0.30
     Davidson diagonalization with overlap
     ethr =  1.19E-07,  avg # of iterations =  1.0
     Minimization algorithm failed to find Fermi energy: reverting to bisection
     Possible cause: smearing is larger than the electronic band-gap.

     negative rho (up, down):  1.723E-06 0.000E+00

     total cpu time spent up to now is    37601.3 secs

     total energy              =   -1978.31640875 Ry
     estimated scf accuracy    <       0.00012632 Ry

     iteration # 19     ecut=    80.00 Ry     beta= 0.30
     Davidson diagonalization with overlap
     ethr =  1.19E-07,  avg # of iterations =  1.0
     Minimization algorithm failed to find Fermi energy: reverting to bisection
     Possible cause: smearing is larger than the electronic band-gap.

     negative rho (up, down):  7.071E-07 0.000E+00

     total cpu time spent up to now is    37702.3 secs

     total energy              =   -1978.31641321 Ry
     estimated scf accuracy    <       0.00011570 Ry

     iteration # 20     ecut=    80.00 Ry     beta= 0.30
     Davidson diagonalization with overlap
     ethr =  1.11E-07,  avg # of iterations =  1.1
     Minimization algorithm failed to find Fermi energy: reverting to bisection
     Possible cause: smearing is larger than the electronic band-gap.

     negative rho (up, down):  1.077E-07 0.000E+00

     total cpu time spent up to now is    37803.7 secs

     total energy              =   -1978.31642060 Ry
     estimated scf accuracy    <       0.00011046 Ry

     iteration # 21     ecut=    80.00 Ry     beta= 0.30
     Davidson diagonalization with overlap
     ethr =  1.06E-07,  avg # of iterations =  3.6
     Minimization algorithm failed to find Fermi energy: reverting to bisection
     Possible cause: smearing is larger than the electronic band-gap.

     negative rho (up, down):  5.325E-07 0.000E+00

     total cpu time spent up to now is    37913.2 secs

     total energy              =   -1978.31640026 Ry
     estimated scf accuracy    <       0.00011083 Ry

     iteration # 22     ecut=    80.00 Ry     beta= 0.30
     Davidson diagonalization with overlap
     ethr =  1.06E-07,  avg # of iterations =  2.0
     Minimization algorithm failed to find Fermi energy: reverting to bisection
     Possible cause: smearing is larger than the electronic band-gap.

     negative rho (up, down):  4.562E-08 0.000E+00

     total cpu time spent up to now is    38023.8 secs

     total energy              =   -1978.31642916 Ry
     estimated scf accuracy    <       0.00012823 Ry

     iteration # 23     ecut=    80.00 Ry     beta= 0.30
     Davidson diagonalization with overlap
     ethr =  1.06E-07,  avg # of iterations =  2.2
     Minimization algorithm failed to find Fermi energy: reverting to bisection
     Possible cause: smearing is larger than the electronic band-gap.

     negative rho (up, down):  5.191E-07 0.000E+00

     total cpu time spent up to now is    38136.3 secs

     total energy              =   -1978.31645790 Ry
     estimated scf accuracy    <       0.00014000 Ry

     iteration # 24     ecut=    80.00 Ry     beta= 0.30
     Davidson diagonalization with overlap
     ethr =  1.06E-07,  avg # of iterations =  6.6
     Minimization algorithm failed to find Fermi energy: reverting to bisection
     Possible cause: smearing is larger than the electronic band-gap.

     negative rho (up, down):  1.691E-07 0.000E+00

     total cpu time spent up to now is    38255.9 secs

     total energy              =   -1978.31640054 Ry
     estimated scf accuracy    <       0.00017941 Ry

     iteration # 25     ecut=    80.00 Ry     beta= 0.30
     Davidson diagonalization with overlap
     ethr =  1.06E-07,  avg # of iterations =  5.1
     Minimization algorithm failed to find Fermi energy: reverting to bisection
     Possible cause: smearing is larger than the electronic band-gap.

     negative rho (up, down):  3.427E-07 0.000E+00

     total cpu time spent up to now is    38376.8 secs

     total energy              =   -1978.31644390 Ry
     estimated scf accuracy    <       0.00015738 Ry

     iteration # 26     ecut=    80.00 Ry     beta= 0.30
     Davidson diagonalization with overlap
     ethr =  1.06E-07,  avg # of iterations =  2.6
     Minimization algorithm failed to find Fermi energy: reverting to bisection
     Possible cause: smearing is larger than the electronic band-gap.

     negative rho (up, down):  1.028E-06 0.000E+00

     total cpu time spent up to now is    38489.5 secs

     total energy              =   -1978.31654998 Ry
     estimated scf accuracy    <       0.00014540 Ry

     iteration # 27     ecut=    80.00 Ry     beta= 0.30
     Davidson diagonalization with overlap
     c_bands:  1 eigenvalues not converged
     c_bands:  2 eigenvalues not converged
     ethr =  1.06E-07,  avg # of iterations = 10.5
     Minimization algorithm failed to find Fermi energy: reverting to bisection
     Possible cause: smearing is larger than the electronic band-gap.

     negative rho (up, down):  1.152E-05 0.000E+00

     total cpu time spent up to now is    38632.6 secs

     total energy              =   -1978.31638524 Ry
     estimated scf accuracy    <       0.00061556 Ry

     iteration # 28     ecut=    80.00 Ry     beta= 0.30
     Davidson diagonalization with overlap
     ethr =  1.06E-07,  avg # of iterations =  9.7
     Minimization algorithm failed to find Fermi energy: reverting to bisection
     Possible cause: smearing is larger than the electronic band-gap.

     negative rho (up, down):  6.075E-06 0.000E+00

     total cpu time spent up to now is    38775.7 secs

     total energy              =   -1978.31640477 Ry
     estimated scf accuracy    <       0.00012734 Ry

     iteration # 29     ecut=    80.00 Ry     beta= 0.30
     Davidson diagonalization with overlap
     ethr =  1.06E-07,  avg # of iterations =  1.5
     Minimization algorithm failed to find Fermi energy: reverting to bisection
     Possible cause: smearing is larger than the electronic band-gap.

     negative rho (up, down):  5.424E-06 0.000E+00

     total cpu time spent up to now is    38880.7 secs

     total energy              =   -1978.31636800 Ry
     estimated scf accuracy    <       0.00013519 Ry

     iteration # 30     ecut=    80.00 Ry     beta= 0.30
     Davidson diagonalization with overlap
     ethr =  1.06E-07,  avg # of iterations =  7.4
     Minimization algorithm failed to find Fermi energy: reverting to bisection
     Possible cause: smearing is larger than the electronic band-gap.

     negative rho (up, down):  5.701E-06 0.000E+00

     total cpu time spent up to now is    39003.6 secs

     total energy              =   -1978.31636823 Ry
     estimated scf accuracy    <       0.00016850 Ry

     iteration # 31     ecut=    80.00 Ry     beta= 0.30
     Davidson diagonalization with overlap
     ethr =  1.06E-07,  avg # of iterations =  1.0
     Minimization algorithm failed to find Fermi energy: reverting to bisection
     Possible cause: smearing is larger than the electronic band-gap.

     negative rho (up, down):  7.239E-06 0.000E+00

     total cpu time spent up to now is    39104.1 secs

     total energy              =   -1978.31634929 Ry
     estimated scf accuracy    <       0.00015768 Ry

     iteration # 32     ecut=    80.00 Ry     beta= 0.30
     Davidson diagonalization with overlap
     c_bands:  1 eigenvalues not converged
     ethr =  1.06E-07,  avg # of iterations =  3.7
     Minimization algorithm failed to find Fermi energy: reverting to bisection
     Possible cause: smearing is larger than the electronic band-gap.

     negative rho (up, down):  4.632E-06 0.000E+00

     total cpu time spent up to now is    39212.5 secs

     total energy              =   -1978.31633557 Ry
     estimated scf accuracy    <       0.00015216 Ry

     iteration # 33     ecut=    80.00 Ry     beta= 0.30
     Davidson diagonalization with overlap
     ethr =  1.06E-07,  avg # of iterations =  2.8
     Minimization algorithm failed to find Fermi energy: reverting to bisection
     Possible cause: smearing is larger than the electronic band-gap.

     negative rho (up, down):  5.911E-06 0.000E+00

     total cpu time spent up to now is    39319.1 secs

     total energy              =   -1978.31632508 Ry
     estimated scf accuracy    <       0.00011759 Ry

     iteration # 34     ecut=    80.00 Ry     beta= 0.30
     Davidson diagonalization with overlap
     ethr =  1.06E-07,  avg # of iterations =  1.7
     Minimization algorithm failed to find Fermi energy: reverting to bisection
     Possible cause: smearing is larger than the electronic band-gap.

     negative rho (up, down):  5.729E-06 0.000E+00

     total cpu time spent up to now is    39422.3 secs

     total energy              =   -1978.31635496 Ry
     estimated scf accuracy    <       0.00007428 Ry

     iteration # 35     ecut=    80.00 Ry     beta= 0.30
     Davidson diagonalization with overlap
     ethr =  7.14E-08,  avg # of iterations =  2.3
     Minimization algorithm failed to find Fermi energy: reverting to bisection
     Possible cause: smearing is larger than the electronic band-gap.

     negative rho (up, down):  7.423E-06 0.000E+00

     total cpu time spent up to now is    39536.1 secs

     total energy              =   -1978.31638941 Ry
     estimated scf accuracy    <       0.00013247 Ry

     iteration # 36     ecut=    80.00 Ry     beta= 0.30
     Davidson diagonalization with overlap
     ethr =  7.14E-08,  avg # of iterations =  3.9
     Minimization algorithm failed to find Fermi energy: reverting to bisection
     Possible cause: smearing is larger than the electronic band-gap.

     negative rho (up, down):  1.018E-05 0.000E+00

     total cpu time spent up to now is    39650.1 secs

     total energy              =   -1978.31644372 Ry
     estimated scf accuracy    <       0.00011795 Ry

     iteration # 37     ecut=    80.00 Ry     beta= 0.30
     Davidson diagonalization with overlap
     ethr =  7.14E-08,  avg # of iterations = 11.0
     Minimization algorithm failed to find Fermi energy: reverting to bisection
     Possible cause: smearing is larger than the electronic band-gap.

     negative rho (up, down):  5.623E-06 0.000E+00

     total cpu time spent up to now is    39782.3 secs

     total energy              =   -1978.31638513 Ry
     estimated scf accuracy    <       0.00014161 Ry

     iteration # 38     ecut=    80.00 Ry     beta= 0.30
     Davidson diagonalization with overlap
     ethr =  7.14E-08,  avg # of iterations =  8.8
     Minimization algorithm failed to find Fermi energy: reverting to bisection
     Possible cause: smearing is larger than the electronic band-gap.

     negative rho (up, down):  1.107E-05 0.000E+00

     total cpu time spent up to now is    39913.2 secs

     total energy              =   -1978.31638595 Ry
     estimated scf accuracy    <       0.00016189 Ry

     iteration # 39     ecut=    80.00 Ry     beta= 0.30
     Davidson diagonalization with overlap
     ethr =  7.14E-08,  avg # of iterations =  1.1
     Minimization algorithm failed to find Fermi energy: reverting to bisection
     Possible cause: smearing is larger than the electronic band-gap.

     negative rho (up, down):  1.632E-05 0.000E+00

     total cpu time spent up to now is    40014.4 secs

     total energy              =   -1978.31637935 Ry
     estimated scf accuracy    <       0.00014811 Ry

     iteration # 40     ecut=    80.00 Ry     beta= 0.30
     Davidson diagonalization with overlap
     ethr =  7.14E-08,  avg # of iterations =  1.0
     Minimization algorithm failed to find Fermi energy: reverting to bisection
     Possible cause: smearing is larger than the electronic band-gap.

     negative rho (up, down):  3.111E-05 0.000E+00

     total cpu time spent up to now is    40115.1 secs

     total energy              =   -1978.31633759 Ry
     estimated scf accuracy    <       0.00016262 Ry

     iteration # 41     ecut=    80.00 Ry     beta= 0.30
     Davidson diagonalization with overlap
     ethr =  7.14E-08,  avg # of iterations =  5.3
     Minimization algorithm failed to find Fermi energy: reverting to bisection
     Possible cause: smearing is larger than the electronic band-gap.

     negative rho (up, down):  3.014E-05 0.000E+00

     total cpu time spent up to now is    40236.9 secs

     total energy              =   -1978.31633493 Ry
     estimated scf accuracy    <       0.00013439 Ry

     iteration # 42     ecut=    80.00 Ry     beta= 0.30
     Davidson diagonalization with overlap
     ethr =  7.14E-08,  avg # of iterations =  1.0
     Minimization algorithm failed to find Fermi energy: reverting to bisection
     Possible cause: smearing is larger than the electronic band-gap.

     negative rho (up, down):  2.887E-05 0.000E+00

     total cpu time spent up to now is    40337.5 secs

     total energy              =   -1978.31636512 Ry
     estimated scf accuracy    <       0.00014541 Ry

     iteration # 43     ecut=    80.00 Ry     beta= 0.30
     Davidson diagonalization with overlap
     ethr =  7.14E-08,  avg # of iterations =  2.1
     Minimization algorithm failed to find Fermi energy: reverting to bisection
     Possible cause: smearing is larger than the electronic band-gap.

     negative rho (up, down):  4.219E-05 0.000E+00

     total cpu time spent up to now is    40449.1 secs

     total energy              =   -1978.31637379 Ry
     estimated scf accuracy    <       0.00017879 Ry

     iteration # 44     ecut=    80.00 Ry     beta= 0.30
     Davidson diagonalization with overlap
     ethr =  7.14E-08,  avg # of iterations =  2.0
     Minimization algorithm failed to find Fermi energy: reverting to bisection
     Possible cause: smearing is larger than the electronic band-gap.

     negative rho (up, down):  3.169E-05 0.000E+00

     total cpu time spent up to now is    40551.6 secs

     total energy              =   -1978.31643865 Ry
     estimated scf accuracy    <       0.00019531 Ry

     iteration # 45     ecut=    80.00 Ry     beta= 0.30
     Davidson diagonalization with overlap
     ethr =  7.14E-08,  avg # of iterations =  8.8
     Minimization algorithm failed to find Fermi energy: reverting to bisection
     Possible cause: smearing is larger than the electronic band-gap.

     negative rho (up, down):  3.149E-05 0.000E+00

     total cpu time spent up to now is    40677.7 secs

     total energy              =   -1978.31642459 Ry
     estimated scf accuracy    <       0.00019156 Ry

     iteration # 46     ecut=    80.00 Ry     beta= 0.30
     Davidson diagonalization with overlap
     ethr =  7.14E-08,  avg # of iterations =  1.0
     Minimization algorithm failed to find Fermi energy: reverting to bisection
     Possible cause: smearing is larger than the electronic band-gap.

     negative rho (up, down):  4.805E-05 0.000E+00

     total cpu time spent up to now is    40777.9 secs

     total energy              =   -1978.31641133 Ry
     estimated scf accuracy    <       0.00019794 Ry

     iteration # 47     ecut=    80.00 Ry     beta= 0.30
     Davidson diagonalization with overlap
     ethr =  7.14E-08,  avg # of iterations =  1.4
     Minimization algorithm failed to find Fermi energy: reverting to bisection
     Possible cause: smearing is larger than the electronic band-gap.

     negative rho (up, down):  3.807E-05 0.000E+00

     total cpu time spent up to now is    40882.7 secs

     total energy              =   -1978.31643070 Ry
     estimated scf accuracy    <       0.00024483 Ry

     iteration # 48     ecut=    80.00 Ry     beta= 0.30
     Davidson diagonalization with overlap
     ethr =  7.14E-08,  avg # of iterations =  1.9
     Minimization algorithm failed to find Fermi energy: reverting to bisection
     Possible cause: smearing is larger than the electronic band-gap.

     negative rho (up, down):  5.557E-05 0.000E+00

     total cpu time spent up to now is    40991.8 secs

     total energy              =   -1978.31644777 Ry
     estimated scf accuracy    <       0.00021379 Ry

     iteration # 49     ecut=    80.00 Ry     beta= 0.30
     Davidson diagonalization with overlap
     ethr =  7.14E-08,  avg # of iterations =  2.3
     Minimization algorithm failed to find Fermi energy: reverting to bisection
     Possible cause: smearing is larger than the electronic band-gap.

     negative rho (up, down):  4.224E-05 0.000E+00

     total cpu time spent up to now is    41103.0 secs

     total energy              =   -1978.31639057 Ry
     estimated scf accuracy    <       0.00024201 Ry

     iteration # 50     ecut=    80.00 Ry     beta= 0.30
     Davidson diagonalization with overlap
     ethr =  7.14E-08,  avg # of iterations =  6.6
     Minimization algorithm failed to find Fermi energy: reverting to bisection
     Possible cause: smearing is larger than the electronic band-gap.

     negative rho (up, down):  3.665E-05 0.000E+00

     total cpu time spent up to now is    41228.7 secs

     total energy              =   -1978.31652771 Ry
     estimated scf accuracy    <       0.00026846 Ry

     iteration # 51     ecut=    80.00 Ry     beta= 0.30
     Davidson diagonalization with overlap
     c_bands:  1 eigenvalues not converged
     ethr =  7.14E-08,  avg # of iterations = 10.4
     Minimization algorithm failed to find Fermi energy: reverting to bisection
     Possible cause: smearing is larger than the electronic band-gap.

     negative rho (up, down):  4.896E-05 0.000E+00

     total cpu time spent up to now is    41373.6 secs

     total energy              =   -1978.31688746 Ry
     estimated scf accuracy    <       0.00038561 Ry

     iteration # 52     ecut=    80.00 Ry     beta= 0.30
     Davidson diagonalization with overlap
     c_bands:  2 eigenvalues not converged
     c_bands:  2 eigenvalues not converged
     c_bands:  1 eigenvalues not converged
     ethr =  7.14E-08,  avg # of iterations = 13.2
     Minimization algorithm failed to find Fermi energy: reverting to bisection
     Possible cause: smearing is larger than the electronic band-gap.

     negative rho (up, down):  1.031E-05 0.000E+00

     total cpu time spent up to now is    41565.2 secs

     total energy              =   -1978.31601688 Ry
     estimated scf accuracy    <       0.00352588 Ry

     iteration # 53     ecut=    80.00 Ry     beta= 0.30
     Davidson diagonalization with overlap
     c_bands:  1 eigenvalues not converged
     c_bands:  1 eigenvalues not converged
     c_bands:  4 eigenvalues not converged
     c_bands:  1 eigenvalues not converged
     c_bands:  1 eigenvalues not converged
     c_bands:  1 eigenvalues not converged
     ethr =  7.14E-08,  avg # of iterations = 14.1
     Minimization algorithm failed to find Fermi energy: reverting to bisection
     Possible cause: smearing is larger than the electronic band-gap.

     negative rho (up, down):  6.811E-06 0.000E+00

     total cpu time spent up to now is    41777.1 secs

     total energy              =   -1978.31636070 Ry
     estimated scf accuracy    <       0.00014816 Ry

     iteration # 54     ecut=    80.00 Ry     beta= 0.30
     Davidson diagonalization with overlap
     ethr =  7.14E-08,  avg # of iterations = 10.6
     Minimization algorithm failed to find Fermi energy: reverting to bisection
     Possible cause: smearing is larger than the electronic band-gap.

     negative rho (up, down):  6.083E-06 0.000E+00

     total cpu time spent up to now is    41918.5 secs

     total energy              =   -1978.31626878 Ry
     estimated scf accuracy    <       0.00014027 Ry

     iteration # 55     ecut=    80.00 Ry     beta= 0.30
     Davidson diagonalization with overlap
     c_bands:  2 eigenvalues not converged
     c_bands:  2 eigenvalues not converged
     c_bands:  2 eigenvalues not converged
     c_bands:  2 eigenvalues not converged
     c_bands:  2 eigenvalues not converged
     ethr =  7.14E-08,  avg # of iterations = 13.9
     Minimization algorithm failed to find Fermi energy: reverting to bisection
     Possible cause: smearing is larger than the electronic band-gap.

     negative rho (up, down):  7.327E-06 0.000E+00

     total cpu time spent up to now is    42090.7 secs

     total energy              =   -1978.31656199 Ry
     estimated scf accuracy    <       0.00578736 Ry

     iteration # 56     ecut=    80.00 Ry     beta= 0.30
     Davidson diagonalization with overlap
     ethr =  7.14E-08,  avg # of iterations =  1.7
     Minimization algorithm failed to find Fermi energy: reverting to bisection
     Possible cause: smearing is larger than the electronic band-gap.

     negative rho (up, down):  7.815E-06 0.000E+00

     total cpu time spent up to now is    42193.4 secs

     total energy              =   -1978.31657587 Ry
     estimated scf accuracy    <       0.00650857 Ry

     iteration # 57     ecut=    80.00 Ry     beta= 0.30
     Davidson diagonalization with overlap
     ethr =  7.14E-08,  avg # of iterations =  1.0
     Minimization algorithm failed to find Fermi energy: reverting to bisection
     Possible cause: smearing is larger than the electronic band-gap.

     negative rho (up, down):  6.904E-06 0.000E+00

     total cpu time spent up to now is    42293.8 secs

     total energy              =   -1978.31635634 Ry
     estimated scf accuracy    <       0.00685937 Ry

     iteration # 58     ecut=    80.00 Ry     beta= 0.30
     Davidson diagonalization with overlap
     ethr =  7.14E-08,  avg # of iterations =  2.4
     Minimization algorithm failed to find Fermi energy: reverting to bisection
     Possible cause: smearing is larger than the electronic band-gap.

     negative rho (up, down):  1.093E-05 0.000E+00

     total cpu time spent up to now is    42406.5 secs

     total energy              =   -1978.31608447 Ry
     estimated scf accuracy    <       0.00222522 Ry

     iteration # 59     ecut=    80.00 Ry     beta= 0.30
     Davidson diagonalization with overlap
     c_bands:  1 eigenvalues not converged
     c_bands:  1 eigenvalues not converged
     c_bands:  1 eigenvalues not converged
     ethr =  7.14E-08,  avg # of iterations = 13.2
     Minimization algorithm failed to find Fermi energy: reverting to bisection
     Possible cause: smearing is larger than the electronic band-gap.

     negative rho (up, down):  1.015E-05 0.000E+00

     total cpu time spent up to now is    42551.8 secs

     total energy              =   -1978.31633527 Ry
     estimated scf accuracy    <       0.00013124 Ry

     iteration # 60     ecut=    80.00 Ry     beta= 0.30
     Davidson diagonalization with overlap
     ethr =  7.14E-08,  avg # of iterations =  1.5
     Minimization algorithm failed to find Fermi energy: reverting to bisection
     Possible cause: smearing is larger than the electronic band-gap.

     negative rho (up, down):  1.035E-05 0.000E+00

     total cpu time spent up to now is    42654.0 secs

     total energy              =   -1978.31633355 Ry
     estimated scf accuracy    <       0.00011905 Ry

     iteration # 61     ecut=    80.00 Ry     beta= 0.30
     Davidson diagonalization with overlap
     ethr =  7.14E-08,  avg # of iterations =  1.0
     Minimization algorithm failed to find Fermi energy: reverting to bisection
     Possible cause: smearing is larger than the electronic band-gap.

     negative rho (up, down):  9.230E-06 0.000E+00

     total cpu time spent up to now is    42755.3 secs

     total energy              =   -1978.31633474 Ry
     estimated scf accuracy    <       0.00011454 Ry

     iteration # 62     ecut=    80.00 Ry     beta= 0.30
     Davidson diagonalization with overlap
     ethr =  7.14E-08,  avg # of iterations =  1.0
     Minimization algorithm failed to find Fermi energy: reverting to bisection
     Possible cause: smearing is larger than the electronic band-gap.

     negative rho (up, down):  6.470E-06 0.000E+00

     total cpu time spent up to now is    42856.0 secs

     total energy              =   -1978.31633369 Ry
     estimated scf accuracy    <       0.00011471 Ry

     iteration # 63     ecut=    80.00 Ry     beta= 0.30
     Davidson diagonalization with overlap
     ethr =  7.14E-08,  avg # of iterations =  1.0
     Minimization algorithm failed to find Fermi energy: reverting to bisection
     Possible cause: smearing is larger than the electronic band-gap.

     negative rho (up, down):  7.480E-06 0.000E+00

     total cpu time spent up to now is    42956.5 secs

     total energy              =   -1978.31632719 Ry
     estimated scf accuracy    <       0.00010596 Ry

     iteration # 64     ecut=    80.00 Ry     beta= 0.30
     Davidson diagonalization with overlap
     ethr =  7.14E-08,  avg # of iterations =  1.2
     Minimization algorithm failed to find Fermi energy: reverting to bisection
     Possible cause: smearing is larger than the electronic band-gap.

     negative rho (up, down):  7.327E-06 0.000E+00

     total cpu time spent up to now is    43057.2 secs

     total energy              =   -1978.31632832 Ry
     estimated scf accuracy    <       0.00007628 Ry

     iteration # 65     ecut=    80.00 Ry     beta= 0.30
     Davidson diagonalization with overlap
     ethr =  7.14E-08,  avg # of iterations =  1.0
     Minimization algorithm failed to find Fermi energy: reverting to bisection
     Possible cause: smearing is larger than the electronic band-gap.

     negative rho (up, down):  7.047E-06 0.000E+00

     total cpu time spent up to now is    43158.1 secs

     total energy              =   -1978.31633244 Ry
     estimated scf accuracy    <       0.00007998 Ry

     iteration # 66     ecut=    80.00 Ry     beta= 0.30
     Davidson diagonalization with overlap
     ethr =  7.14E-08,  avg # of iterations =  1.0
     Minimization algorithm failed to find Fermi energy: reverting to bisection
     Possible cause: smearing is larger than the electronic band-gap.

     negative rho (up, down):  6.754E-06 0.000E+00

     total cpu time spent up to now is    43258.3 secs

     total energy              =   -1978.31633660 Ry
     estimated scf accuracy    <       0.00009754 Ry

     iteration # 67     ecut=    80.00 Ry     beta= 0.30
     Davidson diagonalization with overlap
     ethr =  7.14E-08,  avg # of iterations =  1.0
     Minimization algorithm failed to find Fermi energy: reverting to bisection
     Possible cause: smearing is larger than the electronic band-gap.

     negative rho (up, down):  1.157E-05 0.000E+00

     total cpu time spent up to now is    43358.8 secs

     total energy              =   -1978.31630518 Ry
     estimated scf accuracy    <       0.00011326 Ry

     iteration # 68     ecut=    80.00 Ry     beta= 0.30
     Davidson diagonalization with overlap
     ethr =  7.14E-08,  avg # of iterations =  3.7
     Minimization algorithm failed to find Fermi energy: reverting to bisection
     Possible cause: smearing is larger than the electronic band-gap.

     negative rho (up, down):  5.939E-06 0.000E+00

     total cpu time spent up to now is    43476.1 secs

     total energy              =   -1978.31631688 Ry
     estimated scf accuracy    <       0.00000505 Ry

     iteration # 69     ecut=    80.00 Ry     beta= 0.30
     Davidson diagonalization with overlap
     ethr =  4.85E-09,  avg # of iterations =  3.5
     Minimization algorithm failed to find Fermi energy: reverting to bisection
     Possible cause: smearing is larger than the electronic band-gap.

     negative rho (up, down):  6.059E-06 0.000E+00

     total cpu time spent up to now is    43594.1 secs

     total energy              =   -1978.31631887 Ry
     estimated scf accuracy    <       0.00001567 Ry

     iteration # 70     ecut=    80.00 Ry     beta= 0.30
     Davidson diagonalization with overlap
     ethr =  4.85E-09,  avg # of iterations =  1.3
     Minimization algorithm failed to find Fermi energy: reverting to bisection
     Possible cause: smearing is larger than the electronic band-gap.

     negative rho (up, down):  6.758E-06 0.000E+00

     total cpu time spent up to now is    43695.4 secs

     total energy              =   -1978.31631894 Ry
     estimated scf accuracy    <       0.00000884 Ry

     iteration # 71     ecut=    80.00 Ry     beta= 0.30
     Davidson diagonalization with overlap
     ethr =  4.85E-09,  avg # of iterations =  1.0
     Minimization algorithm failed to find Fermi energy: reverting to bisection
     Possible cause: smearing is larger than the electronic band-gap.

     negative rho (up, down):  7.215E-06 0.000E+00

     total cpu time spent up to now is    43795.6 secs

     total energy              =   -1978.31631714 Ry
     estimated scf accuracy    <       0.00001079 Ry

     iteration # 72     ecut=    80.00 Ry     beta= 0.30
     Davidson diagonalization with overlap
     ethr =  4.85E-09,  avg # of iterations =  2.3
     Minimization algorithm failed to find Fermi energy: reverting to bisection
     Possible cause: smearing is larger than the electronic band-gap.

     negative rho (up, down):  7.133E-06 0.000E+00

     total cpu time spent up to now is    43907.7 secs

     total energy              =   -1978.31631787 Ry
     estimated scf accuracy    <       0.00000209 Ry

     iteration # 73     ecut=    80.00 Ry     beta= 0.30
     Davidson diagonalization with overlap
     ethr =  2.01E-09,  avg # of iterations =  3.8
     Minimization algorithm failed to find Fermi energy: reverting to bisection
     Possible cause: smearing is larger than the electronic band-gap.

     negative rho (up, down):  8.670E-06 0.000E+00

     total cpu time spent up to now is    44021.8 secs

     total energy              =   -1978.31631653 Ry
     estimated scf accuracy    <       0.00000572 Ry

     iteration # 74     ecut=    80.00 Ry     beta= 0.30
     Davidson diagonalization with overlap
     ethr =  2.01E-09,  avg # of iterations =  4.2
     Minimization algorithm failed to find Fermi energy: reverting to bisection
     Possible cause: smearing is larger than the electronic band-gap.

     negative rho (up, down):  1.168E-05 0.000E+00

     total cpu time spent up to now is    44147.8 secs

     total energy              =   -1978.31631714 Ry
     estimated scf accuracy    <       0.00001596 Ry

     iteration # 75     ecut=    80.00 Ry     beta= 0.30
     Davidson diagonalization with overlap
     ethr =  2.01E-09,  avg # of iterations =  2.3
     Minimization algorithm failed to find Fermi energy: reverting to bisection
     Possible cause: smearing is larger than the electronic band-gap.

     negative rho (up, down):  8.661E-06 0.000E+00

     total cpu time spent up to now is    44260.4 secs

     total energy              =   -1978.31632091 Ry
     estimated scf accuracy    <       0.00000506 Ry

     iteration # 76     ecut=    80.00 Ry     beta= 0.30
     Davidson diagonalization with overlap
     ethr =  2.01E-09,  avg # of iterations =  4.7
     Minimization algorithm failed to find Fermi energy: reverting to bisection
     Possible cause: smearing is larger than the electronic band-gap.

     negative rho (up, down):  8.450E-06 0.000E+00

     total cpu time spent up to now is    44388.7 secs

     total energy              =   -1978.31630985 Ry
     estimated scf accuracy    <       0.00005523 Ry

     iteration # 77     ecut=    80.00 Ry     beta= 0.30
     Davidson diagonalization with overlap
     c_bands:  1 eigenvalues not converged
     c_bands:  1 eigenvalues not converged
     c_bands:  1 eigenvalues not converged
     ethr =  2.01E-09,  avg # of iterations =  8.3
     Minimization algorithm failed to find Fermi energy: reverting to bisection
     Possible cause: smearing is larger than the electronic band-gap.

     negative rho (up, down):  7.277E-06 0.000E+00

     total cpu time spent up to now is    44543.5 secs

     total energy              =   -1978.31631873 Ry
     estimated scf accuracy    <       0.00002514 Ry

     iteration # 78     ecut=    80.00 Ry     beta= 0.30
     Davidson diagonalization with overlap
     ethr =  2.01E-09,  avg # of iterations =  2.3
     Minimization algorithm failed to find Fermi energy: reverting to bisection
     Possible cause: smearing is larger than the electronic band-gap.

     negative rho (up, down):  6.546E-06 0.000E+00

     total cpu time spent up to now is    44657.5 secs

     total energy              =   -1978.31631558 Ry
     estimated scf accuracy    <       0.00002383 Ry

     iteration # 79     ecut=    80.00 Ry     beta= 0.30
     Davidson diagonalization with overlap
     ethr =  2.01E-09,  avg # of iterations =  4.2
     Minimization algorithm failed to find Fermi energy: reverting to bisection
     Possible cause: smearing is larger than the electronic band-gap.

     negative rho (up, down):  5.896E-06 0.000E+00

     total cpu time spent up to now is    44782.5 secs

     total energy              =   -1978.31631803 Ry
     estimated scf accuracy    <       0.00000109 Ry

     iteration # 80     ecut=    80.00 Ry     beta= 0.30
     Davidson diagonalization with overlap
     ethr =  1.05E-09,  avg # of iterations =  2.4
     Minimization algorithm failed to find Fermi energy: reverting to bisection
     Possible cause: smearing is larger than the electronic band-gap.

     negative rho (up, down):  4.962E-06 0.000E+00

     total cpu time spent up to now is    44894.6 secs

     total energy              =   -1978.31631807 Ry
     estimated scf accuracy    <       0.00000290 Ry

     iteration # 81     ecut=    80.00 Ry     beta= 0.30
     Davidson diagonalization with overlap
     ethr =  1.05E-09,  avg # of iterations =  1.3
     Minimization algorithm failed to find Fermi energy: reverting to bisection
     Possible cause: smearing is larger than the electronic band-gap.

     negative rho (up, down):  5.072E-06 0.000E+00

     total cpu time spent up to now is    44998.3 secs

     total energy              =   -1978.31631789 Ry
     estimated scf accuracy    <       0.00000109 Ry

     iteration # 82     ecut=    80.00 Ry     beta= 0.30
     Davidson diagonalization with overlap
     ethr =  1.05E-09,  avg # of iterations =  1.8
     Minimization algorithm failed to find Fermi energy: reverting to bisection
     Possible cause: smearing is larger than the electronic band-gap.

     negative rho (up, down):  5.131E-06 0.000E+00

     total cpu time spent up to now is    45104.4 secs

     total energy              =   -1978.31631792 Ry
     estimated scf accuracy    <       0.00000004 Ry

     iteration # 83     ecut=    80.00 Ry     beta= 0.30
     Davidson diagonalization with overlap
     ethr =  4.09E-11,  avg # of iterations =  5.1
     Minimization algorithm failed to find Fermi energy: reverting to bisection
     Possible cause: smearing is larger than the electronic band-gap.

     negative rho (up, down):  5.078E-06 0.000E+00

     total cpu time spent up to now is    45236.4 secs

     total energy              =   -1978.31631791 Ry
     estimated scf accuracy    <       0.00000044 Ry

     iteration # 84     ecut=    80.00 Ry     beta= 0.30
     Davidson diagonalization with overlap
     ethr =  4.09E-11,  avg # of iterations =  4.4
     Minimization algorithm failed to find Fermi energy: reverting to bisection
     Possible cause: smearing is larger than the electronic band-gap.

     negative rho (up, down):  5.165E-06 0.000E+00

     total cpu time spent up to now is    45363.3 secs

     total energy              =   -1978.31631791 Ry
     estimated scf accuracy    <       0.00000004 Ry

     iteration # 85     ecut=    80.00 Ry     beta= 0.30
     Davidson diagonalization with overlap
     ethr =  4.06E-11,  avg # of iterations =  2.3
     Minimization algorithm failed to find Fermi energy: reverting to bisection
     Possible cause: smearing is larger than the electronic band-gap.

     negative rho (up, down):  4.587E-06 0.000E+00

     total cpu time spent up to now is    45474.0 secs

     End of self-consistent calculation

          k = 0.0000 0.0000 0.0000 ( 21311 PWs)   bands (ev):

   -53.4778 -53.4239 -53.3985 -53.3245 -27.6461 -27.6046 -27.5598 -27.5215
   -27.4059 -27.4059 -27.4021 -27.4021 -27.3112 -27.3112 -27.2956 -27.2956
    -7.8829  -6.7825  -6.6669  -6.5061  -6.0082  -5.4717  -5.3793  -4.9379
     0.6085   1.6300   1.8757   2.3950   4.3997   4.3997   4.5374   4.5374
     4.5572   4.9027   4.9027   5.1677   5.1677   5.2593   5.5593   5.5593
     5.7440   5.7441   5.7627   5.9996   5.9996   6.2249   6.2249   6.7024
     7.0194   7.6848   7.8594   9.0754   9.6053   9.6053  10.1429  10.1429
    10.1553  10.1553  10.2440  10.2441  10.3268  10.3393

          k = 0.0000 0.0722 0.0000 ( 21283 PWs)   bands (ev):

   -53.4762 -53.4223 -53.3970 -53.3228 -27.6431 -27.6014 -27.5569 -27.5182
   -27.4213 -27.4183 -27.4094 -27.4057 -27.3262 -27.3146 -27.3118 -27.2992
    -7.8236  -6.7234  -6.6084  -6.4479  -5.9719  -5.4450  -5.3516  -4.9240
     0.6682   1.6948   1.9413   2.4544   4.2493   4.3944   4.4203   4.4504
     4.6031   4.7661   4.9643   5.0276   5.0902   5.2284   5.3860   5.4496
     5.4556   5.6566   5.9032   5.9222   6.1182   6.1285   6.3146   6.7623
     7.0194   7.6384   7.7829   8.5147   9.6227   9.9612  10.0725  10.1205
    10.1511  10.1694  10.1797  10.1921  10.2110  10.3124

          k = 0.0000 0.1443 0.0000 ( 21263 PWs)   bands (ev):

   -53.4718 -53.4177 -53.3927 -53.3183 -27.6346 -27.5921 -27.5487 -27.5090
   -27.4648 -27.4643 -27.4193 -27.4161 -27.3689 -27.3579 -27.3244 -27.3096
    -7.6494  -6.5516  -6.4386  -6.2783  -5.8657  -5.3673  -5.2710  -4.8848
     0.8302   1.8725   2.1207   2.6116   3.8517   4.0586   4.1005   4.4134
     4.5769   4.6625   4.7448   4.7923   4.9445   5.0690   5.1407   5.2168
     5.4024   5.4246   5.6543   5.8792   6.0230   6.1917   6.4259   6.8030
     6.9867   7.4364   7.5181   7.7887   9.5658   9.7769   9.7952   9.9373
     9.9749  10.0372  10.0752  10.0867  10.1600  10.1896

          k = 0.0000 0.2165 0.0000 ( 21233 PWs)   bands (ev):

   -53.4652 -53.4108 -53.3862 -53.3114 -27.6219 -27.5782 -27.5364 -27.5325
   -27.5294 -27.4951 -27.4342 -27.4322 -27.4316 -27.4263 -27.3390 -27.3252
    -7.3723  -6.2833  -6.1736  -6.0128  -5.6977  -5.2461  -5.1447  -4.8281
     1.0361   2.1006   2.3483   2.7691   3.3414   3.6425   3.7571   3.9831
     4.2003   4.3399   4.4590   4.5974   4.6031   5.0319   5.1084   5.1449
     5.3211   5.4244   5.5568   5.6679   5.9409   6.1193   6.3559   6.6931
     6.8328   6.9965   7.0944   7.2820   9.4077   9.4370   9.4796   9.8250
     9.8684   9.8939   9.9146  10.0424  10.2376  10.2435

          k = 0.0000 0.2887 0.0000 ( 21197 PWs)   bands (ev):

   -53.4574 -53.4027 -53.3785 -53.3033 -27.6120 -27.6069 -27.6047 -27.5618
   -27.5219 -27.5061 -27.5060 -27.4786 -27.4516 -27.4498 -27.3562 -27.3434
    -7.0119  -5.9466  -5.8414  -5.6795  -5.4808  -5.0951  -4.9862  -4.7667
     1.1789   2.2121   2.4605   2.6113   2.9872   3.2289   3.4827   3.6700
     3.8150   3.8878   3.9979   4.1650   4.3525   4.7867   4.9996   5.2218
     5.2651   5.4765   5.7138   5.7385   5.9186   5.9781   6.1254   6.4316
     6.5170   6.6345   6.6808   6.9240   9.2741   9.3042   9.3878   9.6884
     9.7300   9.7553  10.0272  10.0431  10.2521  10.4861

          k = 0.0000 0.3608 0.0000 ( 21187 PWs)   bands (ev):

   -53.4496 -53.3946 -53.3708 -53.2952 -27.6906 -27.6794 -27.5917 -27.5848
   -27.5791 -27.5454 -27.5073 -27.4690 -27.4680 -27.4621 -27.3733 -27.3616
    -6.5980  -5.5848  -5.4821  -5.3287  -5.2256  -4.9351  -4.8178  -4.7166
     1.1556   1.8832   2.2535   2.3929   2.6738   2.8707   3.2523   3.3676
     3.5346   3.6261   3.7215   3.8828   4.0711   4.5052   4.7139   4.9438
     5.4889   5.4964   5.6913   5.8608   5.8711   6.0567   6.1809   6.2777
     6.3249   6.4327   6.4612   6.6755   9.2456   9.4075   9.5039   9.5887
     9.6515   9.8133   9.8729  10.1800  10.5732  10.7492

          k = 0.0000 0.4330 0.0000 ( 21140 PWs)   bands (ev):

   -53.4430 -53.3877 -53.3643 -53.2883 -27.7564 -27.7419 -27.6508 -27.6404
   -27.5789 -27.5314 -27.4949 -27.4837 -27.4833 -27.4481 -27.3878 -27.3769
    -6.1751  -5.2597  -5.1524  -5.0514  -4.9265  -4.8004  -4.7108  -4.6440
     0.9745   1.4353   1.9512   2.1064   2.3407   2.5774   2.9227   2.9703
     3.3511   3.4879   3.6177   3.7198   3.8478   4.2880   4.4945   4.7252
     5.3309   5.5110   5.6702   5.6807   6.0825   6.1955   6.3163   6.3434
     6.4553   6.5109   6.5280   6.6216   9.3309   9.5850   9.6539   9.6716
     9.7396   9.7687   9.9514  10.2847  10.8694  10.9740

          k = 0.0000 0.5052 0.0000 ( 21078 PWs)   bands (ev):

   -53.4386 -53.3831 -53.3599 -53.2836 -27.8000 -27.7833 -27.6945 -27.6811
   -27.5703 -27.5220 -27.4935 -27.4935 -27.4866 -27.4387 -27.3974 -27.3872
    -5.8159  -5.0483  -4.9389  -4.8584  -4.7590  -4.6728  -4.6598  -4.5389
     0.7511   1.1581   1.6913   1.8394   2.1206   2.3752   2.6562   2.6920
     3.1714   3.3808   3.5297   3.5815   3.7073   4.1522   4.3575   4.5886
     5.2397   5.4047   5.5488   5.7854   6.0574   6.4067   6.4896   6.4978
     6.6115   6.6499   6.7063   6.7485   9.4592   9.6372   9.7183   9.7549
     9.9320   9.9995  10.1094  10.3340  11.0411  11.1179

          k = 0.0000-0.5774 0.0000 ( 21006 PWs)   bands (ev):

   -53.4370 -53.3815 -53.3584 -53.2820 -27.8153 -27.7978 -27.7098 -27.6953
   -27.5672 -27.5187 -27.4971 -27.4969 -27.4836 -27.4354 -27.4008 -27.3907
    -5.6564  -4.9990  -4.8829  -4.7855  -4.7316  -4.6310  -4.5789  -4.4991
     0.6518   1.0693   1.5905   1.7323   2.0453   2.3021   2.5600   2.5912
     3.0994   3.3335   3.4894   3.5215   3.6595   4.1060   4.3111   4.5423
     5.2102   5.3711   5.5087   5.8178   6.0450   6.4710   6.5553   6.6167
     6.6954   6.6985   6.7841   6.8142   9.5194   9.6683   9.7178   9.7896
    10.0769  10.1419  10.1891  10.3193  11.0879  11.1669

          k = 0.0625 0.1083 0.0000 ( 21269 PWs)   bands (ev):

   -53.4732 -53.4192 -53.3941 -53.3197 -27.6374 -27.5951 -27.5514 -27.5120
   -27.4503 -27.4489 -27.4166 -27.4132 -27.3546 -27.3426 -27.3217 -27.3067
    -7.7068  -6.6080  -6.4943  -6.3340  -5.9007  -5.3928  -5.2974  -4.8974
     0.7795   1.8166   2.0645   2.5640   3.9877   4.1608   4.1822   4.5235
     4.5558   4.7162   4.7777   4.8559   5.0799   5.0889   5.1962   5.2664
     5.3438   5.4554   5.6876   5.9071   6.0584   6.2170   6.4429   6.8135
     7.0039   7.5206   7.6117   7.9631   9.5577   9.8920   9.9030   9.9611
     9.9924  10.0237  10.0757  10.1348  10.1824  10.3118

          k = 0.0625 0.1804 0.0000 ( 21194 PWs)   bands (ev):

   -53.4677 -53.4135 -53.3887 -53.3140 -27.6267 -27.5835 -27.5411 -27.5048
   -27.5031 -27.5004 -27.4302 -27.4274 -27.4064 -27.3985 -27.3351 -27.3210
    -7.4811  -6.3877  -6.2767  -6.1162  -5.7634  -5.2931  -5.1938  -4.8492
     0.9663   2.0250   2.2735   2.7359   3.5467   3.8081   3.8600   4.1379
     4.3715   4.5247   4.6025   4.6964   4.7733   4.9590   5.0432   5.1365
     5.2792   5.3366   5.5293   5.5526   6.1395   6.2639   6.5008   6.7866
     6.9164   7.1902   7.2567   7.4055   9.3934   9.5392   9.5737   9.8332
     9.8724   9.9163   9.9482  10.0293  10.1223  10.1544

          k = 0.0625 0.2526 0.0000 ( 21202 PWs)   bands (ev):

   -53.4606 -53.4060 -53.3816 -53.3065 -27.6128 -27.5769 -27.5715 -27.5684
   -27.5277 -27.4853 -27.4734 -27.4708 -27.4479 -27.4460 -27.3525 -27.3396
    -7.1619  -6.0845  -5.9776  -5.8160  -5.5704  -5.1563  -5.0507  -4.7893
     1.1475   2.2206   2.4651   2.7678   3.1144   3.4071   3.5811   3.7771
     3.9557   4.1239   4.1761   4.2824   4.4937   4.7897   4.9411   5.1032
     5.1498   5.2776   5.5623   5.8006   6.0274   6.1687   6.3649   6.5970
     6.6664   6.7738   6.8531   7.0218   9.2215   9.3284   9.3624   9.6992
     9.7818   9.8304   9.9082  10.0362  10.0824  10.2525

          k = 0.0625 0.3248 0.0000 ( 21194 PWs)   bands (ev):

   -53.4528 -53.3979 -53.3739 -53.2984 -27.6541 -27.6447 -27.5978 -27.5520
   -27.5482 -27.5451 -27.5131 -27.4687 -27.4671 -27.4660 -27.3714 -27.3596
    -6.7734  -5.7334  -5.6304  -5.4701  -5.3351  -4.9992  -4.8854  -4.7326
     1.2096   2.1327   2.3971   2.5144   2.8532   3.0324   3.3771   3.5658
     3.6438   3.7179   3.7983   3.8753   4.2293   4.5182   4.6565   4.8382
     5.2872   5.5492   5.7840   5.8187   5.9558   5.9910   6.1130   6.3499
     6.4225   6.5332   6.5907   6.7489   9.1746   9.3045   9.3250   9.6351
     9.7160   9.8133   9.9365  10.0631  10.3137  10.5017

          k = 0.0625 0.3969 0.0000 ( 21151 PWs)   bands (ev):

   -53.4456 -53.3904 -53.3668 -53.2909 -27.7246 -27.7116 -27.6189 -27.6107
   -27.5838 -27.5367 -27.4996 -27.4848 -27.4845 -27.4535 -27.3888 -27.3781
    -6.3517  -5.3864  -5.2827  -5.1543  -5.0538  -4.8478  -4.7338  -4.6836
     1.1027   1.6830   2.1358   2.2803   2.5095   2.6972   3.0877   3.1534
     3.4461   3.5009   3.6411   3.7476   4.0109   4.3030   4.4631   4.6420
     5.3708   5.5635   5.7115   5.7832   5.8908   5.9121   6.0713   6.2580
     6.3928   6.5356   6.6157   6.6695   9.2750   9.4128   9.4425   9.6784
     9.7759   9.8558   9.9283  10.2046  10.6365  10.7684

          k = 0.0625 0.4691 0.0000 ( 21105 PWs)   bands (ev):

   -53.4400 -53.3846 -53.3614 -53.2851 -27.7780 -27.7623 -27.6724 -27.6605
   -27.5731 -27.5250 -27.4985 -27.4983 -27.4893 -27.4418 -27.4021 -27.3922
    -5.9518  -5.1134  -5.0042  -4.9245  -4.7773  -4.7446  -4.6785  -4.5722
     0.8926   1.3164   1.8522   1.9986   2.2188   2.4291   2.7405   2.8026
     3.2069   3.4128   3.5660   3.6419   3.8480   4.1509   4.3423   4.5329
     5.3109   5.4851   5.5205   5.6698   5.9747   6.0406   6.1546   6.2237
     6.5740   6.7056   6.7395   6.8390   9.4430   9.5695   9.6267   9.7237
     9.9315   9.9463  10.0579  10.2990  10.9204  11.0106

          k = 0.0625 0.5413 0.0000 ( 21084 PWs)   bands (ev):

   -53.4370 -53.3815 -53.3584 -53.2820 -27.8067 -27.7897 -27.7012 -27.6872
   -27.5673 -27.5187 -27.5061 -27.5055 -27.4837 -27.4355 -27.4092 -27.3998
    -5.6718  -4.9918  -4.8799  -4.7869  -4.7289  -4.6268  -4.5831  -4.4962
     0.7218   1.1395   1.6724   1.8101   2.0642   2.2779   2.5443   2.6016
     3.0673   3.3360   3.4951   3.5520   3.7629   4.0730   4.2874   4.4879
     5.2263   5.4095   5.4570   5.6135   6.0243   6.1218   6.2278   6.2949
     6.7228   6.8505   6.8981   6.9830   9.5516   9.6585   9.7031   9.7696
    10.0727  10.1370  10.1985  10.3403  11.0161  11.1429

          k = 0.1250 0.2165 0.0000 ( 21179 PWs)   bands (ev):

   -53.4617 -53.4071 -53.3827 -53.3077 -27.6150 -27.5707 -27.5623 -27.5576
   -27.5297 -27.4876 -27.4598 -27.4562 -27.4488 -27.4469 -27.3534 -27.3405
    -7.2130  -6.1320  -6.0245  -5.8631  -5.6008  -5.1774  -5.0728  -4.7971
     1.1348   2.2174   2.4615   2.8343   3.1911   3.4826   3.6136   3.8276
     4.0226   4.2074   4.2707   4.4101   4.5043   4.7576   4.8078   4.9882
     5.0399   5.1875   5.4809   5.7172   6.2524   6.3098   6.5227   6.6800
     6.7342   6.8273   6.9409   7.0346   9.1898   9.3081   9.3548   9.6647
     9.7833   9.8380   9.8448   9.9810  10.0017  10.1588

          k = 0.1250 0.2887 0.0000 ( 21199 PWs)   bands (ev):

   -53.4545 -53.3996 -53.3756 -53.3002 -27.6284 -27.6203 -27.6010 -27.5555
   -27.5224 -27.5212 -27.5163 -27.4723 -27.4719 -27.4710 -27.3760 -27.3646
    -6.8644  -5.8124  -5.7090  -5.5474  -5.3892  -5.0327  -4.9210  -4.7402
     1.2440   2.2970   2.5192   2.6285   2.9900   3.1621   3.3938   3.6505
     3.7275   3.7951   3.8520   4.0374   4.1688   4.4060   4.5585   4.6168
     5.1007   5.3229   5.5710   5.7678   6.1139   6.2408   6.3465   6.4731
     6.5676   6.6177   6.6810   6.7700   9.0621   9.1886   9.2743   9.5854
     9.7613   9.8504   9.9097   9.9421  10.0439  10.2684

          k = 0.1250 0.3608 0.0000 ( 21195 PWs)   bands (ev):

   -53.4473 -53.3921 -53.3685 -53.2927 -27.6932 -27.6818 -27.5875 -27.5871
   -27.5815 -27.5403 -27.5028 -27.4956 -27.4953 -27.4571 -27.3991 -27.3892
    -6.4643  -5.4714  -5.3696  -5.2255  -5.1309  -4.8797  -4.7619  -4.6902
     1.2191   1.9897   2.3159   2.4504   2.6909   2.8158   3.2176   3.3327
     3.3770   3.5622   3.6676   3.8093   3.9627   4.2544   4.3896   4.4756
     5.0441   5.3467   5.5002   5.6589   5.9038   6.0286   6.1076   6.3742
     6.4046   6.5769   6.6768   6.7094   9.0993   9.2316   9.3777   9.6609
     9.8388   9.9265   9.9615  10.0566  10.2943  10.4594

          k = 0.1250 0.4330 0.0000 ( 21113 PWs)   bands (ev):

   -53.4411 -53.3857 -53.3624 -53.2863 -27.7475 -27.7333 -27.6419 -27.6320
   -27.5752 -27.5274 -27.5165 -27.5153 -27.4913 -27.4441 -27.4188 -27.4102
    -6.0554  -5.1689  -5.0629  -4.9712  -4.8343  -4.7556  -4.6788  -4.5934
     1.0779   1.5876   2.0823   2.1967   2.3588   2.4768   2.8163   2.9395
     3.1319   3.4836   3.6171   3.7540   3.8747   4.1806   4.2923   4.3657
     4.9129   5.3783   5.4697   5.6108   5.6913   5.7597   5.8739   6.2003
     6.5493   6.7224   6.7654   6.8540   9.2927   9.4226   9.5873   9.7830
     9.9637  10.0135  10.0696  10.1819  10.5808  10.6924

          k = 0.1250 0.5052 0.0000 ( 21081 PWs)   bands (ev):

   -53.4370 -53.3815 -53.3584 -53.2820 -27.7835 -27.7675 -27.6779 -27.6655
   -27.5673 -27.5304 -27.5287 -27.5187 -27.4837 -27.4355 -27.4319 -27.4242
    -5.7063  -4.9807  -4.8732  -4.7888  -4.7195  -4.6165  -4.5931  -4.4892
     0.9041   1.3330   1.8893   1.9853   2.1200   2.2377   2.5112   2.6325
     2.9873   3.4073   3.5480   3.6527   3.8452   4.0788   4.2393   4.3701
     4.8027   5.4074   5.4766   5.5165   5.5485   5.6489   5.8380   6.0462
     6.7618   6.9149   6.9483   7.0383   9.4976   9.5929   9.6948   9.7351
    10.1098  10.1574  10.2345  10.3673  10.7480  10.8512

          k = 0.1250 0.5774 0.0000 ( 21108 PWs)   bands (ev):

   -53.4356 -53.3800 -53.3570 -53.2805 -27.7961 -27.7795 -27.6906 -27.6772
   -27.5645 -27.5353 -27.5334 -27.5157 -27.4810 -27.4365 -27.4324 -27.4291
    -5.5487  -4.9505  -4.8247  -4.7295  -4.6734  -4.5860  -4.5059  -4.4504
     0.8238   1.2533   1.8153   1.9039   2.0333   2.1533   2.4035   2.5218
     2.9362   3.3565   3.5058   3.6026   3.8594   4.0147   4.2467   4.3874
     4.7531   5.3844   5.4139   5.4866   5.5275   5.6600   5.8755   5.9781
     6.8558   7.0079   7.0586   7.1308   9.5686   9.6162   9.6441   9.7362
    10.2111  10.2823  10.3411  10.4353  10.7397  10.9422

          k = 0.1875 0.3248 0.0000 ( 21195 PWs)   bands (ev):

   -53.4478 -53.3927 -53.3691 -53.2933 -27.6791 -27.6684 -27.5882 -27.5733
   -27.5683 -27.5416 -27.5039 -27.5026 -27.5020 -27.4584 -27.4057 -27.3963
    -6.5029  -5.5012  -5.4000  -5.2515  -5.1560  -4.8908  -4.7731  -4.6901
     1.2670   2.1571   2.3836   2.5387   2.7707   2.9215   3.0868   3.3871
     3.4916   3.5891   3.6857   3.8438   3.8863   4.1664   4.2706   4.5763
     4.8998   5.1540   5.3256   5.4804   5.9725   6.1747   6.2182   6.4082
     6.4591   6.5951   6.7028   6.7173   9.0180   9.1527   9.3608   9.6515
     9.8532   9.9300   9.9697  10.0041  10.1237  10.3383

          k = 0.1875 0.3969 0.0000 ( 21153 PWs)   bands (ev):

   -53.4417 -53.3864 -53.3630 -53.2869 -27.7229 -27.7098 -27.6172 -27.6089
   -27.5764 -27.5345 -27.5325 -27.5287 -27.4925 -27.4454 -27.4357 -27.4283
    -6.1110  -5.2004  -5.0970  -4.9953  -4.8699  -4.7587  -4.6733  -4.6026
     1.2111   1.8525   2.2308   2.3173   2.4869   2.5614   2.8658   2.9687
     3.0867   3.5328   3.6116   3.8642   3.9020   4.1179   4.2168   4.4802
     4.6530   4.9450   5.0228   5.1600   5.7701   5.9323   5.9524   6.3041
     6.5047   6.7044   6.7889   6.8318   9.1562   9.3027   9.5570   9.8840
     9.9802  10.0311  10.0634  10.1233  10.3062  10.4369

          k = 0.1875 0.4691 0.0000 ( 21101 PWs)   bands (ev):

   -53.4370 -53.3815 -53.3584 -53.2820 -27.7547 -27.7399 -27.6490 -27.6384
   -27.5673 -27.5604 -27.5572 -27.5188 -27.4837 -27.4600 -27.4542 -27.4355
    -5.7378  -4.9756  -4.8695  -4.7889  -4.7059  -4.6072  -4.6013  -4.4822
     1.1117   1.5720   2.0206   2.1250   2.2362   2.3508   2.4865   2.6658
     2.9122   3.5321   3.5797   3.7980   3.8440   4.0950   4.1991   4.2741
     4.5392   4.8174   4.9272   5.0472   5.5777   5.6385   5.7092   6.1306
     6.7349   6.8976   6.9479   7.0210   9.3550   9.4775   9.6312   9.7735
    10.1512  10.1879  10.2726  10.3403  10.4678  10.5797

          k = 0.1875 0.5413 0.0000 ( 21112 PWs)   bands (ev):

   -53.4345 -53.3788 -53.3559 -53.2794 -27.7714 -27.7557 -27.6658 -27.6539
   -27.5748 -27.5710 -27.5624 -27.5134 -27.4789 -27.4735 -27.4686 -27.4301
    -5.4688  -4.9142  -4.7781  -4.6887  -4.6233  -4.5486  -4.4512  -4.4108
     1.0192   1.4355   1.8533   2.0468   2.1037   2.2583   2.2732   2.4475
     2.8905   3.4523   3.5382   3.6829   3.7513   3.9975   4.2556   4.3103
     4.4271   4.8090   4.9208   5.0459   5.4054   5.4361   5.6367   5.9883
     6.9342   7.0822   7.1368   7.2008   9.3971   9.4783   9.5398   9.6152
    10.3117  10.3825  10.4575  10.5236  10.5629  10.6557

          k = 0.2500 0.4330 0.0000 ( 21125 PWs)   bands (ev):

   -53.4370 -53.3815 -53.3584 -53.2820 -27.7397 -27.7255 -27.6341 -27.6242
   -27.5758 -27.5720 -27.5673 -27.5188 -27.4837 -27.4745 -27.4696 -27.4355
    -5.7501  -4.9747  -4.8691  -4.7885  -4.6992  -4.6080  -4.5998  -4.4792
     1.2100   1.6735   2.0196   2.1992   2.3525   2.4488   2.4742   2.6780
     2.8569   3.4794   3.6430   3.8971   3.9477   4.1023   4.1555   4.3523
     4.4710   4.4892   4.6434   4.6824   5.5497   5.6766   5.7121   6.1935
     6.7142   6.8820   6.9453   7.0065   9.2939   9.4240   9.5971   9.7789
    10.1643  10.1977  10.2739  10.2939  10.3349  10.5102

          k = 0.2500 0.5052 0.0000 ( 21117 PWs)   bands (ev):

   -53.4339 -53.3782 -53.3553 -53.2788 -27.7449 -27.7301 -27.6393 -27.6286
   -27.6094 -27.6043 -27.5612 -27.5122 -27.5063 -27.5033 -27.4778 -27.4289
    -5.4336  -4.8883  -4.7510  -4.6672  -4.5959  -4.5259  -4.4235  -4.3876
     1.2045   1.4944   1.8128   2.1511   2.1988   2.3645   2.3917   2.5095
     2.8347   3.3363   3.6059   3.6850   3.8247   4.0295   4.1661   4.2260
     4.3121   4.3727   4.5097   4.6182   5.3713   5.4131   5.4707   6.0459
     6.9806   7.1162   7.1652   7.2332   9.2493   9.3540   9.4403   9.5097
    10.2824  10.3129  10.3319  10.4316  10.5051  10.6842

          k = 0.2500 0.5774 0.0000 ( 21116 PWs)   bands (ev):

   -53.4328 -53.3771 -53.3542 -53.2776 -27.7449 -27.7299 -27.6393 -27.6284
   -27.6230 -27.6174 -27.5591 -27.5193 -27.5169 -27.5098 -27.4758 -27.4266
    -5.2750  -4.9285  -4.7093  -4.6167  -4.5365  -4.4982  -4.3609  -4.3491
     1.1824   1.4420   1.7597   2.0697   2.1279   2.2908   2.4174   2.5594
     2.9493   3.1614   3.4818   3.5454   3.6813   4.0218   4.1636   4.2881
     4.3444   4.3481   4.5010   4.5993   5.2716   5.2888   5.4085   5.9670
     7.1141   7.2403   7.3049   7.3532   9.1428   9.2289   9.3025   9.4407
    10.2857  10.3185  10.3278  10.5266  10.6647  10.7889

          k = 0.3125 0.5413 0.0000 ( 21100 PWs)   bands (ev):

   -53.4322 -53.3765 -53.3537 -53.2770 -27.7240 -27.7088 -27.6516 -27.6458
   -27.6184 -27.6072 -27.5580 -27.5476 -27.5455 -27.5086 -27.4747 -27.4253
    -5.1856  -4.9577  -4.6833  -4.5892  -4.5055  -4.4792  -4.3368  -4.3191
     1.2807   1.3658   1.7627   2.0170   2.2327   2.3121   2.6173   2.7554
     2.7851   3.1011   3.4073   3.4905   3.6334   3.8606   3.9670   4.0660
     4.3054   4.4345   4.5102   4.5614   5.1848   5.2215   5.2842   5.9603
     7.2067   7.3171   7.3844   7.4251   9.0063   9.0917   9.1940   9.3462
    10.2023  10.2467  10.3140  10.4280  10.7629  10.8787

     the Fermi energy is     8.9722 ev

!    total energy              =   -1978.31631808 Ry
     total all-electron energy =    -38771.637163 Ry
     estimated scf accuracy    <          5.7E-09 Ry
     smearing contrib. (-TS)   =       0.00292809 Ry
     internal energy E=F+TS    =   -1978.31924618 Ry

     The total energy is F=E-TS. E is the sum of the following terms:
     one-electron contribution =   -2872.64239862 Ry
     hartree contribution      =    1478.63060735 Ry
     xc contribution           =    -119.49319582 Ry
     ewald contribution        =     805.05069183 Ry
     one-center paw contrib.   =   -1269.86495091 Ry

     convergence has been achieved in  85 iterations

     negative rho (up, down):  4.587E-06 0.000E+00

     Forces acting on atoms (cartesian axes, Ry/au):

     atom    1 type  2   force =     0.00000000    0.00000000    0.00884511
     atom    2 type  1   force =     0.00000000    0.00000000    0.00852912
     atom    3 type  2   force =     0.00000000   -0.00000000   -0.01790635
     atom    4 type  2   force =     0.00000000    0.00000000   -0.03469800
     atom    5 type  1   force =     0.00000000   -0.00000000   -0.01968370
     atom    6 type  2   force =     0.00000000    0.00000000   -0.02173186
     atom    7 type  2   force =     0.00000000   -0.00000000    0.02035486
     atom    8 type  1   force =     0.00000000    0.00000000    0.02155133
     atom    9 type  2   force =     0.00000000    0.00000000    0.03478702
     atom   10 type  2   force =     0.00000000    0.00000000    0.03441368
     atom   11 type  1   force =     0.00000000    0.00000000   -0.00174682
     atom   12 type  2   force =     0.00000000   -0.00000000   -0.03271440

     Total force =     0.082957     Total SCF correction =     0.000335
     Energy error            =      8.6E-02 Ry
     Gradient error          =      3.5E-02 Ry/Bohr

     number of scf cycles    =  13
     number of bfgs steps    =  12

     energy             old  =   -1978.2299291142 Ry
     energy             new  =   -1978.3163180840 Ry

     CASE: energy            _new < energy            _old

     new trust radius        =       0.7782769593 bohr
     new conv_thr            =       0.0000000100 Ry


ATOMIC_POSITIONS (crystal)
S                0.3333330000        0.6666670000       -0.0919918080
Mo               0.0000000000        0.0000000000       -0.0403917131
S                0.3333330000        0.6666670000        0.0110595030
S                0.6666670000        0.3333330000        0.1175084383
Mo               0.3333330000        0.6666670000        0.1698190905
S                0.6666670000        0.3333330000        0.2215497777
S               -0.0000000000       -0.0000000000        0.2964884651
Mo               0.6666670000        0.3333330000        0.3482631564
S               -0.0000000000       -0.0000000000        0.4004993117
S                0.3333330000        0.6666670000        0.5089424666
Mo               0.0000000000        0.0000000000        0.5605206354
S                0.3333330000        0.6666670000        0.6127326764



     Writing config-only to output data dir ./tmp/relax/mos2_slab.save/ :
     XML data file
     NEW-OLD atomic charge density approx. for the potential

     negative rho (up, down):  3.736E-07 0.000E+00
     Minimization algorithm failed to find Fermi energy: reverting to bisection
     Possible cause: smearing is larger than the electronic band-gap.

     total cpu time spent up to now is    45529.3 secs

     Self-consistent Calculation

     iteration #  1     ecut=    80.00 Ry     beta= 0.30
     Davidson diagonalization with overlap
     c_bands:  2 eigenvalues not converged
     c_bands:  3 eigenvalues not converged
     c_bands:  2 eigenvalues not converged
     c_bands:  1 eigenvalues not converged
     c_bands:  1 eigenvalues not converged
     c_bands:  2 eigenvalues not converged
     c_bands:  1 eigenvalues not converged
     c_bands:  2 eigenvalues not converged
     c_bands:  1 eigenvalues not converged
     c_bands:  1 eigenvalues not converged
     ethr =  1.00E-06,  avg # of iterations = 18.0

     total cpu time spent up to now is    46169.2 secs

     total energy              =   -1978.41316874 Ry
     estimated scf accuracy    <       0.16336084 Ry

     iteration #  2     ecut=    80.00 Ry     beta= 0.30
     Davidson diagonalization with overlap
     ethr =  1.57E-04,  avg # of iterations =  1.0
     Minimization algorithm failed to find Fermi energy: reverting to bisection
     Possible cause: smearing is larger than the electronic band-gap.

     total cpu time spent up to now is    46269.4 secs

     total energy              =   -1978.34095582 Ry
     estimated scf accuracy    <       0.08371665 Ry

     iteration #  3     ecut=    80.00 Ry     beta= 0.30
     Davidson diagonalization with overlap
     ethr =  8.05E-05,  avg # of iterations =  2.1
     Minimization algorithm failed to find Fermi energy: reverting to bisection
     Possible cause: smearing is larger than the electronic band-gap.

     negative rho (up, down):  4.453E-08 0.000E+00

     total cpu time spent up to now is    46390.1 secs

     total energy              =   -1978.34734314 Ry
     estimated scf accuracy    <       0.01589303 Ry

     iteration #  4     ecut=    80.00 Ry     beta= 0.30
     Davidson diagonalization with overlap
     ethr =  1.53E-05,  avg # of iterations =  2.4
     Minimization algorithm failed to find Fermi energy: reverting to bisection
     Possible cause: smearing is larger than the electronic band-gap.

     negative rho (up, down):  2.043E-07 0.000E+00

     total cpu time spent up to now is    46505.4 secs

     total energy              =   -1978.34842057 Ry
     estimated scf accuracy    <       0.00275182 Ry

     iteration #  5     ecut=    80.00 Ry     beta= 0.30
     Davidson diagonalization with overlap
     c_bands:  1 eigenvalues not converged
     ethr =  2.65E-06,  avg # of iterations = 11.6
     Minimization algorithm failed to find Fermi energy: reverting to bisection
     Possible cause: smearing is larger than the electronic band-gap.

     negative rho (up, down):  3.145E-07 0.000E+00

     total cpu time spent up to now is    46644.3 secs

     total energy              =   -1978.34851424 Ry
     estimated scf accuracy    <       0.00090458 Ry

     iteration #  6     ecut=    80.00 Ry     beta= 0.30
     Davidson diagonalization with overlap
     ethr =  8.70E-07,  avg # of iterations =  2.5
     Minimization algorithm failed to find Fermi energy: reverting to bisection
     Possible cause: smearing is larger than the electronic band-gap.

     negative rho (up, down):  6.558E-06 0.000E+00

     total cpu time spent up to now is    46758.8 secs

     total energy              =   -1978.34846858 Ry
     estimated scf accuracy    <       0.00050433 Ry

     iteration #  7     ecut=    80.00 Ry     beta= 0.30
     Davidson diagonalization with overlap
     ethr =  4.85E-07,  avg # of iterations =  2.0
     Minimization algorithm failed to find Fermi energy: reverting to bisection
     Possible cause: smearing is larger than the electronic band-gap.

     negative rho (up, down):  6.965E-06 0.000E+00

     total cpu time spent up to now is    46884.6 secs

     total energy              =   -1978.34852237 Ry
     estimated scf accuracy    <       0.00019782 Ry

     iteration #  8     ecut=    80.00 Ry     beta= 0.30
     Davidson diagonalization with overlap
     ethr =  1.90E-07,  avg # of iterations =  2.1
     Minimization algorithm failed to find Fermi energy: reverting to bisection
     Possible cause: smearing is larger than the electronic band-gap.

     negative rho (up, down):  8.615E-06 0.000E+00

     total cpu time spent up to now is    46996.0 secs

     total energy              =   -1978.34850722 Ry
     estimated scf accuracy    <       0.00018243 Ry

     iteration #  9     ecut=    80.00 Ry     beta= 0.30
     Davidson diagonalization with overlap
     ethr =  1.75E-07,  avg # of iterations =  2.0
     Minimization algorithm failed to find Fermi energy: reverting to bisection
     Possible cause: smearing is larger than the electronic band-gap.

     negative rho (up, down):  5.284E-06 0.000E+00

     total cpu time spent up to now is    47107.8 secs

     total energy              =   -1978.34850681 Ry
     estimated scf accuracy    <       0.00013304 Ry

     iteration # 10     ecut=    80.00 Ry     beta= 0.30
     Davidson diagonalization with overlap
     ethr =  1.28E-07,  avg # of iterations =  2.0
     Minimization algorithm failed to find Fermi energy: reverting to bisection
     Possible cause: smearing is larger than the electronic band-gap.

     negative rho (up, down):  1.139E-07 0.000E+00

     total cpu time spent up to now is    47226.2 secs

     total energy              =   -1978.34850213 Ry
     estimated scf accuracy    <       0.00008949 Ry

     iteration # 11     ecut=    80.00 Ry     beta= 0.30
     Davidson diagonalization with overlap
     ethr =  8.60E-08,  avg # of iterations =  2.0
     Minimization algorithm failed to find Fermi energy: reverting to bisection
     Possible cause: smearing is larger than the electronic band-gap.

     negative rho (up, down):  2.454E-08 0.000E+00

     total cpu time spent up to now is    47343.1 secs

     total energy              =   -1978.34850395 Ry
     estimated scf accuracy    <       0.00003090 Ry

     iteration # 12     ecut=    80.00 Ry     beta= 0.30
     Davidson diagonalization with overlap
     ethr =  2.97E-08,  avg # of iterations =  3.0
     Minimization algorithm failed to find Fermi energy: reverting to bisection
     Possible cause: smearing is larger than the electronic band-gap.

     negative rho (up, down):  3.263E-08 0.000E+00

     total cpu time spent up to now is    47450.3 secs

     total energy              =   -1978.34850016 Ry
     estimated scf accuracy    <       0.00001606 Ry

     iteration # 13     ecut=    80.00 Ry     beta= 0.30
     Davidson diagonalization with overlap
     ethr =  1.54E-08,  avg # of iterations =  2.0
     Minimization algorithm failed to find Fermi energy: reverting to bisection
     Possible cause: smearing is larger than the electronic band-gap.

     negative rho (up, down):  1.968E-08 0.000E+00

     total cpu time spent up to now is    47568.9 secs

     total energy              =   -1978.34849931 Ry
     estimated scf accuracy    <       0.00001140 Ry

     iteration # 14     ecut=    80.00 Ry     beta= 0.30
     Davidson diagonalization with overlap
     ethr =  1.10E-08,  avg # of iterations =  1.6
     Minimization algorithm failed to find Fermi energy: reverting to bisection
     Possible cause: smearing is larger than the electronic band-gap.

     negative rho (up, down):  7.221E-08 0.000E+00

     total cpu time spent up to now is    47675.9 secs

     total energy              =   -1978.34850016 Ry
     estimated scf accuracy    <       0.00000683 Ry

     iteration # 15     ecut=    80.00 Ry     beta= 0.30
     Davidson diagonalization with overlap
     ethr =  6.56E-09,  avg # of iterations =  2.0
     Minimization algorithm failed to find Fermi energy: reverting to bisection
     Possible cause: smearing is larger than the electronic band-gap.

     negative rho (up, down):  1.355E-07 0.000E+00

     total cpu time spent up to now is    47788.6 secs

     total energy              =   -1978.34850055 Ry
     estimated scf accuracy    <       0.00000353 Ry

     iteration # 16     ecut=    80.00 Ry     beta= 0.30
     Davidson diagonalization with overlap
     ethr =  3.40E-09,  avg # of iterations =  1.7
     Minimization algorithm failed to find Fermi energy: reverting to bisection
     Possible cause: smearing is larger than the electronic band-gap.

     negative rho (up, down):  4.999E-07 0.000E+00

     total cpu time spent up to now is    47894.0 secs

     total energy              =   -1978.34850042 Ry
     estimated scf accuracy    <       0.00000178 Ry

     iteration # 17     ecut=    80.00 Ry     beta= 0.30
     Davidson diagonalization with overlap
     ethr =  1.72E-09,  avg # of iterations =  2.7
     Minimization algorithm failed to find Fermi energy: reverting to bisection
     Possible cause: smearing is larger than the electronic band-gap.

     negative rho (up, down):  1.006E-06 0.000E+00

     total cpu time spent up to now is    48017.6 secs

     total energy              =   -1978.34850024 Ry
     estimated scf accuracy    <       0.00000079 Ry

     iteration # 18     ecut=    80.00 Ry     beta= 0.30
     Davidson diagonalization with overlap
     ethr =  7.57E-10,  avg # of iterations =  1.8
     Minimization algorithm failed to find Fermi energy: reverting to bisection
     Possible cause: smearing is larger than the electronic band-gap.

     negative rho (up, down):  1.177E-06 0.000E+00

     total cpu time spent up to now is    48127.0 secs

     total energy              =   -1978.34849986 Ry
     estimated scf accuracy    <       0.00000029 Ry

     iteration # 19     ecut=    80.00 Ry     beta= 0.30
     Davidson diagonalization with overlap
     ethr =  2.78E-10,  avg # of iterations =  3.6
     Minimization algorithm failed to find Fermi energy: reverting to bisection
     Possible cause: smearing is larger than the electronic band-gap.

     negative rho (up, down):  1.114E-06 0.000E+00

     total cpu time spent up to now is    48254.7 secs

     total energy              =   -1978.34849990 Ry
     estimated scf accuracy    <       0.00000019 Ry

     iteration # 20     ecut=    80.00 Ry     beta= 0.30
     Davidson diagonalization with overlap
     ethr =  1.87E-10,  avg # of iterations =  2.1
     Minimization algorithm failed to find Fermi energy: reverting to bisection
     Possible cause: smearing is larger than the electronic band-gap.

     negative rho (up, down):  1.062E-06 0.000E+00

     total cpu time spent up to now is    48376.3 secs

     total energy              =   -1978.34849996 Ry
     estimated scf accuracy    <       0.00000010 Ry

     iteration # 21     ecut=    80.00 Ry     beta= 0.30
     Davidson diagonalization with overlap
     ethr =  9.79E-11,  avg # of iterations =  1.1
     Minimization algorithm failed to find Fermi energy: reverting to bisection
     Possible cause: smearing is larger than the electronic band-gap.

     negative rho (up, down):  1.022E-06 0.000E+00

     total cpu time spent up to now is    48477.6 secs

     total energy              =   -1978.34849998 Ry
     estimated scf accuracy    <       0.00000007 Ry

     iteration # 22     ecut=    80.00 Ry     beta= 0.30
     Davidson diagonalization with overlap
     ethr =  6.85E-11,  avg # of iterations =  2.0
     Minimization algorithm failed to find Fermi energy: reverting to bisection
     Possible cause: smearing is larger than the electronic band-gap.

     negative rho (up, down):  9.422E-07 0.000E+00

     total cpu time spent up to now is    48588.7 secs

     total energy              =   -1978.34850004 Ry
     estimated scf accuracy    <       0.00000004 Ry

     iteration # 23     ecut=    80.00 Ry     beta= 0.30
     Davidson diagonalization with overlap
     ethr =  4.13E-11,  avg # of iterations =  2.1
     Minimization algorithm failed to find Fermi energy: reverting to bisection
     Possible cause: smearing is larger than the electronic band-gap.

     negative rho (up, down):  8.842E-07 0.000E+00

     total cpu time spent up to now is    48702.5 secs

     total energy              =   -1978.34850007 Ry
     estimated scf accuracy    <       0.00000003 Ry

     iteration # 24     ecut=    80.00 Ry     beta= 0.30
     Davidson diagonalization with overlap
     ethr =  2.96E-11,  avg # of iterations =  1.3
     Minimization algorithm failed to find Fermi energy: reverting to bisection
     Possible cause: smearing is larger than the electronic band-gap.

     negative rho (up, down):  6.109E-07 0.000E+00

     total cpu time spent up to now is    48806.0 secs

     total energy              =   -1978.34850020 Ry
     estimated scf accuracy    <       0.00000003 Ry

     iteration # 25     ecut=    80.00 Ry     beta= 0.30
     Davidson diagonalization with overlap
     ethr =  2.60E-11,  avg # of iterations =  2.8
     Minimization algorithm failed to find Fermi energy: reverting to bisection
     Possible cause: smearing is larger than the electronic band-gap.

     negative rho (up, down):  6.428E-07 0.000E+00

     total cpu time spent up to now is    48922.4 secs

     End of self-consistent calculation

          k = 0.0000 0.0000 0.0000 ( 21311 PWs)   bands (ev):

   -53.4885 -53.4433 -53.4277 -53.3194 -27.6650 -27.6231 -27.6061 -27.5024
   -27.4349 -27.4349 -27.3955 -27.3955 -27.3768 -27.3768 -27.2652 -27.2652
    -7.3508  -6.8367  -6.8267  -6.5632  -5.8446  -5.4865  -5.4345  -5.0407
     0.9136   1.5622   1.6689   2.3346   4.6194   4.6610   4.6610   4.6830
     4.6830   4.6988   4.6988   4.8279   4.8279   5.3395   5.7110   5.8143
     5.8144   5.8186   5.8186   5.8281   5.8282   5.9678   5.9678   6.5926
     7.0333   7.5968   7.7464   8.7448   9.8758   9.8758  10.1492  10.1492
    10.1975  10.1976  10.2068  10.2069  10.3947  10.3948

          k = 0.0000 0.0722 0.0000 ( 21283 PWs)   bands (ev):

   -53.4869 -53.4417 -53.4262 -53.3178 -27.6619 -27.6199 -27.6030 -27.4993
   -27.4507 -27.4385 -27.4114 -27.3991 -27.3925 -27.3803 -27.2809 -27.2687
    -7.2918  -6.7770  -6.7669  -6.5047  -5.8107  -5.4620  -5.4108  -5.0222
     0.9774   1.6289   1.7347   2.3963   4.4785   4.5299   4.5494   4.5582
     4.6942   4.7243   4.7455   4.7561   4.8904   5.0922   5.3095   5.6265
     5.7137   5.7217   5.7317   5.8757   5.9652   6.0173   6.1543   6.6863
     7.0330   7.5574   7.6889   8.4270   9.8912  10.0068  10.0622  10.1172
    10.1386  10.2515  10.2611  10.2816  10.3001  10.3096

          k = 0.0000 0.1443 0.0000 ( 21263 PWs)   bands (ev):

   -53.4824 -53.4372 -53.4217 -53.3133 -27.6531 -27.6110 -27.5941 -27.4953
   -27.4904 -27.4564 -27.4486 -27.4372 -27.4093 -27.3905 -27.3255 -27.2789
    -7.1193  -6.6029  -6.5928  -6.3349  -5.7113  -5.3909  -5.3417  -4.9689
     1.1527   1.8123   1.9142   2.5605   4.1471   4.1860   4.2012   4.2131
     4.3516   4.6686   4.8179   4.9068   4.9091   4.9271   5.0693   5.1964
     5.4648   5.4726   5.4845   5.6354   6.0463   6.1608   6.3452   6.7600
     6.9974   7.3888   7.4806   7.8097   9.8003   9.8217   9.8925   9.9104
     9.9712  10.0461  10.0919  10.1494  10.1652  10.2182

          k = 0.0000 0.2165 0.0000 ( 21233 PWs)   bands (ev):

   -53.4757 -53.4304 -53.4150 -53.3066 -27.6398 -27.5976 -27.5809 -27.5614
   -27.5231 -27.5034 -27.4772 -27.4638 -27.4245 -27.4056 -27.3917 -27.2940
    -6.8460  -6.3303  -6.3201  -6.0709  -5.5545  -5.2798  -5.2339  -4.8883
     1.3843   2.0493   2.1396   2.7378   3.6762   3.7545   3.7975   3.8358
     3.9433   4.2139   4.3224   4.6901   4.9851   5.1323   5.1435   5.1896
     5.2273   5.2737   5.3146   5.3966   5.9609   6.1360   6.3156   6.6630
     6.8424   7.0337   7.1022   7.2313   9.4697   9.5805   9.6127   9.7577
     9.9039   9.9278   9.9918  10.0261  10.1597  10.1904

          k = 0.0000 0.2887 0.0000 ( 21197 PWs)   bands (ev):

   -53.4678 -53.4225 -53.4071 -53.2987 -27.6386 -27.6242 -27.6008 -27.5818
   -27.5807 -27.5652 -27.4815 -27.4691 -27.4614 -27.4424 -27.4234 -27.3118
    -6.4938  -5.9860  -5.9758  -5.7419  -5.3546  -5.1407  -5.0990  -4.7934
     1.5634   2.1887   2.2519   2.6761   3.2199   3.3637   3.5094   3.5326
     3.6105   3.7628   3.8888   4.2079   4.7140   4.8168   4.8233   4.9898
     5.5187   5.5312   5.5491   5.7128   5.7329   5.9674   6.1109   6.4294
     6.5345   6.6194   6.6877   6.8373   9.3234   9.4593   9.4883   9.6961
     9.7282   9.7859   9.9686   9.9955  10.2394  10.4587

          k = 0.0000 0.3608 0.0000 ( 21187 PWs)   bands (ev):

   -53.4599 -53.4145 -53.3991 -53.2907 -27.7149 -27.6777 -27.6570 -27.6085
   -27.5660 -27.5495 -27.5453 -27.4993 -27.4603 -27.4458 -27.4411 -27.3295
    -6.0957  -5.6098  -5.5998  -5.3906  -5.1341  -4.9912  -4.9537  -4.7032
     1.5669   2.0630   2.1007   2.2689   2.8419   3.0469   3.2083   3.2998
     3.4102   3.4864   3.6358   3.9057   4.4284   4.5285   4.5364   4.7072
     5.4937   5.7564   5.7891   5.8604   5.8691   5.8812   6.0677   6.1738
     6.3173   6.3957   6.4336   6.6083   9.4094   9.4178   9.5938   9.6030
     9.6524   9.7732   9.8275  10.1217  10.5721  10.7771

          k = 0.0000 0.4330 0.0000 ( 21140 PWs)   bands (ev):

   -53.4531 -53.4077 -53.3924 -53.2840 -27.7788 -27.7422 -27.7210 -27.6093
   -27.5952 -27.5525 -27.5361 -27.5142 -27.4753 -27.4561 -27.4325 -27.3445
    -5.6995  -5.2572  -5.2471  -5.0746  -4.9274  -4.8545  -4.8203  -4.6395
     1.3971   1.7688   1.8157   1.8522   2.5106   2.7555   2.8301   2.9230
     3.3165   3.4133   3.4428   3.7526   4.2056   4.3078   4.3163   4.4897
     5.3212   5.5784   5.6654   5.9899   6.0142   6.1510   6.1581   6.3331
     6.3727   6.4324   6.4513   6.6296   9.4701   9.5702   9.6101   9.6573
     9.7642   9.8074   9.9267  10.2342  10.8815  11.0508

          k = 0.0000 0.5052 0.0000 ( 21078 PWs)   bands (ev):

   -53.4486 -53.4032 -53.3879 -53.2795 -27.8212 -27.7849 -27.7635 -27.6517
   -27.5863 -27.5434 -27.5272 -27.5242 -27.4854 -27.4661 -27.4235 -27.3545
    -5.3765  -4.9983  -4.9877  -4.8592  -4.7852  -4.7558  -4.7273  -4.6078
     1.1841   1.5017   1.5771   1.5990   2.2813   2.5337   2.5648   2.6612
     3.1819   3.3028   3.3062   3.6226   4.0661   4.1700   4.1788   4.3537
     5.2218   5.4701   5.5546   5.9264   6.1037   6.3270   6.3356   6.5187
     6.5731   6.6060   6.6377   6.7796   9.5738   9.5988   9.6295   9.7655
     9.9308  10.0393  10.0883  10.3165  11.0745  11.2056

          k = 0.0000-0.5774 0.0000 ( 21006 PWs)   bands (ev):

   -53.4470 -53.4016 -53.3863 -53.2779 -27.8360 -27.7998 -27.7783 -27.6665
   -27.5831 -27.5403 -27.5277 -27.5240 -27.4889 -27.4696 -27.4204 -27.3580
    -5.2391  -4.9017  -4.8906  -4.7888  -4.7419  -4.7185  -4.7013  -4.5902
     1.0882   1.4057   1.4858   1.5093   2.1992   2.4516   2.4702   2.5683
     3.1221   3.2473   3.2529   3.5667   4.0187   4.1233   4.1322   4.3075
     5.1897   5.4352   5.5191   5.8958   6.1390   6.3851   6.3956   6.6418
     6.6444   6.7134   6.7305   6.8360   9.6140   9.6292   9.6476   9.7790
    10.0767  10.1437  10.1800  10.3286  11.1438  11.2417

          k = 0.0625 0.1083 0.0000 ( 21269 PWs)   bands (ev):

   -53.4839 -53.4386 -53.4231 -53.3148 -27.6559 -27.6139 -27.5970 -27.4933
   -27.4804 -27.4458 -27.4413 -27.4223 -27.4065 -27.3876 -27.3106 -27.2760
    -7.1761  -6.6600  -6.6499  -6.3905  -5.7440  -5.4142  -5.3643  -4.9862
     1.0973   1.7546   1.8579   2.5103   4.2574   4.2990   4.3071   4.3169
     4.4508   4.7988   4.8457   4.8634   4.8689   4.9640   5.0071   5.3519
     5.5059   5.5097   5.5179   5.6606   6.0856   6.1669   6.3411   6.7668
     7.0159   7.4556   7.5565   7.9817   9.7770   9.9129   9.9436   9.9905
    10.0081  10.0574  10.1470  10.1960  10.2481  10.2703

          k = 0.0625 0.1804 0.0000 ( 21194 PWs)   bands (ev):

   -53.4783 -53.4330 -53.4175 -53.3092 -27.6449 -27.6028 -27.5860 -27.5345
   -27.4959 -27.4823 -27.4765 -27.4597 -27.4204 -27.4015 -27.3648 -27.2899
    -6.9530  -6.4365  -6.4263  -6.1735  -5.6157  -5.3229  -5.2757  -4.9190
     1.3039   1.9701   2.0662   2.6920   3.8764   3.9157   3.9421   3.9794
     4.0762   4.4174   4.5419   4.9171   4.9836   5.0679   5.0716   5.1495
     5.1672   5.1873   5.2578   5.3331   6.1491   6.2638   6.4372   6.7627
     6.9236   7.1990   7.2595   7.4034   9.5235   9.6173   9.6930   9.8057
     9.8672   9.9749  10.0047  10.0289  10.0547  10.1478

          k = 0.0625 0.2526 0.0000 ( 21202 PWs)   bands (ev):

   -53.4710 -53.4257 -53.4102 -53.3019 -27.6305 -27.6045 -27.5882 -27.5715
   -27.5665 -27.5465 -27.4778 -27.4678 -27.4387 -27.4349 -27.4197 -27.3080
    -6.6398  -6.1275  -6.1172  -5.8763  -5.4367  -5.1972  -5.1537  -4.8305
     1.5175   2.1748   2.2516   2.7824   3.4206   3.5302   3.6076   3.6405
     3.7457   3.9917   4.0906   4.3989   4.7380   4.7813   4.7829   4.9545
     5.3483   5.3597   5.3737   5.5228   6.0414   6.1940   6.3353   6.5984
     6.6883   6.7863   6.8615   6.9547   9.2761   9.4392   9.4916   9.7010
     9.7918   9.8411   9.9203   9.9882  10.0507  10.2102

          k = 0.0625 0.3248 0.0000 ( 21194 PWs)   bands (ev):

   -53.4630 -53.4177 -53.4023 -53.2939 -27.6794 -27.6420 -27.6215 -27.6148
   -27.5723 -27.5558 -27.5098 -27.4973 -27.4583 -27.4521 -27.4392 -27.3276
    -6.2633  -5.7657  -5.7555  -5.5346  -5.2249  -5.0515  -5.0122  -4.7364
     1.6133   2.1826   2.2282   2.5156   3.0398   3.1952   3.4017   3.4602
     3.4808   3.5572   3.7477   3.9645   4.4425   4.4930   4.5003   4.6881
     5.5472   5.6157   5.6247   5.7347   5.8503   5.9998   6.1000   6.3641
     6.4361   6.4881   6.5392   6.6848   9.2187   9.4021   9.4424   9.6244
     9.7193   9.8066   9.8933  10.0347  10.3041  10.4965

          k = 0.0625 0.3969 0.0000 ( 21151 PWs)   bands (ev):

   -53.4557 -53.4103 -53.3949 -53.2866 -27.7479 -27.7110 -27.6900 -27.6003
   -27.5783 -27.5576 -27.5412 -27.5153 -27.4764 -27.4572 -27.4376 -27.3456
    -5.8630  -5.3982  -5.3882  -5.1982  -5.0079  -4.9062  -4.8706  -4.6578
     1.5225   1.9575   1.9911   2.0780   2.6790   2.8869   2.9973   3.0716
     3.3971   3.4744   3.5273   3.7924   4.2274   4.2978   4.3036   4.4824
     5.5223   5.6822   5.7561   5.7880   5.7996   5.8320   5.9654   6.1880
     6.4441   6.4853   6.4945   6.6428   9.3265   9.4729   9.5199   9.6501
     9.7669   9.8562   9.9028  10.1593  10.6380  10.8200

          k = 0.0625 0.4691 0.0000 ( 21105 PWs)   bands (ev):

   -53.4501 -53.4046 -53.3893 -53.2810 -27.7998 -27.7633 -27.7420 -27.6302
   -27.5892 -27.5464 -27.5301 -27.5291 -27.4903 -27.4710 -27.4265 -27.3593
    -5.4963  -5.0879  -5.0775  -4.9297  -4.8284  -4.7860  -4.7532  -4.6120
     1.3234   1.6652   1.7281   1.7520   2.3825   2.6019   2.6457   2.7253
     3.2528   3.3702   3.3828   3.6799   4.0947   4.1798   4.1834   4.3370
     5.3454   5.5709   5.6330   5.7600   5.9157   5.9375   5.9926   6.1854
     6.6170   6.6574   6.6728   6.8075   9.5072   9.5838   9.6170   9.7198
     9.9072   9.9837  10.0256  10.2694  10.9251  11.0791

          k = 0.0625 0.5413 0.0000 ( 21084 PWs)   bands (ev):

   -53.4470 -53.4016 -53.3863 -53.2779 -27.8277 -27.7914 -27.7699 -27.6582
   -27.5832 -27.5403 -27.5365 -27.5240 -27.4977 -27.4784 -27.4204 -27.3668
    -5.2512  -4.9061  -4.8950  -4.7883  -4.7382  -4.7152  -4.6946  -4.5852
     1.1616   1.4821   1.5656   1.5890   2.2162   2.4331   2.4512   2.5370
     3.1347   3.2704   3.2867   3.5881   4.0330   4.1264   4.1291   4.2640
     5.2416   5.4686   5.5399   5.7882   5.9012   6.0411   6.0614   6.2947
     6.7709   6.8225   6.8315   6.9663   9.6199   9.6431   9.6593   9.7571
    10.0722  10.1463  10.1745  10.3436  11.0608  11.2332

          k = 0.1250 0.2165 0.0000 ( 21179 PWs)   bands (ev):

   -53.4721 -53.4268 -53.4113 -53.3030 -27.6327 -27.5904 -27.5903 -27.5737
   -27.5522 -27.5323 -27.4787 -27.4700 -27.4395 -27.4207 -27.4205 -27.3089
    -6.6897  -6.1761  -6.1659  -5.9228  -5.4647  -5.2165  -5.1724  -4.8433
     1.4996   2.1671   2.2488   2.8181   3.5215   3.6072   3.6517   3.7096
     3.7898   4.1451   4.2435   4.4976   4.6328   4.6477   4.6825   4.8771
     5.2711   5.2762   5.2898   5.4358   6.2440   6.3518   6.4855   6.6957
     6.7527   6.8625   6.9427   6.9843   9.2424   9.4100   9.4766   9.6960
     9.7391   9.8355   9.9047   9.9405   9.9597  10.0978

          k = 0.1250 0.2887 0.0000 ( 21199 PWs)   bands (ev):

   -53.4648 -53.4194 -53.4040 -53.2957 -27.6544 -27.6182 -27.6168 -27.5965
   -27.5758 -27.5592 -27.5022 -27.4848 -27.4632 -27.4555 -27.4441 -27.3325
    -6.3508  -5.8479  -5.8377  -5.6112  -5.2720  -5.0826  -5.0423  -4.7537
     1.6426   2.2621   2.3154   2.7090   3.2205   3.3198   3.4829   3.5198
     3.6026   3.7377   3.8395   3.9880   4.2319   4.2737   4.3357   4.6697
     5.3375   5.4098   5.4148   5.5440   6.1504   6.2866   6.3541   6.5129
     6.5370   6.5760   6.6365   6.7251   9.0870   9.2865   9.3680   9.5832
     9.7448   9.8516   9.9028   9.9158  10.0425  10.2201

          k = 0.1250 0.3608 0.0000 ( 21195 PWs)   bands (ev):

   -53.4574 -53.4120 -53.3967 -53.2883 -27.7174 -27.6803 -27.6595 -27.6037
   -27.5611 -27.5478 -27.5446 -27.5261 -27.4873 -27.4680 -27.4410 -27.3564
    -5.9684  -5.4909  -5.4807  -5.2806  -5.0595  -4.9379  -4.9012  -4.6680
     1.6391   2.1427   2.1730   2.3528   2.8846   3.0097   3.1689   3.2016
     3.4854   3.5187   3.5759   3.7517   4.0140   4.1405   4.2074   4.5299
     5.2615   5.3835   5.3956   5.5107   5.9151   6.0737   6.1056   6.3308
     6.4877   6.5000   6.5273   6.6996   9.1133   9.3224   9.4349   9.6562
     9.8251   9.9019   9.9587  10.0351  10.2981  10.4595

          k = 0.1250 0.4330 0.0000 ( 21113 PWs)   bands (ev):

   -53.4512 -53.4058 -53.3904 -53.2821 -27.7701 -27.7334 -27.7123 -27.6006
   -27.5914 -27.5486 -27.5465 -27.5323 -27.5078 -27.4884 -27.4287 -27.3768
    -5.5886  -5.1586  -5.1482  -4.9863  -4.8614  -4.8046  -4.7700  -4.6067
     1.5080   1.9179   1.9518   1.9971   2.5149   2.6615   2.7143   2.7558
     3.3185   3.4724   3.5087   3.7165   3.9626   4.0984   4.1501   4.3856
     5.1491   5.3559   5.3746   5.4994   5.6991   5.8131   5.8442   6.0949
     6.6274   6.6530   6.6591   6.8295   9.3052   9.4944   9.6133   9.8056
     9.9407   9.9826  10.0442  10.1595  10.5922  10.7864

          k = 0.1250 0.5052 0.0000 ( 21081 PWs)   bands (ev):

   -53.4470 -53.4016 -53.3863 -53.2779 -27.8051 -27.7686 -27.7473 -27.6356
   -27.5832 -27.5601 -27.5403 -27.5240 -27.5215 -27.5021 -27.4204 -27.3904
    -5.2785  -4.9166  -4.9054  -4.7891  -4.7298  -4.7073  -4.6793  -4.5715
     1.3499   1.6943   1.7770   1.8008   2.2554   2.3912   2.4074   2.4670
     3.1606   3.3589   3.3894   3.6444   3.9881   4.1115   4.1402   4.2637
     5.0571   5.3992   5.4268   5.4501   5.5437   5.6227   5.7802   5.9145
     6.8171   6.8550   6.8655   7.0267   9.5201   9.6067   9.6617   9.7764
    10.1022  10.1663  10.1937  10.3630  10.7493  10.9626

          k = 0.1250 0.5774 0.0000 ( 21108 PWs)   bands (ev):

   -53.4456 -53.4001 -53.3848 -53.2765 -27.8173 -27.7810 -27.7595 -27.6478
   -27.5803 -27.5649 -27.5374 -27.5263 -27.5211 -27.5069 -27.4175 -27.3952
    -5.1449  -4.8270  -4.8153  -4.7294  -4.6913  -4.6703  -4.6559  -4.5474
     1.2776   1.6100   1.7120   1.7376   2.1636   2.2918   2.2996   2.3676
     3.0999   3.2952   3.3247   3.5990   4.0307   4.1312   4.1362   4.2111
     5.0073   5.4008   5.4381   5.4620   5.4806   5.5444   5.8063   5.8468
     6.9098   6.9551   6.9680   7.1341   9.5892   9.6190   9.6374   9.7113
    10.2145  10.2834  10.3296  10.4434  10.7687  11.0894

          k = 0.1875 0.3248 0.0000 ( 21195 PWs)   bands (ev):

   -53.4580 -53.4126 -53.3973 -53.2889 -27.7037 -27.6665 -27.6458 -27.6049
   -27.5623 -27.5459 -27.5341 -27.5329 -27.4942 -27.4749 -27.4422 -27.3632
    -6.0047  -5.5231  -5.5129  -5.3094  -5.0772  -4.9486  -4.9114  -4.6712
     1.6874   2.2227   2.2535   2.4902   3.0143   3.0936   3.2568   3.2717
     3.4186   3.5516   3.5873   3.7312   3.8916   4.0526   4.1527   4.5923
     5.0878   5.2104   5.2220   5.3312   6.0358   6.2097   6.2350   6.4184
     6.4843   6.5107   6.5345   6.7241   9.0296   9.2528   9.3938   9.6524
     9.8334   9.9163   9.9682   9.9769  10.1414  10.3107

          k = 0.1875 0.3969 0.0000 ( 21153 PWs)   bands (ev):

   -53.4518 -53.4064 -53.3910 -53.2827 -27.7461 -27.7092 -27.6883 -27.5926
   -27.5765 -27.5641 -27.5499 -27.5335 -27.5255 -27.5060 -27.4299 -27.3944
    -5.6386  -5.1973  -5.1869  -5.0176  -4.8791  -4.8132  -4.7778  -4.6015
     1.6413   2.1073   2.1271   2.2325   2.6150   2.7282   2.7617   2.7770
     3.2736   3.5961   3.6203   3.7299   3.8756   4.0340   4.1336   4.5296
     4.7739   4.9074   4.9284   5.0800   5.7947   5.9412   6.0169   6.1958
     6.5899   6.6187   6.6315   6.8396   9.1641   9.4033   9.5780   9.9106
     9.9722   9.9832  10.0181  10.1035  10.3307  10.4740

          k = 0.1875 0.4691 0.0000 ( 21101 PWs)   bands (ev):

   -53.4470 -53.4016 -53.3863 -53.2779 -27.7770 -27.7403 -27.7191 -27.6074
   -27.5893 -27.5832 -27.5509 -27.5403 -27.5313 -27.5241 -27.4205 -27.4196
    -5.3036  -4.9270  -4.9157  -4.7914  -4.7225  -4.6992  -4.6654  -4.5556
     1.5569   1.9673   2.0232   2.0451   2.2778   2.3557   2.3643   2.4324
     3.1868   3.5388   3.5586   3.6860   3.9223   4.0878   4.1601   4.3218
     4.6005   4.7581   4.7858   5.0211   5.5725   5.6609   5.7371   5.9696
     6.7984   6.8287   6.8343   7.0177   9.3695   9.5227   9.6186   9.8035
    10.1379  10.1947  10.2236  10.3572  10.5281  10.6151

          k = 0.1875 0.5413 0.0000 ( 21112 PWs)   bands (ev):

   -53.4445 -53.3990 -53.3837 -53.2753 -27.7932 -27.7567 -27.7354 -27.6236
   -27.6033 -27.5781 -27.5650 -27.5453 -27.5352 -27.5189 -27.4337 -27.4153
    -5.0754  -4.7714  -4.7590  -4.6857  -4.6508  -4.6313  -4.6165  -4.5102
     1.4855   1.8333   1.9728   2.0039   2.1056   2.1461   2.1531   2.2598
     3.1089   3.3865   3.4173   3.6443   3.9871   4.1422   4.1745   4.2420
     4.5050   4.7436   4.7794   5.0222   5.4164   5.5129   5.5591   5.7962
     6.9867   7.0232   7.0313   7.2101   9.4386   9.4728   9.4959   9.6081
    10.3042  10.4194  10.4794  10.5633  10.6341  10.7016

          k = 0.2500 0.4330 0.0000 ( 21125 PWs)   bands (ev):

   -53.4470 -53.4016 -53.3863 -53.2779 -27.7623 -27.7256 -27.7045 -27.6043
   -27.5928 -27.5832 -27.5660 -27.5463 -27.5403 -27.5241 -27.4347 -27.4205
    -5.3135  -4.9313  -4.9199  -4.7926  -4.7197  -4.6958  -4.6601  -4.5486
     1.6513   2.0993   2.1359   2.1461   2.2862   2.3399   2.3464   2.4671
     3.1947   3.6140   3.7071   3.7489   3.9286   4.0780   4.1465   4.3610
     4.4026   4.4395   4.5336   4.6443   5.5628   5.6872   5.7826   6.0212
     6.7803   6.8114   6.8149   7.0101   9.3056   9.4810   9.5920   9.7991
    10.1507  10.2001  10.2355  10.3445  10.3992  10.5063

          k = 0.2500 0.5052 0.0000 ( 21117 PWs)   bands (ev):

   -53.4438 -53.3984 -53.3831 -53.2747 -27.7672 -27.7306 -27.7094 -27.6372
   -27.5991 -27.5976 -27.5792 -27.5769 -27.5340 -27.5178 -27.4675 -27.4142
    -5.0440  -4.7433  -4.7305  -4.6601  -4.6269  -4.6085  -4.5914  -4.4879
     1.6592   1.9056   2.0389   2.0441   2.1086   2.2459   2.2577   2.3813
     3.1372   3.5301   3.5659   3.6087   3.8312   4.0751   4.1263   4.1613
     4.2102   4.2926   4.4717   4.6027   5.3666   5.4197   5.5156   5.8264
     7.0259   7.0568   7.0662   7.2376   9.2998   9.3468   9.3768   9.5114
    10.2733  10.3760  10.4555  10.4659  10.5963  10.6329

          k = 0.2500 0.5774 0.0000 ( 21116 PWs)   bands (ev):

   -53.4427 -53.3973 -53.3820 -53.2736 -27.7671 -27.7305 -27.7093 -27.6505
   -27.6125 -27.5975 -27.5926 -27.5747 -27.5317 -27.5155 -27.4809 -27.4119
    -4.9183  -4.6756  -4.6631  -4.6592  -4.5913  -4.5765  -4.5617  -4.4506
     1.6386   1.8281   1.9391   1.9411   2.1080   2.2956   2.3283   2.3638
     3.1462   3.3954   3.4230   3.4768   3.6611   4.0685   4.1016   4.2000
     4.2888   4.3412   4.4903   4.5559   5.2850   5.3171   5.3904   5.7246
     7.1564   7.1911   7.1963   7.3709   9.2134   9.2308   9.2553   9.3580
    10.2725  10.4265  10.4684  10.5187  10.7789  10.7900

          k = 0.3125 0.5413 0.0000 ( 21100 PWs)   bands (ev):

   -53.4421 -53.3966 -53.3814 -53.2730 -27.7461 -27.7095 -27.6882 -27.6790
   -27.6410 -27.6211 -27.5765 -27.5735 -27.5305 -27.5143 -27.5094 -27.4107
    -4.8515  -4.6686  -4.6423  -4.6275  -4.5689  -4.5562  -4.5386  -4.4269
     1.6867   1.7603   1.8656   1.8685   2.1817   2.5340   2.5615   2.6027
     3.0193   3.2529   3.3458   3.3647   3.6502   3.8093   3.8405   4.0063
     4.3473   4.4215   4.4589   4.5779   5.1845   5.2113   5.3103   5.7016
     7.2400   7.2736   7.2800   7.4457   9.0903   9.1032   9.1339   9.2392
    10.2612  10.3267  10.3766  10.4330  10.8865  10.9184

     the Fermi energy is     8.9873 ev

!    total energy              =   -1978.34850017 Ry
     total all-electron energy =    -38771.669345 Ry
     estimated scf accuracy    <          8.3E-09 Ry
     smearing contrib. (-TS)   =       0.00267423 Ry
     internal energy E=F+TS    =   -1978.35117440 Ry

     The total energy is F=E-TS. E is the sum of the following terms:
     one-electron contribution =   -2336.57496986 Ry
     hartree contribution      =    1210.57891807 Ry
     xc contribution           =    -119.45853565 Ry
     ewald contribution        =     536.97011759 Ry
     one-center paw contrib.   =   -1269.86670455 Ry

     convergence has been achieved in  25 iterations

     negative rho (up, down):  6.428E-07 0.000E+00

     Forces acting on atoms (cartesian axes, Ry/au):

     atom    1 type  2   force =     0.00000000    0.00000000   -0.01756976
     atom    2 type  1   force =     0.00000000    0.00000000   -0.00294737
     atom    3 type  2   force =     0.00000000    0.00000000    0.02253810
     atom    4 type  2   force =     0.00000000    0.00000000   -0.00665274
     atom    5 type  1   force =     0.00000000    0.00000000   -0.01474683
     atom    6 type  2   force =     0.00000000   -0.00000000   -0.02221756
     atom    7 type  2   force =     0.00000000    0.00000000    0.01748080
     atom    8 type  1   force =     0.00000000    0.00000000    0.01972802
     atom    9 type  2   force =     0.00000000    0.00000000    0.00688529
     atom   10 type  2   force =     0.00000000    0.00000000   -0.01940973
     atom   11 type  1   force =     0.00000000   -0.00000000    0.01226492
     atom   12 type  2   force =     0.00000000    0.00000000    0.00464685

     Total force =     0.053588     Total SCF correction =     0.000347
     Energy error            =      3.2E-02 Ry
     Gradient error          =      2.3E-02 Ry/Bohr

     number of scf cycles    =  14
     number of bfgs steps    =  13

     energy             old  =   -1978.3163180840 Ry
     energy             new  =   -1978.3485001660 Ry

     CASE: energy            _new < energy            _old

     new trust radius        =       0.3242591171 bohr
     new conv_thr            =       0.0000000100 Ry


ATOMIC_POSITIONS (crystal)
S                0.3333330000        0.6666670000       -0.0975957161
Mo               0.0000000000        0.0000000000       -0.0459594235
S                0.3333330000        0.6666670000        0.0055854966
S                0.6666670000        0.3333330000        0.1148639326
Mo               0.3333330000        0.6666670000        0.1677028276
S                0.6666670000        0.3333330000        0.2197825198
S               -0.0000000000       -0.0000000000        0.2982370238
Mo               0.6666670000        0.3333330000        0.3504154004
S               -0.0000000000       -0.0000000000        0.4031213312
S                0.3333330000        0.6666670000        0.5146518785
Mo               0.0000000000        0.0000000000        0.5662403200
S                0.3333330000        0.6666670000        0.6179544092



     Writing config-only to output data dir ./tmp/relax/mos2_slab.save/ :
     XML data file
     NEW-OLD atomic charge density approx. for the potential

     negative rho (up, down):  2.200E-08 0.000E+00
     Minimization algorithm failed to find Fermi energy: reverting to bisection
     Possible cause: smearing is larger than the electronic band-gap.

     total cpu time spent up to now is    48977.7 secs

     Self-consistent Calculation

     iteration #  1     ecut=    80.00 Ry     beta= 0.30
     Davidson diagonalization with overlap
     c_bands:  3 eigenvalues not converged
     c_bands:  2 eigenvalues not converged
     c_bands:  1 eigenvalues not converged
     ethr =  1.00E-06,  avg # of iterations = 13.8
     Minimization algorithm failed to find Fermi energy: reverting to bisection
     Possible cause: smearing is larger than the electronic band-gap.

     total cpu time spent up to now is    49484.7 secs

     total energy              =   -1978.36433523 Ry
     estimated scf accuracy    <       0.03919724 Ry

     iteration #  2     ecut=    80.00 Ry     beta= 0.30
     Davidson diagonalization with overlap
     ethr =  3.77E-05,  avg # of iterations =  1.0
     Minimization algorithm failed to find Fermi energy: reverting to bisection
     Possible cause: smearing is larger than the electronic band-gap.

     total cpu time spent up to now is    49585.1 secs

     total energy              =   -1978.35289281 Ry
     estimated scf accuracy    <       0.02199969 Ry

     iteration #  3     ecut=    80.00 Ry     beta= 0.30
     Davidson diagonalization with overlap
     ethr =  2.12E-05,  avg # of iterations =  2.2

     total cpu time spent up to now is    49706.3 secs

     total energy              =   -1978.36136693 Ry
     estimated scf accuracy    <       0.00241328 Ry

     iteration #  4     ecut=    80.00 Ry     beta= 0.30
     Davidson diagonalization with overlap
     ethr =  2.32E-06,  avg # of iterations =  4.8

     total cpu time spent up to now is    49823.3 secs

     total energy              =   -1978.36128153 Ry
     estimated scf accuracy    <       0.00107358 Ry

     iteration #  5     ecut=    80.00 Ry     beta= 0.30
     Davidson diagonalization with overlap
     ethr =  1.03E-06,  avg # of iterations =  2.8

     total cpu time spent up to now is    49945.1 secs

     total energy              =   -1978.36163294 Ry
     estimated scf accuracy    <       0.00041510 Ry

     iteration #  6     ecut=    80.00 Ry     beta= 0.30
     Davidson diagonalization with overlap
     ethr =  3.99E-07,  avg # of iterations =  1.8

     total cpu time spent up to now is    50052.5 secs

     total energy              =   -1978.36147455 Ry
     estimated scf accuracy    <       0.00030584 Ry

     iteration #  7     ecut=    80.00 Ry     beta= 0.30
     Davidson diagonalization with overlap
     ethr =  2.94E-07,  avg # of iterations =  1.3

     total cpu time spent up to now is    50155.6 secs

     total energy              =   -1978.36148636 Ry
     estimated scf accuracy    <       0.00025273 Ry

     iteration #  8     ecut=    80.00 Ry     beta= 0.30
     Davidson diagonalization with overlap
     ethr =  2.43E-07,  avg # of iterations =  1.0

     total cpu time spent up to now is    50256.0 secs

     total energy              =   -1978.36150286 Ry
     estimated scf accuracy    <       0.00026502 Ry

     iteration #  9     ecut=    80.00 Ry     beta= 0.30
     Davidson diagonalization with overlap
     ethr =  2.43E-07,  avg # of iterations =  1.4

     total cpu time spent up to now is    50359.8 secs

     total energy              =   -1978.36140167 Ry
     estimated scf accuracy    <       0.00018034 Ry

     iteration # 10     ecut=    80.00 Ry     beta= 0.30
     Davidson diagonalization with overlap
     ethr =  1.73E-07,  avg # of iterations =  2.0

     total cpu time spent up to now is    50469.8 secs

     total energy              =   -1978.36129559 Ry
     estimated scf accuracy    <       0.00014218 Ry

     iteration # 11     ecut=    80.00 Ry     beta= 0.30
     Davidson diagonalization with overlap
     ethr =  1.37E-07,  avg # of iterations =  4.3

     total cpu time spent up to now is    50582.3 secs

     total energy              =   -1978.36116532 Ry
     estimated scf accuracy    <       0.00014206 Ry

     iteration # 12     ecut=    80.00 Ry     beta= 0.30
     Davidson diagonalization with overlap
     ethr =  1.37E-07,  avg # of iterations =  7.7

     total cpu time spent up to now is    50700.6 secs

     total energy              =   -1978.36096596 Ry
     estimated scf accuracy    <       0.00011749 Ry

     iteration # 13     ecut=    80.00 Ry     beta= 0.30
     Davidson diagonalization with overlap
     c_bands:  2 eigenvalues not converged
     ethr =  1.13E-07,  avg # of iterations =  4.1

     total cpu time spent up to now is    50818.1 secs

     total energy              =   -1978.36084657 Ry
     estimated scf accuracy    <       0.00001827 Ry

     iteration # 14     ecut=    80.00 Ry     beta= 0.30
     Davidson diagonalization with overlap
     ethr =  1.76E-08,  avg # of iterations =  5.4

     total cpu time spent up to now is    50953.9 secs

     total energy              =   -1978.36082004 Ry
     estimated scf accuracy    <       0.00001849 Ry

     iteration # 15     ecut=    80.00 Ry     beta= 0.30
     Davidson diagonalization with overlap
     ethr =  1.76E-08,  avg # of iterations =  3.0

     total cpu time spent up to now is    51073.9 secs

     total energy              =   -1978.36078141 Ry
     estimated scf accuracy    <       0.00001169 Ry

     iteration # 16     ecut=    80.00 Ry     beta= 0.30
     Davidson diagonalization with overlap
     ethr =  1.12E-08,  avg # of iterations =  1.4

     total cpu time spent up to now is    51177.7 secs

     total energy              =   -1978.36078138 Ry
     estimated scf accuracy    <       0.00000648 Ry

     iteration # 17     ecut=    80.00 Ry     beta= 0.30
     Davidson diagonalization with overlap
     ethr =  6.23E-09,  avg # of iterations =  2.7

     total cpu time spent up to now is    51292.5 secs

     total energy              =   -1978.36078838 Ry
     estimated scf accuracy    <       0.00000554 Ry

     iteration # 18     ecut=    80.00 Ry     beta= 0.30
     Davidson diagonalization with overlap
     ethr =  5.33E-09,  avg # of iterations =  2.2

     total cpu time spent up to now is    51404.6 secs

     total energy              =   -1978.36077892 Ry
     estimated scf accuracy    <       0.00000473 Ry

     iteration # 19     ecut=    80.00 Ry     beta= 0.30
     Davidson diagonalization with overlap
     ethr =  4.54E-09,  avg # of iterations =  1.0

     total cpu time spent up to now is    51505.2 secs

     total energy              =   -1978.36078966 Ry
     estimated scf accuracy    <       0.00000416 Ry

     iteration # 20     ecut=    80.00 Ry     beta= 0.30
     Davidson diagonalization with overlap
     ethr =  4.00E-09,  avg # of iterations =  1.0

     total cpu time spent up to now is    51606.0 secs

     total energy              =   -1978.36079164 Ry
     estimated scf accuracy    <       0.00000352 Ry

     iteration # 21     ecut=    80.00 Ry     beta= 0.30
     Davidson diagonalization with overlap
     ethr =  3.39E-09,  avg # of iterations =  1.1

     total cpu time spent up to now is    51707.4 secs

     total energy              =   -1978.36078908 Ry
     estimated scf accuracy    <       0.00000330 Ry

     iteration # 22     ecut=    80.00 Ry     beta= 0.30
     Davidson diagonalization with overlap
     ethr =  3.17E-09,  avg # of iterations =  1.0

     total cpu time spent up to now is    51808.2 secs

     total energy              =   -1978.36079395 Ry
     estimated scf accuracy    <       0.00000309 Ry

     iteration # 23     ecut=    80.00 Ry     beta= 0.30
     Davidson diagonalization with overlap
     ethr =  2.97E-09,  avg # of iterations =  2.0

     total cpu time spent up to now is    51919.9 secs

     total energy              =   -1978.36083857 Ry
     estimated scf accuracy    <       0.00000245 Ry

     iteration # 24     ecut=    80.00 Ry     beta= 0.30
     Davidson diagonalization with overlap
     ethr =  2.35E-09,  avg # of iterations =  1.4

     total cpu time spent up to now is    52024.0 secs

     total energy              =   -1978.36085656 Ry
     estimated scf accuracy    <       0.00000186 Ry

     iteration # 25     ecut=    80.00 Ry     beta= 0.30
     Davidson diagonalization with overlap
     ethr =  1.79E-09,  avg # of iterations =  1.2

     total cpu time spent up to now is    52126.6 secs

     total energy              =   -1978.36087233 Ry
     estimated scf accuracy    <       0.00000151 Ry

     iteration # 26     ecut=    80.00 Ry     beta= 0.30
     Davidson diagonalization with overlap
     ethr =  1.45E-09,  avg # of iterations =  1.3

     total cpu time spent up to now is    52230.2 secs

     total energy              =   -1978.36092326 Ry
     estimated scf accuracy    <       0.00000108 Ry

     iteration # 27     ecut=    80.00 Ry     beta= 0.30
     Davidson diagonalization with overlap
     ethr =  1.04E-09,  avg # of iterations =  1.6

     total cpu time spent up to now is    52337.1 secs

     total energy              =   -1978.36097504 Ry
     estimated scf accuracy    <       0.00000060 Ry

     iteration # 28     ecut=    80.00 Ry     beta= 0.30
     Davidson diagonalization with overlap
     ethr =  5.77E-10,  avg # of iterations =  2.5

     total cpu time spent up to now is    52461.1 secs

     total energy              =   -1978.36100385 Ry
     estimated scf accuracy    <       0.00000013 Ry

     iteration # 29     ecut=    80.00 Ry     beta= 0.30
     Davidson diagonalization with overlap
     ethr =  1.22E-10,  avg # of iterations =  2.8

     total cpu time spent up to now is    52579.1 secs

     total energy              =   -1978.36102452 Ry
     estimated scf accuracy    <       0.00000004 Ry

     iteration # 30     ecut=    80.00 Ry     beta= 0.30
     Davidson diagonalization with overlap
     ethr =  4.00E-11,  avg # of iterations =  3.0

     total cpu time spent up to now is    52705.9 secs

     total energy              =   -1978.36102003 Ry
     estimated scf accuracy    <       0.00000002 Ry

     iteration # 31     ecut=    80.00 Ry     beta= 0.30
     Davidson diagonalization with overlap
     ethr =  2.01E-11,  avg # of iterations =  2.0

     total cpu time spent up to now is    52816.8 secs

     total energy              =   -1978.36102222 Ry
     estimated scf accuracy    <       0.00000001 Ry

     iteration # 32     ecut=    80.00 Ry     beta= 0.30
     Davidson diagonalization with overlap
     ethr =  1.35E-11,  avg # of iterations =  2.6

     negative rho (up, down):  5.029E-08 0.000E+00

     total cpu time spent up to now is    52937.4 secs

     End of self-consistent calculation

          k = 0.0000 0.0000 0.0000 ( 21311 PWs)   bands (ev):

   -53.5442 -53.5312 -53.3745 -53.3362 -27.7182 -27.7125 -27.5525 -27.5180
   -27.4849 -27.4849 -27.4802 -27.4802 -27.3128 -27.3128 -27.2863 -27.2863
    -7.2549  -6.8965  -6.7194  -6.5995  -5.8545  -5.5236  -5.3451  -5.1562
     0.9582   1.5499   1.7296   2.2547   4.5814   4.5981   4.5981   4.6858
     4.6858   4.7806   4.7806   4.8619   4.8620   5.3416   5.7027   5.7481
     5.7481   5.7945   5.7945   5.9331   5.9331   5.9836   5.9837   6.4952
     6.9860   7.5015   7.7141   8.4909   9.8787   9.8787  10.0986  10.0986
    10.1262  10.1263  10.2884  10.2884  10.3405  10.3405

          k = 0.0000 0.0722 0.0000 ( 21283 PWs)   bands (ev):

   -53.5427 -53.5297 -53.3729 -53.3347 -27.7152 -27.7094 -27.5494 -27.5149
   -27.5005 -27.4960 -27.4884 -27.4838 -27.3283 -27.3163 -27.3022 -27.2899
    -7.1960  -6.8367  -6.6595  -6.5412  -5.8213  -5.4997  -5.3213  -5.1359
     1.0232   1.6166   1.7960   2.3185   4.4483   4.4673   4.5470   4.6489
     4.6613   4.7252   4.7449   4.8439   4.9228   5.0865   5.3204   5.6151
     5.6513   5.6962   5.8363   5.8896   5.9132   6.0490   6.1606   6.6197
     6.9907   7.4621   7.6659   8.2509   9.8952   9.9322  10.0285  10.0411
    10.1528  10.2029  10.2193  10.2273  10.2323  10.3255

          k = 0.0000 0.1443 0.0000 ( 21263 PWs)   bands (ev):

   -53.5382 -53.5252 -53.3685 -53.3302 -27.7065 -27.7005 -27.5446 -27.5408
   -27.5407 -27.5060 -27.4985 -27.4940 -27.3725 -27.3471 -27.3264 -27.3001
    -7.0239  -6.6626  -6.4853  -6.3716  -5.7240  -5.4302  -5.2520  -5.0776
     1.2028   1.7999   1.9777   2.4896   4.1198   4.1472   4.1876   4.3124
     4.3725   4.6503   4.8438   4.8456   4.9084   5.0265   5.0946   5.1636
     5.4007   5.4517   5.5855   5.6474   5.9933   6.1700   6.3416   6.7147
     6.9628   7.2993   7.4835   7.7162   9.7436   9.7868   9.8515   9.8778
     9.9730   9.9960  10.0724  10.1271  10.1777  10.2217

          k = 0.0000 0.2165 0.0000 ( 21233 PWs)   bands (ev):

   -53.5316 -53.5184 -53.3618 -53.3234 -27.6935 -27.6872 -27.6102 -27.6074
   -27.5277 -27.5135 -27.5091 -27.4926 -27.4380 -27.4137 -27.3414 -27.3153
    -6.7517  -6.3899  -6.2125  -6.1077  -5.5702  -5.3216  -5.1439  -4.9882
     1.4426   2.0345   2.2082   2.6825   3.6835   3.7249   3.7889   3.9101
     3.9527   4.1793   4.3647   4.6424   5.0121   5.0743   5.1257   5.2395
     5.2596   5.3016   5.3086   5.4325   5.9007   6.1355   6.3133   6.6200
     6.8024   6.9640   7.1207   7.1796   9.3851   9.5738   9.5898   9.7228
     9.8800   9.9036  10.0005  10.0320  10.0895  10.1137

          k = 0.0000 0.2887 0.0000 ( 21197 PWs)   bands (ev):

   -53.5237 -53.5105 -53.3539 -53.3155 -27.6867 -27.6849 -27.6780 -27.6714
   -27.5312 -27.5270 -27.5149 -27.5119 -27.4914 -27.4769 -27.3590 -27.3332
    -6.4023  -6.0457  -5.8681  -5.7783  -5.3733  -5.1855  -5.0090  -4.8801
     1.6323   2.1638   2.3298   2.6581   3.2376   3.3783   3.4577   3.5665
     3.6585   3.7361   3.9144   4.1398   4.7289   4.7500   4.9318   4.9867
     5.4602   5.5190   5.6439   5.6654   5.7278   5.9627   6.1157   6.3857
     6.4772   6.5665   6.7337   6.7758   9.2358   9.4296   9.4865   9.6674
     9.6995   9.8433   9.9110   9.9456  10.1863  10.3819

          k = 0.0000 0.3608 0.0000 ( 21187 PWs)   bands (ev):

   -53.5158 -53.5025 -53.3461 -53.3075 -27.7623 -27.7616 -27.6625 -27.6556
   -27.5901 -27.5681 -27.5487 -27.5448 -27.4968 -27.4610 -27.3766 -27.3510
    -6.0101  -5.6700  -5.4922  -5.4264  -5.1542  -5.0390  -4.8656  -4.7711
     1.6386   2.0256   2.1796   2.2979   2.8415   3.0775   3.1866   3.3465
     3.3967   3.4993   3.6232   3.8426   4.4421   4.4628   4.6435   4.7048
     5.4159   5.7447   5.7865   5.8117   5.8751   5.9835   6.0651   6.1361
     6.2480   6.3250   6.5088   6.5398   9.3311   9.3697   9.5683   9.5924
     9.7184   9.7567   9.7759  10.0534  10.5071  10.7335

          k = 0.0000 0.4330 0.0000 ( 21140 PWs)   bands (ev):

   -53.5091 -53.4958 -53.3394 -53.3007 -27.8259 -27.8257 -27.6535 -27.6494
   -27.6422 -27.6325 -27.5636 -27.5598 -27.4837 -27.4476 -27.3915 -27.3660
    -5.6248  -5.3182  -5.1415  -5.1102  -4.9474  -4.9016  -4.7393  -4.6792
     1.4601   1.7477   1.8359   1.9446   2.4932   2.7685   2.8216   3.0031
     3.2553   3.3585   3.5115   3.7081   4.2202   4.2423   4.4227   4.4871
     5.2337   5.5584   5.6989   5.9411   6.0048   6.0863   6.2645   6.2663
     6.3525   6.3654   6.5205   6.5893   9.4160   9.5284   9.5727   9.6824
     9.7284   9.7990   9.9305  10.1713  10.8088  11.0262

          k = 0.0000 0.5052 0.0000 ( 21078 PWs)   bands (ev):

   -53.5047 -53.4912 -53.3349 -53.2962 -27.8685 -27.8677 -27.6955 -27.6752
   -27.6406 -27.6332 -27.5735 -27.5698 -27.4749 -27.4386 -27.4014 -27.3761
    -5.3177  -5.0599  -4.9054  -4.8743  -4.8224  -4.7857  -4.6571  -4.6099
     1.2412   1.5159   1.5527   1.7073   2.2526   2.5181   2.5775   2.7391
     3.1183   3.2352   3.4019   3.5829   4.0814   4.1047   4.2849   4.3510
     5.1299   5.4473   5.6027   5.8245   6.1258   6.2640   6.4423   6.4501
     6.5391   6.5568   6.6854   6.7674   9.5051   9.5496   9.7109   9.7439
     9.8470  10.0027  10.1292  10.2730  10.9966  11.1868

          k = 0.0000-0.5774 0.0000 ( 21006 PWs)   bands (ev):

   -53.5031 -53.4897 -53.3333 -53.2946 -27.8834 -27.8824 -27.7102 -27.6901
   -27.6375 -27.6301 -27.5770 -27.5733 -27.4718 -27.4354 -27.4048 -27.3796
    -5.1904  -4.9635  -4.8299  -4.7879  -4.7776  -4.7520  -4.6219  -4.5800
     1.1446   1.4277   1.4526   1.6185   2.1662   2.4266   2.4896   2.6455
     3.0610   3.1807   3.3495   3.5284   4.0343   4.0579   4.2382   4.3048
     5.0971   5.4118   5.5724   5.7851   6.1633   6.3235   6.5018   6.5700
     6.6025   6.6595   6.7628   6.8564   9.5472   9.5685   9.7356   9.7608
     9.9924  10.0855  10.2483  10.2946  11.0620  11.2260

          k = 0.0625 0.1083 0.0000 ( 21269 PWs)   bands (ev):

   -53.5397 -53.5266 -53.3699 -53.3316 -27.7093 -27.7034 -27.5436 -27.5299
   -27.5259 -27.5089 -27.4957 -27.4911 -27.3578 -27.3321 -27.3235 -27.2973
    -7.0805  -6.7197  -6.5425  -6.4272  -5.7560  -5.4530  -5.2747  -5.0966
     1.1459   1.7423   1.9206   2.4370   4.2271   4.2464   4.3004   4.4167
     4.4783   4.7818   4.7857   4.8582   4.9650   4.9882   5.0363   5.3235
     5.4384   5.4843   5.6241   5.6746   6.0299   6.1843   6.3384   6.7209
     6.9816   7.3619   7.5515   7.8728   9.7535   9.8328   9.9052   9.9623
    10.0024  10.0990  10.1087  10.1758  10.1841  10.2202

          k = 0.0625 0.1804 0.0000 ( 21194 PWs)   bands (ev):

   -53.5341 -53.5210 -53.3644 -53.3260 -27.6984 -27.6923 -27.5835 -27.5803
   -27.5327 -27.5094 -27.5050 -27.4978 -27.4114 -27.3866 -27.3373 -27.3112
    -6.8582  -6.4961  -6.3188  -6.2102  -5.6303  -5.3637  -5.1858  -5.0225
     1.3588   1.9568   2.1325   2.6290   3.8595   3.8842   3.9476   4.0557
     4.0923   4.3898   4.5787   4.8852   4.9947   5.0039   5.0782   5.1600
     5.1867   5.2417   5.2639   5.3589   6.0867   6.2707   6.4293   6.7272
     6.8970   7.1113   7.2782   7.3477   9.4533   9.5819   9.7025   9.7620
     9.8821   9.9184   9.9554   9.9891  10.0672  10.1228

          k = 0.0625 0.2526 0.0000 ( 21202 PWs)   bands (ev):

   -53.5269 -53.5137 -53.3571 -53.3187 -27.6842 -27.6778 -27.6529 -27.6507
   -27.5274 -27.5232 -27.5185 -27.4832 -27.4807 -27.4571 -27.3553 -27.3294
    -6.5469  -6.1871  -6.0096  -5.9129  -5.4543  -5.2407  -5.0636  -4.9231
     1.5826   2.1556   2.3254   2.7435   3.4366   3.5211   3.5810   3.6983
     3.7696   3.9501   4.1369   4.3570   4.7025   4.7361   4.8917   4.9454
     5.2844   5.3455   5.4679   5.5439   5.9759   6.1924   6.3330   6.5591
     6.6574   6.7297   6.8653   6.9332   9.1930   9.4173   9.4930   9.6654
     9.7710   9.8272   9.8736   9.9751  10.0453  10.1270

          k = 0.0625 0.3248 0.0000 ( 21194 PWs)   bands (ev):

   -53.5190 -53.5057 -53.3492 -53.3107 -27.7271 -27.7260 -27.6687 -27.6620
   -27.5550 -27.5468 -27.5428 -27.5325 -27.5030 -27.4674 -27.3747 -27.3491
    -6.1747  -5.8256  -5.6479  -5.5707  -5.2447  -5.0982  -4.9230  -4.8132
     1.6865   2.1485   2.3112   2.5208   3.0510   3.2195   3.3871   3.4127
     3.5480   3.5930   3.7349   3.9124   4.4052   4.4487   4.6019   4.6773
     5.5328   5.5549   5.6967   5.7334   5.8174   5.9904   6.1113   6.3275
     6.3785   6.4302   6.6024   6.6321   9.1348   9.3740   9.4484   9.6079
     9.6990   9.7797   9.8645  10.0020  10.2545  10.4303

          k = 0.0625 0.3969 0.0000 ( 21151 PWs)   bands (ev):

   -53.5117 -53.4984 -53.3419 -53.3033 -27.7950 -27.7948 -27.6544 -27.6474
   -27.6228 -27.6013 -27.5647 -27.5609 -27.4887 -27.4527 -27.3925 -27.3671
    -5.7829  -5.4588  -5.2811  -5.2342  -5.0275  -4.9547  -4.7855  -4.7116
     1.5914   1.9199   2.0525   2.1357   2.6692   2.9155   2.9717   3.1569
     3.3439   3.4391   3.5727   3.7611   4.2007   4.2438   4.4067   4.4762
     5.4538   5.6662   5.7207   5.7446   5.8404   5.9109   5.9619   6.1098
     6.3880   6.4160   6.5814   6.6093   9.2466   9.4403   9.5292   9.6515
     9.7246   9.8204   9.9124  10.1054  10.5672  10.7613

          k = 0.0625 0.4691 0.0000 ( 21105 PWs)   bands (ev):

   -53.5061 -53.4927 -53.3364 -53.2977 -27.8469 -27.8464 -27.6742 -27.6536
   -27.6435 -27.6362 -27.5783 -27.5747 -27.4778 -27.4415 -27.4062 -27.3810
    -5.4301  -5.1493  -4.9803  -4.9593  -4.8562  -4.8229  -4.6805  -4.6304
     1.3841   1.6641   1.7210   1.8569   2.3567   2.5924   2.6515   2.8077
     3.1914   3.3117   3.4741   3.6471   4.0809   4.1166   4.2908   4.3378
     5.2626   5.5438   5.6782   5.7595   5.8668   5.8865   6.0569   6.1323
     6.5583   6.5977   6.7470   6.7906   9.4323   9.5418   9.6383   9.7326
     9.8407   9.9486  10.0606  10.2214  10.8410  11.0190

          k = 0.0625 0.5413 0.0000 ( 21084 PWs)   bands (ev):

   -53.5031 -53.4897 -53.3333 -53.2946 -27.8750 -27.8741 -27.7019 -27.6817
   -27.6375 -27.6301 -27.5857 -27.5822 -27.4718 -27.4354 -27.4135 -27.3884
    -5.2008  -4.9678  -4.8318  -4.7865  -4.7790  -4.7451  -4.6191  -4.5759
     1.2201   1.5068   1.5310   1.6982   2.1812   2.4028   2.4744   2.6156
     3.0800   3.2121   3.3803   3.5529   4.0284   4.0569   4.2418   4.2668
     5.1544   5.4418   5.5951   5.7692   5.8238   5.9846   6.1642   6.2396
     6.7072   6.7592   6.9061   6.9582   9.5522   9.5809   9.7110   9.7671
     9.9960  10.0897  10.2358  10.3108  10.9948  11.1596

          k = 0.1250 0.2165 0.0000 ( 21179 PWs)   bands (ev):

   -53.5280 -53.5148 -53.3582 -53.3198 -27.6864 -27.6800 -27.6388 -27.6364
   -27.5283 -27.5241 -27.5207 -27.4854 -27.4667 -27.4428 -27.3561 -27.3303
    -6.5964  -6.2357  -6.0583  -5.9594  -5.4819  -5.2596  -5.0823  -4.9378
     1.5632   2.1497   2.3210   2.7711   3.5300   3.5714   3.6768   3.7502
     3.8141   4.1048   4.2919   4.4856   4.5683   4.6529   4.7558   4.8412
     5.2058   5.2578   5.3893   5.4592   6.1719   6.3552   6.4725   6.6499
     6.7603   6.8012   6.9080   7.0020   9.1609   9.3848   9.4816   9.6696
     9.7173   9.8040   9.8383   9.9263   9.9926  10.0139

          k = 0.1250 0.2887 0.0000 ( 21199 PWs)   bands (ev):

   -53.5207 -53.5075 -53.3509 -53.3124 -27.7024 -27.7008 -27.6721 -27.6654
   -27.5516 -27.5477 -27.5302 -27.5073 -27.5064 -27.4708 -27.3795 -27.3539
    -6.2609  -5.9077  -5.7300  -5.6475  -5.2915  -5.1285  -4.9527  -4.8348
     1.7160   2.2316   2.3978   2.6946   3.2424   3.3298   3.4542   3.5421
     3.6551   3.7140   3.8863   3.9552   4.1920   4.2632   4.3939   4.6036
     5.3207   5.3432   5.5222   5.5557   6.0798   6.2757   6.3581   6.4454
     6.5081   6.5669   6.6600   6.7089   8.9988   9.2698   9.3665   9.5714
     9.6931   9.8018   9.8396   9.9376  10.0673  10.1374

          k = 0.1250 0.3608 0.0000 ( 21195 PWs)   bands (ev):

   -53.5134 -53.5001 -53.3437 -53.3051 -27.7648 -27.7641 -27.6578 -27.6508
   -27.5926 -27.5754 -27.5717 -27.5707 -27.4921 -27.4562 -27.4032 -27.3780
    -5.8852  -5.5512  -5.3734  -5.3168  -5.0793  -4.9862  -4.8144  -4.7298
     1.7136   2.0990   2.2595   2.3743   2.8878   3.0476   3.1217   3.2968
     3.4463   3.5057   3.6166   3.7393   4.0021   4.1010   4.2649   4.4690
     5.2447   5.3205   5.4883   5.5143   5.8410   6.0382   6.1391   6.2911
     6.4225   6.4433   6.6322   6.6517   9.0260   9.3107   9.4388   9.6261
     9.7776   9.8690   9.9252  10.0429  10.2572  10.4001

          k = 0.1250 0.4330 0.0000 ( 21113 PWs)   bands (ev):

   -53.5072 -53.4938 -53.3375 -53.2988 -27.8171 -27.8170 -27.6457 -27.6448
   -27.6384 -27.6238 -27.5956 -27.5922 -27.4800 -27.4438 -27.4234 -27.3985
    -5.5175  -5.2196  -5.0449  -5.0215  -4.8830  -4.8477  -4.6932  -4.6385
     1.5757   1.8847   1.9879   2.0829   2.4945   2.6528   2.7101   2.8497
     3.2854   3.4314   3.5799   3.6985   3.9482   4.0574   4.2193   4.3521
     5.1468   5.2992   5.4333   5.4951   5.6383   5.7613   5.8924   6.0207
     6.5684   6.5837   6.7648   6.7924   9.2236   9.4831   9.6277   9.7631
     9.8878   9.9545  10.0594  10.1371  10.5074  10.6799

          k = 0.1250 0.5052 0.0000 ( 21081 PWs)   bands (ev):

   -53.5031 -53.4897 -53.3333 -53.2946 -27.8523 -27.8517 -27.6795 -27.6589
   -27.6375 -27.6301 -27.6091 -27.6059 -27.4718 -27.4370 -27.4354 -27.4122
    -5.2245  -4.9781  -4.8362  -4.7937  -4.7726  -4.7301  -4.6113  -4.5657
     1.4146   1.7170   1.7472   1.9097   2.2186   2.3478   2.4410   2.5476
     3.1330   3.3110   3.4759   3.6102   3.9646   4.0646   4.2141   4.2746
     5.0683   5.3316   5.3709   5.5099   5.5454   5.6772   5.6949   5.8259
     6.7560   6.7892   6.9583   6.9985   9.4464   9.5759   9.6816   9.7725
    10.0336  10.1157  10.2406  10.3397  10.6634  10.9313

          k = 0.1250 0.5774 0.0000 ( 21108 PWs)   bands (ev):

   -53.5016 -53.4882 -53.3319 -53.2931 -27.8646 -27.8638 -27.6916 -27.6712
   -27.6347 -27.6272 -27.6139 -27.6107 -27.4690 -27.4417 -27.4325 -27.4170
    -5.1021  -4.8884  -4.7685  -4.7382  -4.7109  -4.6979  -4.5725  -4.5345
     1.3428   1.6539   1.6623   1.8478   2.1213   2.2407   2.3433   2.4420
     3.0720   3.2458   3.4135   3.5618   3.9996   4.0736   4.2001   4.2637
     5.0167   5.3237   5.3897   5.4366   5.5687   5.6013   5.6988   5.7703
     6.8465   6.8917   7.0576   7.1071   9.5294   9.5515   9.6700   9.7338
    10.1347  10.2356  10.3664  10.4335  10.6972  11.0717

          k = 0.1875 0.3248 0.0000 ( 21195 PWs)   bands (ev):

   -53.5140 -53.5007 -53.3443 -53.3057 -27.7512 -27.7504 -27.6590 -27.6520
   -27.5822 -27.5790 -27.5786 -27.5569 -27.4933 -27.4574 -27.4100 -27.3849
    -5.9206  -5.5833  -5.4055  -5.3457  -5.0970  -4.9967  -4.8242  -4.7356
     1.7641   2.1782   2.3446   2.4960   3.0437   3.1102   3.2085   3.3534
     3.4538   3.4977   3.6626   3.6833   3.9203   4.0001   4.1908   4.4951
     5.0665   5.1475   5.3154   5.3433   5.9680   6.1738   6.2617   6.3966
     6.4201   6.4541   6.6412   6.6726   8.9398   9.2437   9.3915   9.6224
     9.7758   9.8752   9.9052  10.0157  10.1435  10.2433

          k = 0.1875 0.3969 0.0000 ( 21153 PWs)   bands (ev):

   -53.5078 -53.4945 -53.3381 -53.2994 -27.7932 -27.7930 -27.6469 -27.6396
   -27.6210 -27.6130 -27.6099 -27.5996 -27.4812 -27.4450 -27.4409 -27.4162
    -5.5650  -5.2581  -5.0820  -5.0543  -4.8987  -4.8585  -4.6988  -4.6401
     1.7146   2.0570   2.2107   2.2720   2.6161   2.6955   2.7614   2.8775
     3.2972   3.5454   3.6595   3.7200   3.9156   3.9938   4.1761   4.4433
     4.7486   4.8500   5.0240   5.0626   5.7171   5.9108   6.0656   6.1340
     6.5286   6.5546   6.7376   6.7934   9.0780   9.3958   9.5867   9.8499
     9.9138   9.9297  10.0492  10.1134  10.2763  10.4171

          k = 0.1875 0.4691 0.0000 ( 21101 PWs)   bands (ev):

   -53.5031 -53.4897 -53.3333 -53.2946 -27.8240 -27.8238 -27.6516 -27.6381
   -27.6375 -27.6352 -27.6307 -27.6301 -27.4719 -27.4659 -27.4415 -27.4355
    -5.2464  -4.9882  -4.8406  -4.8032  -4.7641  -4.7179  -4.6021  -4.5549
     1.6286   1.9627   2.0231   2.1535   2.2489   2.2965   2.4308   2.4862
     3.2044   3.4897   3.6192   3.6704   3.9249   4.0518   4.2218   4.3193
     4.5521   4.7051   4.8789   4.9765   5.4832   5.6235   5.8070   5.8628
     6.7396   6.7577   6.9376   6.9791   9.2917   9.5043   9.6403   9.7762
    10.0656  10.1458  10.2538  10.3603  10.4417  10.5707

          k = 0.1875 0.5413 0.0000 ( 21112 PWs)   bands (ev):

   -53.5005 -53.4871 -53.3308 -53.2920 -27.8403 -27.8398 -27.6676 -27.6520
   -27.6493 -27.6470 -27.6325 -27.6250 -27.4799 -27.4668 -27.4556 -27.4303
    -5.0370  -4.8323  -4.7230  -4.6984  -4.6691  -4.6449  -4.5316  -4.4965
     1.5609   1.8899   1.9220   2.0684   2.0832   2.1173   2.2430   2.2832
     3.1076   3.3387   3.5056   3.5967   3.9826   4.1282   4.1760   4.3277
     4.4778   4.6936   4.8680   4.9567   5.3656   5.4444   5.6007   5.6793
     6.9253   6.9542   7.1292   7.1750   9.3711   9.4188   9.5506   9.6069
    10.2164  10.3610  10.4674  10.5280  10.6316  10.6868

          k = 0.2500 0.4330 0.0000 ( 21125 PWs)   bands (ev):

   -53.5031 -53.4897 -53.3333 -53.2946 -27.8093 -27.8092 -27.6530 -27.6503
   -27.6376 -27.6370 -27.6301 -27.6160 -27.4808 -27.4719 -27.4566 -27.4355
    -5.2552  -4.9923  -4.8424  -4.8072  -4.7606  -4.7136  -4.5980  -4.5504
     1.7253   2.0776   2.1549   2.2498   2.2634   2.2786   2.4541   2.4744
     3.2479   3.5881   3.6896   3.7833   3.9585   4.0444   4.2081   4.3260
     4.3695   4.4471   4.5328   4.5799   5.4792   5.6618   5.8747   5.8916
     6.7215   6.7403   6.9196   6.9688   9.2256   9.4645   9.6116   9.7697
    10.0749  10.1465  10.2599  10.3257  10.3914  10.4348

          k = 0.2500 0.5052 0.0000 ( 21117 PWs)   bands (ev):

   -53.4999 -53.4865 -53.3302 -53.2914 -27.8143 -27.8140 -27.6856 -27.6833
   -27.6418 -27.6313 -27.6238 -27.6209 -27.5135 -27.4896 -27.4657 -27.4291
    -5.0071  -4.8039  -4.6991  -4.6746  -4.6428  -4.6170  -4.5080  -4.4737
     1.7314   1.9573   1.9761   2.0931   2.1601   2.1955   2.3367   2.4099
     3.1756   3.5109   3.5510   3.6802   3.8117   4.0703   4.0778   4.1759
     4.2499   4.3435   4.4257   4.5326   5.2660   5.3928   5.6034   5.6792
     6.9694   6.9838   7.1649   7.1992   9.2312   9.3001   9.4349   9.5033
    10.1754  10.2642  10.4449  10.4780  10.5710  10.7009

          k = 0.2500 0.5774 0.0000 ( 21116 PWs)   bands (ev):

   -53.4988 -53.4853 -53.3291 -53.2903 -27.8142 -27.8138 -27.6989 -27.6967
   -27.6416 -27.6292 -27.6216 -27.6208 -27.5268 -27.5030 -27.4635 -27.4269
    -4.8982  -4.7353  -4.6570  -4.6528  -4.6269  -4.5487  -4.4686  -4.4406
     1.7031   1.8721   1.8734   2.0549   2.1149   2.2715   2.3282   2.4617
     3.1404   3.3485   3.4980   3.5196   3.6392   4.0388   4.1177   4.2226
     4.2498   4.3927   4.4695   4.5054   5.2050   5.2598   5.4739   5.5672
     7.0976   7.1160   7.2971   7.3318   9.1517   9.1792   9.3333   9.3470
    10.1680  10.3100  10.4564  10.5642  10.7375  10.8335

          k = 0.3125 0.5413 0.0000 ( 21100 PWs)   bands (ev):

   -53.4982 -53.4847 -53.3285 -53.2897 -27.7932 -27.7927 -27.7274 -27.7251
   -27.6280 -27.6205 -27.6204 -27.5999 -27.5552 -27.5315 -27.4623 -27.4257
    -4.8432  -4.7014  -4.6512  -4.6331  -4.6043  -4.5146  -4.4461  -4.4184
     1.7127   1.7985   1.8265   1.9815   2.2224   2.5066   2.5680   2.7005
     3.0611   3.2454   3.2892   3.4643   3.6269   3.7685   3.9118   3.9418
     4.3180   4.3824   4.5136   4.5565   5.0766   5.1799   5.3971   5.5332
     7.1862   7.1925   7.3819   7.4036   9.0256   9.0632   9.2114   9.2290
    10.1372  10.2123  10.3671  10.5075  10.8540  10.9216

     the Fermi energy is     8.4891 ev

     WARNING: integrated charge=   103.99183756, expected=   104.00000000

!    total energy              =   -1978.36102596 Ry
     total all-electron energy =    -38771.681871 Ry
     estimated scf accuracy    <          3.2E-09 Ry
     smearing contrib. (-TS)   =       0.00023229 Ry
     internal energy E=F+TS    =   -1978.36125825 Ry

     The total energy is F=E-TS. E is the sum of the following terms:
     one-electron contribution =   -2096.74253888 Ry
     hartree contribution      =    1090.58573833 Ry
     xc contribution           =    -119.38962084 Ry
     ewald contribution        =     417.04715864 Ry
     one-center paw contrib.   =   -1269.86199550 Ry

     convergence has been achieved in  32 iterations

     negative rho (up, down):  5.029E-08 0.000E+00

     Forces acting on atoms (cartesian axes, Ry/au):

     atom    1 type  2   force =     0.00000000    0.00000000   -0.01733296
     atom    2 type  1   force =     0.00000000    0.00000000   -0.00153987
     atom    3 type  2   force =     0.00000000    0.00000000    0.02152466
     atom    4 type  2   force =     0.00000000    0.00000000    0.00398601
     atom    5 type  1   force =     0.00000000    0.00000000   -0.01477589
     atom    6 type  2   force =     0.00000000    0.00000000   -0.02165762
     atom    7 type  2   force =     0.00000000    0.00000000    0.01868475
     atom    8 type  1   force =     0.00000000    0.00000000    0.01753005
     atom    9 type  2   force =     0.00000000    0.00000000   -0.00342388
     atom   10 type  2   force =     0.00000000    0.00000000   -0.02085146
     atom   11 type  1   force =     0.00000000    0.00000000    0.00234393
     atom   12 type  2   force =     0.00000000    0.00000000    0.01551229

     Total force =     0.053089     Total SCF correction =     0.000212
     Energy error            =      1.3E-02 Ry
     Gradient error          =      2.2E-02 Ry/Bohr

     number of scf cycles    =  15
     number of bfgs steps    =  14

     energy             old  =   -1978.3485001660 Ry
     energy             new  =   -1978.3610259598 Ry

     CASE: energy            _new < energy            _old

     new trust radius        =       0.3566850288 bohr
     new conv_thr            =       0.0000000100 Ry


ATOMIC_POSITIONS (crystal)
S                0.3333330000        0.6666670000       -0.1038873691
Mo               0.0000000000        0.0000000000       -0.0518552585
S                0.3333330000        0.6666670000        0.0001748359
S                0.6666670000        0.3333330000        0.1123092566
Mo               0.3333330000        0.6666670000        0.1654127289
S                0.6666670000        0.3333330000        0.2177133329
S               -0.0000000000       -0.0000000000        0.3002725665
Mo               0.6666670000        0.3333330000        0.3527295057
S               -0.0000000000       -0.0000000000        0.4056693624
S                0.3333330000        0.6666670000        0.5202729956
Mo               0.0000000000        0.0000000000        0.5722073638
S                0.3333330000        0.6666670000        0.6239806790



     Writing config-only to output data dir ./tmp/relax/mos2_slab.save/ :
     XML data file
     NEW-OLD atomic charge density approx. for the potential
     extrapolated charge  103.99184, renormalised to  104.00000

     total cpu time spent up to now is    52992.7 secs

     Self-consistent Calculation

     iteration #  1     ecut=    80.00 Ry     beta= 0.30
     Davidson diagonalization with overlap
     c_bands:  2 eigenvalues not converged
     c_bands:  1 eigenvalues not converged
     c_bands:  1 eigenvalues not converged
     ethr =  1.00E-06,  avg # of iterations = 14.6

     total cpu time spent up to now is    53509.1 secs

     total energy              =   -1978.37422717 Ry
     estimated scf accuracy    <       0.04141239 Ry

     iteration #  2     ecut=    80.00 Ry     beta= 0.30
     Davidson diagonalization with overlap
     ethr =  3.98E-05,  avg # of iterations =  1.0

     total cpu time spent up to now is    53609.5 secs

     total energy              =   -1978.36058778 Ry
     estimated scf accuracy    <       0.02771816 Ry

     iteration #  3     ecut=    80.00 Ry     beta= 0.30
     Davidson diagonalization with overlap
     ethr =  2.67E-05,  avg # of iterations =  2.4

     total cpu time spent up to now is    53731.0 secs

     total energy              =   -1978.36281320 Ry
     estimated scf accuracy    <       0.00191053 Ry

     iteration #  4     ecut=    80.00 Ry     beta= 0.30
     Davidson diagonalization with overlap
     ethr =  1.84E-06,  avg # of iterations =  3.7

     total cpu time spent up to now is    53859.5 secs

     total energy              =   -1978.36302962 Ry
     estimated scf accuracy    <       0.00087578 Ry

     iteration #  5     ecut=    80.00 Ry     beta= 0.30
     Davidson diagonalization with overlap
     ethr =  8.42E-07,  avg # of iterations =  2.9

     total cpu time spent up to now is    53976.0 secs

     total energy              =   -1978.36316270 Ry
     estimated scf accuracy    <       0.00024875 Ry

     iteration #  6     ecut=    80.00 Ry     beta= 0.30
     Davidson diagonalization with overlap
     ethr =  2.39E-07,  avg # of iterations =  4.5

     total cpu time spent up to now is    54094.2 secs

     total energy              =   -1978.36308118 Ry
     estimated scf accuracy    <       0.00009251 Ry

     iteration #  7     ecut=    80.00 Ry     beta= 0.30
     Davidson diagonalization with overlap
     ethr =  8.90E-08,  avg # of iterations =  2.8

     negative rho (up, down):  1.026E-08 0.000E+00

     total cpu time spent up to now is    54216.8 secs

     total energy              =   -1978.36307637 Ry
     estimated scf accuracy    <       0.00005186 Ry

     iteration #  8     ecut=    80.00 Ry     beta= 0.30
     Davidson diagonalization with overlap
     ethr =  4.99E-08,  avg # of iterations =  2.0

     total cpu time spent up to now is    54333.2 secs

     total energy              =   -1978.36309531 Ry
     estimated scf accuracy    <       0.00002776 Ry

     iteration #  9     ecut=    80.00 Ry     beta= 0.30
     Davidson diagonalization with overlap
     ethr =  2.67E-08,  avg # of iterations =  2.6

     total cpu time spent up to now is    54447.4 secs

     total energy              =   -1978.36308970 Ry
     estimated scf accuracy    <       0.00001920 Ry

     iteration # 10     ecut=    80.00 Ry     beta= 0.30
     Davidson diagonalization with overlap
     ethr =  1.85E-08,  avg # of iterations =  2.0

     total cpu time spent up to now is    54557.5 secs

     total energy              =   -1978.36307333 Ry
     estimated scf accuracy    <       0.00001325 Ry

     iteration # 11     ecut=    80.00 Ry     beta= 0.30
     Davidson diagonalization with overlap
     ethr =  1.27E-08,  avg # of iterations =  3.1

     total cpu time spent up to now is    54671.8 secs

     total energy              =   -1978.36303279 Ry
     estimated scf accuracy    <       0.00001496 Ry

     iteration # 12     ecut=    80.00 Ry     beta= 0.30
     Davidson diagonalization with overlap
     ethr =  1.27E-08,  avg # of iterations =  2.3

     total cpu time spent up to now is    54784.7 secs

     total energy              =   -1978.36303188 Ry
     estimated scf accuracy    <       0.00000788 Ry

     iteration # 13     ecut=    80.00 Ry     beta= 0.30
     Davidson diagonalization with overlap
     ethr =  7.58E-09,  avg # of iterations =  3.5

     total cpu time spent up to now is    54903.3 secs

     total energy              =   -1978.36298133 Ry
     estimated scf accuracy    <       0.00001020 Ry

     iteration # 14     ecut=    80.00 Ry     beta= 0.30
     Davidson diagonalization with overlap
     ethr =  7.58E-09,  avg # of iterations =  2.4

     total cpu time spent up to now is    55016.7 secs

     total energy              =   -1978.36293621 Ry
     estimated scf accuracy    <       0.00000333 Ry

     iteration # 15     ecut=    80.00 Ry     beta= 0.30
     Davidson diagonalization with overlap
     ethr =  3.20E-09,  avg # of iterations =  3.1

     total cpu time spent up to now is    55132.6 secs

     total energy              =   -1978.36288726 Ry
     estimated scf accuracy    <       0.00000209 Ry

     iteration # 16     ecut=    80.00 Ry     beta= 0.30
     Davidson diagonalization with overlap
     ethr =  2.01E-09,  avg # of iterations =  2.2

     total cpu time spent up to now is    55248.5 secs

     total energy              =   -1978.36286885 Ry
     estimated scf accuracy    <       0.00000177 Ry

     iteration # 17     ecut=    80.00 Ry     beta= 0.30
     Davidson diagonalization with overlap
     ethr =  1.70E-09,  avg # of iterations =  2.0

     total cpu time spent up to now is    55364.5 secs

     total energy              =   -1978.36287016 Ry
     estimated scf accuracy    <       0.00000124 Ry

     iteration # 18     ecut=    80.00 Ry     beta= 0.30
     Davidson diagonalization with overlap
     ethr =  1.20E-09,  avg # of iterations =  1.2

     total cpu time spent up to now is    55466.9 secs

     total energy              =   -1978.36285818 Ry
     estimated scf accuracy    <       0.00000115 Ry

     iteration # 19     ecut=    80.00 Ry     beta= 0.30
     Davidson diagonalization with overlap
     ethr =  1.11E-09,  avg # of iterations =  2.0

     total cpu time spent up to now is    55579.0 secs

     total energy              =   -1978.36283933 Ry
     estimated scf accuracy    <       0.00000062 Ry

     iteration # 20     ecut=    80.00 Ry     beta= 0.30
     Davidson diagonalization with overlap
     ethr =  5.93E-10,  avg # of iterations =  1.5

     total cpu time spent up to now is    55684.9 secs

     total energy              =   -1978.36283384 Ry
     estimated scf accuracy    <       0.00000046 Ry

     iteration # 21     ecut=    80.00 Ry     beta= 0.30
     Davidson diagonalization with overlap
     ethr =  4.45E-10,  avg # of iterations =  2.0

     total cpu time spent up to now is    55796.1 secs

     total energy              =   -1978.36282672 Ry
     estimated scf accuracy    <       0.00000036 Ry

     iteration # 22     ecut=    80.00 Ry     beta= 0.30
     Davidson diagonalization with overlap
     ethr =  3.47E-10,  avg # of iterations =  1.0

     total cpu time spent up to now is    55897.0 secs

     total energy              =   -1978.36282554 Ry
     estimated scf accuracy    <       0.00000032 Ry

     iteration # 23     ecut=    80.00 Ry     beta= 0.30
     Davidson diagonalization with overlap
     ethr =  3.12E-10,  avg # of iterations =  1.0

     total cpu time spent up to now is    55997.6 secs

     total energy              =   -1978.36282755 Ry
     estimated scf accuracy    <       0.00000030 Ry

     iteration # 24     ecut=    80.00 Ry     beta= 0.30
     Davidson diagonalization with overlap
     ethr =  2.84E-10,  avg # of iterations =  1.8

     total cpu time spent up to now is    56106.7 secs

     total energy              =   -1978.36282399 Ry
     estimated scf accuracy    <       0.00000026 Ry

     iteration # 25     ecut=    80.00 Ry     beta= 0.30
     Davidson diagonalization with overlap
     ethr =  2.47E-10,  avg # of iterations =  1.1

     total cpu time spent up to now is    56208.6 secs

     total energy              =   -1978.36282293 Ry
     estimated scf accuracy    <       0.00000021 Ry

     iteration # 26     ecut=    80.00 Ry     beta= 0.30
     Davidson diagonalization with overlap
     ethr =  1.99E-10,  avg # of iterations =  1.0

     total cpu time spent up to now is    56308.9 secs

     total energy              =   -1978.36282332 Ry
     estimated scf accuracy    <       0.00000018 Ry

     iteration # 27     ecut=    80.00 Ry     beta= 0.30
     Davidson diagonalization with overlap
     ethr =  1.70E-10,  avg # of iterations =  2.0

     total cpu time spent up to now is    56420.5 secs

     total energy              =   -1978.36281881 Ry
     estimated scf accuracy    <       0.00000010 Ry

     iteration # 28     ecut=    80.00 Ry     beta= 0.30
     Davidson diagonalization with overlap
     ethr =  9.98E-11,  avg # of iterations =  2.0

     total cpu time spent up to now is    56531.7 secs

     total energy              =   -1978.36281734 Ry
     estimated scf accuracy    <       0.00000006 Ry

     iteration # 29     ecut=    80.00 Ry     beta= 0.30
     Davidson diagonalization with overlap
     ethr =  6.08E-11,  avg # of iterations =  2.0

     total cpu time spent up to now is    56645.4 secs

     total energy              =   -1978.36281961 Ry
     estimated scf accuracy    <       0.00000003 Ry

     iteration # 30     ecut=    80.00 Ry     beta= 0.30
     Davidson diagonalization with overlap
     ethr =  2.81E-11,  avg # of iterations =  2.8

     total cpu time spent up to now is    56761.7 secs

     total energy              =   -1978.36282149 Ry
     estimated scf accuracy    <       0.00000001 Ry

     iteration # 31     ecut=    80.00 Ry     beta= 0.30
     Davidson diagonalization with overlap
     ethr =  1.12E-11,  avg # of iterations =  2.0

     total cpu time spent up to now is    56872.6 secs

     End of self-consistent calculation

          k = 0.0000 0.0000 0.0000 ( 21311 PWs)   bands (ev):

   -53.5211 -53.5111 -53.3726 -53.3713 -27.7004 -27.6833 -27.5489 -27.5471
   -27.4669 -27.4669 -27.4465 -27.4465 -27.3146 -27.3145 -27.3068 -27.3068
    -7.0772  -6.8608  -6.7000  -6.5720  -5.7731  -5.5124  -5.3738  -5.1881
     1.0952   1.5894   1.7491   2.2328   4.6264   4.6463   4.6463   4.7803
     4.7803   4.8287   4.8287   4.9201   4.9201   5.3310   5.6548   5.7878
     5.7878   5.8808   5.8808   5.9623   5.9623   6.0322   6.0322   6.4246
     6.9669   7.4431   7.6094   8.3338   9.9839   9.9839  10.1214  10.1214
    10.1565  10.1565  10.2650  10.2651  10.3267  10.3270

          k = 0.0000 0.0722 0.0000 ( 21283 PWs)   bands (ev):

   -53.5195 -53.5095 -53.3710 -53.3698 -27.6973 -27.6802 -27.5458 -27.5440
   -27.4827 -27.4705 -27.4619 -27.4500 -27.3302 -27.3223 -27.3181 -27.3103
    -7.0182  -6.8011  -6.6404  -6.5135  -5.7412  -5.4881  -5.3492  -5.1666
     1.1615   1.6568   1.8164   2.2981   4.4987   4.5162   4.6413   4.6954
     4.7094   4.7831   4.8402   4.8915   4.9812   5.0916   5.3089   5.6522
     5.6911   5.7826   5.8655   5.9375   5.9564   6.0790   6.1606   6.5791
     6.9720   7.4104   7.5679   8.1545   9.9847  10.0072  10.0391  10.0721
    10.1838  10.1883  10.2040  10.2149  10.2379  10.3165

          k = 0.0000 0.1443 0.0000 ( 21263 PWs)   bands (ev):

   -53.5150 -53.5051 -53.3666 -53.3653 -27.6884 -27.6716 -27.5370 -27.5354
   -27.5273 -27.5059 -27.4807 -27.4600 -27.3747 -27.3662 -27.3282 -27.3204
    -6.8458  -6.6273  -6.4667  -6.3436  -5.6477  -5.4176  -5.2778  -5.1043
     1.3455   1.8423   2.0012   2.4747   4.1677   4.2112   4.2784   4.3538
     4.4288   4.6644   4.8398   4.8912   5.0087   5.0727   5.1546   5.1818
     5.4407   5.5346   5.6150   5.6938   6.0324   6.1808   6.3300   6.6889
     6.9475   7.2669   7.4059   7.6999   9.7443   9.8439   9.8840   9.8916
     9.9565   9.9792  10.0294  10.1255  10.1269  10.2135

          k = 0.0000 0.2165 0.0000 ( 21233 PWs)   bands (ev):

   -53.5083 -53.4985 -53.3600 -53.3586 -27.6752 -27.6587 -27.5935 -27.5710
   -27.5239 -27.5225 -27.4958 -27.4749 -27.4407 -27.4314 -27.3433 -27.3353
    -6.5737  -6.3549  -6.1946  -6.0785  -5.5002  -5.3074  -5.1662  -5.0082
     1.5935   2.0810   2.2384   2.6811   3.7505   3.8053   3.8503   3.9433
     3.9997   4.1974   4.3589   4.6540   5.1153   5.1322   5.1706   5.2910
     5.3132   5.3485   5.3557   5.4789   5.9324   6.1359   6.2934   6.5960
     6.8008   6.9598   7.0844   7.1675   9.3754   9.5448   9.6786   9.6886
     9.8599   9.9041   9.9786  10.0132  10.0631  10.0798

          k = 0.0000 0.2887 0.0000 ( 21197 PWs)   bands (ev):

   -53.5004 -53.4906 -53.3521 -53.3507 -27.6708 -27.6596 -27.6471 -27.6433
   -27.5176 -27.5136 -27.5083 -27.5083 -27.5064 -27.4925 -27.3610 -27.3529
    -6.2256  -6.0110  -5.8506  -5.7464  -5.3118  -5.1691  -5.0265  -4.8908
     1.7929   2.2143   2.3701   2.6920   3.3384   3.4457   3.4975   3.5999
     3.6757   3.7524   3.9072   4.1413   4.7876   4.8400   4.9625   5.0348
     5.5046   5.6069   5.6825   5.6954   5.7767   5.9553   6.0900   6.3586
     6.5023   6.5756   6.7088   6.7538   9.2299   9.4553   9.5117   9.6239
     9.7031   9.8232   9.8709   9.9001  10.1820  10.3638

          k = 0.0000 0.3608 0.0000 ( 21187 PWs)   bands (ev):

   -53.4925 -53.4828 -53.3443 -53.3428 -27.7471 -27.7222 -27.6439 -27.6281
   -27.5937 -27.5826 -27.5313 -27.5100 -27.4927 -27.4919 -27.3787 -27.3704
    -5.8371  -5.6353  -5.4743  -5.3896  -5.1036  -5.0193  -4.8767  -4.7702
     1.7995   2.0729   2.2267   2.3633   2.9387   3.1430   3.2273   3.3655
     3.4108   3.5140   3.6200   3.8328   4.4995   4.5532   4.6745   4.7519
     5.4440   5.7345   5.8399   5.8445   5.8959   6.0155   6.0947   6.1081
     6.2809   6.3419   6.4782   6.5342   9.3347   9.4426   9.5670   9.5762
     9.7045   9.7166   9.7460  10.0032  10.5051  10.7119

          k = 0.0000 0.4330 0.0000 ( 21140 PWs)   bands (ev):

   -53.4857 -53.4761 -53.3376 -53.3361 -27.8111 -27.7852 -27.6574 -27.6456
   -27.6305 -27.6151 -27.5463 -27.5248 -27.4795 -27.4789 -27.3937 -27.3852
    -5.4599  -5.2833  -5.1209  -5.0669  -4.9119  -4.8737  -4.7414  -4.6679
     1.6128   1.7879   1.9195   1.9791   2.5886   2.8013   2.8762   3.0001
     3.2928   3.3832   3.5113   3.7045   4.2789   4.3319   4.4540   4.5339
     5.2591   5.5516   5.6599   5.8938   6.1021   6.1304   6.2882   6.2991
     6.3823   6.3864   6.5024   6.5859   9.4782   9.5413   9.5880   9.6786
     9.7086   9.7862   9.8982  10.1310  10.8072  11.0024

          k = 0.0000 0.5052 0.0000 ( 21078 PWs)   bands (ev):

   -53.4812 -53.4717 -53.3332 -53.3316 -27.8535 -27.8270 -27.6997 -27.6874
   -27.6216 -27.6064 -27.5563 -27.5347 -27.4706 -27.4702 -27.4036 -27.3950
    -5.1652  -5.0248  -4.8617  -4.8472  -4.7969  -4.7431  -4.6479  -4.5970
     1.3917   1.5501   1.6468   1.7213   2.3464   2.5427   2.6269   2.7286
     3.1690   3.2635   3.4065   3.5839   4.1412   4.1936   4.3164   4.3976
     5.1548   5.4431   5.5575   5.7742   6.2348   6.2987   6.4589   6.4853
     6.5644   6.5722   6.6817   6.7576   9.5563   9.5701   9.7141   9.7336
     9.8733  10.0070  10.1040  10.2463  10.9965  11.1669

          k = 0.0000-0.5774 0.0000 ( 21006 PWs)   bands (ev):

   -53.4796 -53.4701 -53.3316 -53.3300 -27.8684 -27.8416 -27.7145 -27.7020
   -27.6185 -27.6033 -27.5598 -27.5381 -27.4675 -27.4671 -27.4071 -27.3985
    -5.0458  -4.9283  -4.7799  -4.7628  -4.7526  -4.7011  -4.6128  -4.5663
     1.2957   1.4594   1.5458   1.6271   2.2592   2.4498   2.5361   2.6322
     3.1158   3.2102   3.3563   3.5311   4.0945   4.1466   4.2698   4.3514
     5.1222   5.4083   5.5252   5.7340   6.2750   6.3564   6.5156   6.6048
     6.6243   6.6751   6.7712   6.8368   9.5837   9.6031   9.7388   9.7563
    10.0244  10.0977  10.2293  10.2721  11.0616  11.2094

          k = 0.0625 0.1083 0.0000 ( 21269 PWs)   bands (ev):

   -53.5165 -53.5065 -53.3680 -53.3668 -27.6913 -27.6744 -27.5399 -27.5382
   -27.5124 -27.4912 -27.4778 -27.4572 -27.3599 -27.3516 -27.3254 -27.3176
    -6.9025  -6.6843  -6.5237  -6.3993  -5.6785  -5.4407  -5.3012  -5.1247
     1.2871   1.7839   1.9431   2.4200   4.2743   4.3058   4.3937   4.4600
     4.5369   4.7970   4.8299   4.9547   4.9820   5.0116   5.0952   5.3432
     5.4777   5.5684   5.6521   5.7220   6.0710   6.2001   6.3316   6.6952
     6.9642   7.3232   7.4672   7.8406   9.8316   9.8505   9.9219   9.9682
     9.9893  10.0590  10.1020  10.1303  10.1775  10.1838

          k = 0.0625 0.1804 0.0000 ( 21194 PWs)   bands (ev):

   -53.5109 -53.5010 -53.3625 -53.3612 -27.6803 -27.6636 -27.5666 -27.5445
   -27.5289 -27.5275 -27.4917 -27.4709 -27.4138 -27.4049 -27.3392 -27.3313
    -6.6801  -6.4611  -6.3007  -6.1816  -5.5578  -5.3501  -5.2095  -5.0453
     1.5064   2.0016   2.1597   2.6206   3.9046   3.9830   4.0093   4.0919
     4.1475   4.4060   4.5727   4.9032   5.0500   5.1060   5.1175   5.2311
     5.2328   5.2888   5.2936   5.4014   6.1207   6.2762   6.4182   6.7103
     6.8850   7.0958   7.2253   7.3509   9.4672   9.6022   9.6924   9.7827
     9.8570   9.9108   9.9376   9.9834  10.0340  10.0904

          k = 0.0625 0.2526 0.0000 ( 21202 PWs)   bands (ev):

   -53.5036 -53.4938 -53.3553 -53.3539 -27.6658 -27.6496 -27.6367 -27.6135
   -27.5146 -27.5134 -27.5098 -27.4888 -27.4836 -27.4738 -27.3573 -27.3492
    -6.3695  -6.1523  -5.9920  -5.8824  -5.3892  -5.2253  -5.0832  -4.9378
     1.7401   2.2050   2.3615   2.7576   3.5289   3.5814   3.6384   3.7307
     3.8025   3.9695   4.1307   4.3776   4.7428   4.8202   4.9153   4.9840
     5.3286   5.4327   5.5068   5.5944   6.0072   6.1913   6.3184   6.5503
     6.6628   6.7374   6.8602   6.8991   9.1988   9.4119   9.4998   9.6531
     9.7556   9.8200   9.8766   9.9379  10.0120  10.1100

          k = 0.0625 0.3248 0.0000 ( 21194 PWs)   bands (ev):

   -53.4956 -53.4859 -53.3474 -53.3460 -27.7116 -27.6873 -27.6502 -27.6342
   -27.5583 -27.5477 -27.5294 -27.5081 -27.4990 -27.4980 -27.3768 -27.3685
    -5.9997  -5.7909  -5.6303  -5.5363  -5.1893  -5.0800  -4.9370  -4.8174
     1.8501   2.1984   2.3547   2.5751   3.1517   3.2938   3.4280   3.4395
     3.5675   3.5954   3.7358   3.9201   4.4488   4.5227   4.6235   4.7126
     5.5839   5.6323   5.7420   5.7625   5.8508   5.9843   6.0900   6.3009
     6.4131   6.4474   6.5865   6.6198   9.1478   9.3787   9.4470   9.5871
     9.6910   9.7770   9.8380   9.9641  10.2446  10.4120

          k = 0.0625 0.3969 0.0000 ( 21151 PWs)   bands (ev):

   -53.4883 -53.4787 -53.3402 -53.3386 -27.7801 -27.7547 -27.6357 -27.6266
   -27.6201 -27.6151 -27.5474 -27.5259 -27.4845 -27.4839 -27.3947 -27.3863
    -5.6137  -5.4240  -5.2624  -5.1935  -4.9846  -4.9319  -4.7921  -4.7041
     1.7492   1.9636   2.1122   2.1928   2.7665   2.9613   3.0269   3.1605
     3.3761   3.4630   3.5752   3.7648   4.2515   4.3141   4.4290   4.5133
     5.4911   5.7277   5.7497   5.7652   5.8300   5.9148   5.9649   6.0827
     6.4133   6.4600   6.5733   6.6163   9.2711   9.4536   9.5263   9.6290
     9.7315   9.8227   9.8848  10.0665  10.5669  10.7485

          k = 0.0625 0.4691 0.0000 ( 21105 PWs)   bands (ev):

   -53.4827 -53.4731 -53.3346 -53.3330 -27.8321 -27.8059 -27.6783 -27.6663
   -27.6245 -27.6092 -27.5611 -27.5394 -27.4735 -27.4730 -27.4084 -27.3998
    -5.2718  -5.1142  -4.9511  -4.9198  -4.8303  -4.7860  -4.6754  -4.6172
     1.5362   1.7010   1.8135   1.8783   2.4499   2.6200   2.7061   2.8047
     3.2422   3.3400   3.4796   3.6520   4.1391   4.1878   4.3145   4.3790
     5.2937   5.5417   5.6460   5.8167   5.8614   5.9072   6.0626   6.1432
     6.5868   6.6386   6.7458   6.7976   9.4672   9.5580   9.6472   9.7104
     9.8631   9.9554  10.0370  10.1920  10.8561  11.0249

          k = 0.0625 0.5413 0.0000 ( 21084 PWs)   bands (ev):

   -53.4796 -53.4701 -53.3316 -53.3300 -27.8600 -27.8334 -27.7062 -27.6938
   -27.6185 -27.6033 -27.5685 -27.5468 -27.4675 -27.4671 -27.4158 -27.4071
    -5.0549  -4.9326  -4.7807  -4.7665  -4.7511  -4.6957  -4.6096  -4.5626
     1.3728   1.5393   1.6258   1.7077   2.2714   2.4278   2.5227   2.6086
     3.1398   3.2423   3.3887   3.5591   4.0908   4.1299   4.2649   4.3125
     5.1829   5.4389   5.5513   5.7337   5.9131   6.0108   6.1659   6.2466
     6.7444   6.7910   6.9076   6.9597   9.5871   9.6094   9.7262   9.7485
    10.0258  10.1022  10.2176  10.2901  11.0407  11.1693

          k = 0.1250 0.2165 0.0000 ( 21179 PWs)   bands (ev):

   -53.5047 -53.4949 -53.3564 -53.3550 -27.6680 -27.6517 -27.6225 -27.5995
   -27.5167 -27.5155 -27.5107 -27.4896 -27.4695 -27.4599 -27.3582 -27.3500
    -6.4188  -6.2009  -6.0406  -5.9293  -5.4156  -5.2444  -5.1025  -4.9539
     1.7196   2.1986   2.3555   2.7774   3.6020   3.6455   3.7366   3.7881
     3.8553   4.1238   4.2869   4.5410   4.6041   4.7089   4.7773   4.8617
     5.2496   5.3478   5.4275   5.5101   6.2018   6.3540   6.4672   6.6568
     6.7495   6.8081   6.9229   6.9586   9.1749   9.3832   9.4696   9.6607
     9.7021   9.8142   9.8403   9.9015   9.9643   9.9758

          k = 0.1250 0.2887 0.0000 ( 21199 PWs)   bands (ev):

   -53.4974 -53.4876 -53.3491 -53.3477 -27.6866 -27.6626 -27.6536 -27.6376
   -27.5342 -27.5334 -27.5231 -27.5129 -27.5024 -27.5013 -27.3816 -27.3732
    -6.0850  -5.8731  -5.7126  -5.6143  -5.2337  -5.1111  -4.9682  -4.8418
     1.8810   2.2826   2.4400   2.7330   3.3470   3.3997   3.4954   3.5774
     3.6739   3.7403   3.8946   4.0071   4.2213   4.3058   4.3998   4.6031
     5.3765   5.4177   5.5489   5.6026   6.1138   6.2733   6.3536   6.4846
     6.5250   6.5473   6.6598   6.6847   9.0092   9.2554   9.3529   9.5380
     9.7101   9.8112   9.8422   9.9128  10.0299  10.1210

          k = 0.1250 0.3608 0.0000 ( 21195 PWs)   bands (ev):

   -53.4900 -53.4804 -53.3419 -53.3404 -27.7496 -27.7247 -27.6391 -27.6234
   -27.5962 -27.5851 -27.5582 -27.5365 -27.4879 -27.4872 -27.4055 -27.3969
    -5.7139  -5.5165  -5.3553  -5.2781  -5.0327  -4.9652  -4.8236  -4.7257
     1.8774   2.1457   2.3029   2.4380   2.9904   3.1202   3.1693   3.3104
     3.4764   3.5454   3.6381   3.7634   4.0380   4.1293   4.2655   4.4724
     5.3302   5.3540   5.5113   5.5423   5.8756   6.0391   6.1151   6.2538
     6.4630   6.4832   6.6217   6.6613   9.0384   9.2969   9.4168   9.6067
     9.7960   9.8798   9.9252  10.0133  10.2431  10.3883

          k = 0.1250 0.4330 0.0000 ( 21113 PWs)   bands (ev):

   -53.4838 -53.4742 -53.3357 -53.3342 -27.8024 -27.7766 -27.6488 -27.6370
   -27.6267 -27.6114 -27.5786 -27.5566 -27.4757 -27.4752 -27.4258 -27.4170
    -5.3552  -5.1846  -5.0221  -4.9783  -4.8538  -4.8155  -4.6925  -4.6258
     1.7329   1.9247   2.0644   2.1214   2.5893   2.6857   2.7740   2.8583
     3.3504   3.4633   3.5965   3.7207   3.9937   4.0880   4.2231   4.3709
     5.2425   5.3281   5.4678   5.5063   5.6478   5.7591   5.8547   5.9798
     6.5958   6.6355   6.7586   6.8053   9.2423   9.4773   9.6024   9.7638
     9.9080   9.9689  10.0540  10.1146  10.5144  10.6775

          k = 0.1250 0.5052 0.0000 ( 21081 PWs)   bands (ev):

   -53.4796 -53.4701 -53.3316 -53.3300 -27.8374 -27.8111 -27.6836 -27.6715
   -27.6185 -27.6033 -27.5922 -27.5701 -27.4675 -27.4671 -27.4394 -27.4305
    -5.0757  -4.9429  -4.7845  -4.7754  -4.7455  -4.6850  -4.6012  -4.5528
     1.5717   1.7515   1.8454   1.9229   2.3037   2.3778   2.4924   2.5540
     3.2084   3.3422   3.4878   3.6295   4.0249   4.0991   4.2310   4.3023
     5.1753   5.3670   5.3966   5.5144   5.5423   5.6389   5.6722   5.7849
     6.7884   6.8311   6.9534   7.0086   9.4753   9.5867   9.6843   9.7627
    10.0630  10.1304  10.2302  10.3183  10.7021  10.9261

          k = 0.1250 0.5774 0.0000 ( 21108 PWs)   bands (ev):

   -53.4782 -53.4687 -53.3301 -53.3285 -27.8496 -27.8231 -27.6958 -27.6835
   -27.6156 -27.6005 -27.5970 -27.5748 -27.4646 -27.4643 -27.4442 -27.4352
    -4.9619  -4.8532  -4.7262  -4.6976  -4.6861  -4.6498  -4.5653  -4.5192
     1.5019   1.6872   1.7616   1.8547   2.2025   2.2697   2.3909   2.4477
     3.1485   3.2779   3.4264   3.5790   4.0655   4.1119   4.2389   4.2769
     5.1196   5.3615   5.4125   5.4402   5.5494   5.5705   5.6633   5.7430
     6.8839   6.9268   7.0528   7.1149   9.5551   9.5850   9.6858   9.7179
    10.1653  10.2477  10.3614  10.4062  10.7510  11.0646

          k = 0.1875 0.3248 0.0000 ( 21195 PWs)   bands (ev):

   -53.4906 -53.4810 -53.3425 -53.3410 -27.7359 -27.7111 -27.6403 -27.6246
   -27.5825 -27.5715 -27.5650 -27.5432 -27.4891 -27.4884 -27.4123 -27.4036
    -5.7486  -5.5486  -5.3876  -5.3078  -5.0492  -4.9762  -4.8342  -4.7328
     1.9305   2.2260   2.3858   2.5543   3.1500   3.1952   3.2512   3.3870
     3.5229   3.5297   3.6860   3.7083   3.9359   4.0153   4.1776   4.4716
     5.1537   5.1794   5.3378   5.3693   6.0177   6.1799   6.2407   6.3593
     6.4696   6.4841   6.6308   6.6801   8.9487   9.2264   9.3642   9.5933
     9.8042   9.8909   9.9170   9.9931  10.1160  10.2288

          k = 0.1875 0.3969 0.0000 ( 21153 PWs)   bands (ev):

   -53.4844 -53.4748 -53.3363 -53.3348 -27.7784 -27.7529 -27.6280 -27.6248
   -27.6133 -27.6126 -27.5962 -27.5740 -27.4769 -27.4764 -27.4434 -27.4344
    -5.4006  -5.2233  -5.0611  -5.0109  -4.8667  -4.8292  -4.7004  -4.6284
     1.8765   2.0994   2.2555   2.3355   2.7111   2.7400   2.8265   2.8959
     3.4071   3.5849   3.6932   3.7434   3.9289   4.0080   4.1633   4.4259
     4.8298   4.8784   5.0335   5.0821   5.7655   5.9165   6.0308   6.0897
     6.5670   6.5991   6.7324   6.8013   9.0917   9.3846   9.5486   9.8317
     9.9387   9.9511  10.0666  10.0945  10.2708  10.4085

          k = 0.1875 0.4691 0.0000 ( 21101 PWs)   bands (ev):

   -53.4796 -53.4701 -53.3316 -53.3300 -27.8093 -27.7833 -27.6556 -27.6437
   -27.6214 -27.6185 -27.6034 -27.5989 -27.4685 -27.4675 -27.4672 -27.4592
    -5.0951  -4.9530  -4.7916  -4.7821  -4.7385  -4.6766  -4.5923  -4.5421
     1.7908   2.0001   2.1217   2.1766   2.3214   2.3447   2.4747   2.5063
     3.3125   3.5220   3.6539   3.6954   3.9590   4.0711   4.2129   4.3507
     4.6184   4.7318   4.8827   4.9901   5.5050   5.6269   5.7595   5.8179
     6.7669   6.8083   6.9314   6.9888   9.3165   9.5100   9.6264   9.7707
    10.0991  10.1615  10.2537  10.3409  10.4445  10.5671

          k = 0.1875 0.5413 0.0000 ( 21112 PWs)   bands (ev):

   -53.4770 -53.4675 -53.3290 -53.3274 -27.8255 -27.7992 -27.6717 -27.6596
   -27.6354 -27.6134 -27.6127 -27.5984 -27.4825 -27.4731 -27.4624 -27.4622
    -4.9000  -4.7971  -4.6861  -4.6513  -4.6307  -4.6085  -4.5263  -4.4796
     1.7290   1.9568   2.0108   2.1095   2.1237   2.1474   2.2702   2.3109
     3.2007   3.3709   3.5189   3.6295   4.0462   4.1521   4.2410   4.3235
     4.5477   4.7183   4.8673   4.9710   5.3643   5.4371   5.5496   5.6287
     6.9572   6.9960   7.1223   7.1828   9.4046   9.4475   9.5588   9.6050
    10.2513  10.3800  10.4692  10.5318  10.5935  10.6801

          k = 0.2500 0.4330 0.0000 ( 21125 PWs)   bands (ev):

   -53.4796 -53.4701 -53.3316 -53.3300 -27.7946 -27.7688 -27.6410 -27.6364
   -27.6292 -27.6185 -27.6137 -27.6034 -27.4835 -27.4741 -27.4675 -27.4672
    -5.1028  -4.9572  -4.7953  -4.7843  -4.7355  -4.6737  -4.5885  -4.5374
     1.8895   2.1173   2.2585   2.2852   2.3091   2.3488   2.4744   2.5086
     3.3951   3.6464   3.7196   3.8088   3.9811   4.0639   4.2058   4.3571
     4.3956   4.4506   4.5352   4.5760   5.5240   5.6670   5.8209   5.8501
     6.7490   6.7915   6.9139   6.9770   9.2493   9.4694   9.5949   9.7627
    10.1101  10.1605  10.2606  10.3311  10.3603  10.4304

          k = 0.2500 0.5052 0.0000 ( 21117 PWs)   bands (ev):

   -53.4764 -53.4670 -53.3284 -53.3268 -27.7995 -27.7735 -27.6693 -27.6462
   -27.6458 -27.6339 -27.6122 -27.5972 -27.5163 -27.5066 -27.4613 -27.4610
    -4.8711  -4.7687  -4.6634  -4.6262  -4.6025  -4.5824  -4.5034  -4.4563
     1.8943   2.0139   2.0710   2.1774   2.1857   2.2318   2.3635   2.4315
     3.3060   3.5438   3.6275   3.6883   3.8996   4.0986   4.1085   4.1916
     4.2525   4.3307   4.4150   4.5245   5.2905   5.3969   5.5484   5.6239
     6.9932   7.0338   7.1562   7.2076   9.2690   9.3263   9.4406   9.5088
    10.2042  10.2797  10.4371  10.4564  10.5653  10.6417

          k = 0.2500 0.5774 0.0000 ( 21116 PWs)   bands (ev):

   -53.4753 -53.4658 -53.3273 -53.3257 -27.7994 -27.7733 -27.6826 -27.6595
   -27.6457 -27.6337 -27.6100 -27.5950 -27.5296 -27.5198 -27.4591 -27.4589
    -4.7727  -4.7001  -4.6296  -4.5826  -4.5685  -4.5329  -4.4693  -4.4172
     1.8536   1.9098   1.9828   2.0776   2.2228   2.3005   2.3874   2.4644
     3.2266   3.3792   3.5272   3.5757   3.7560   4.0680   4.1510   4.2289
     4.2694   4.3928   4.4534   4.5035   5.2146   5.2633   5.4171   5.5035
     7.1248   7.1596   7.2870   7.3379   9.1781   9.2334   9.3392   9.3653
    10.1964  10.3185  10.4473  10.5157  10.7312  10.7851

          k = 0.3125 0.5413 0.0000 ( 21100 PWs)   bands (ev):

   -53.4747 -53.4652 -53.3267 -53.3251 -27.7784 -27.7522 -27.7111 -27.6879
   -27.6247 -27.6126 -27.6088 -27.5939 -27.5581 -27.5483 -27.4579 -27.4577
    -4.7233  -4.6662  -4.6094  -4.5710  -4.5466  -4.4989  -4.4485  -4.3928
     1.8354   1.8372   1.9352   2.0053   2.3655   2.5351   2.6367   2.7040
     3.1849   3.3150   3.3202   3.4705   3.7085   3.7947   3.9251   3.9528
     4.3360   4.3906   4.5053   4.5418   5.0972   5.1834   5.3405   5.4624
     7.2077   7.2400   7.3685   7.4099   9.0544   9.1209   9.2182   9.2550
    10.1581  10.2176  10.3578  10.4444  10.8406  10.8867

     the Fermi energy is     8.4409 ev

     WARNING: integrated charge=   103.99797457, expected=   104.00000000

!    total energy              =   -1978.36282272 Ry
     total all-electron energy =    -38771.683667 Ry
     estimated scf accuracy    <          7.5E-09 Ry
     smearing contrib. (-TS)   =       0.00015223 Ry
     internal energy E=F+TS    =   -1978.36297495 Ry

     The total energy is F=E-TS. E is the sum of the following terms:
     one-electron contribution =   -1861.05364187 Ry
     hartree contribution      =     972.78844412 Ry
     xc contribution           =    -119.31433251 Ry
     ewald contribution        =     299.07247038 Ry
     one-center paw contrib.   =   -1269.85591508 Ry

     convergence has been achieved in  31 iterations

     Forces acting on atoms (cartesian axes, Ry/au):

     atom    1 type  2   force =     0.00000000   -0.00000000   -0.00806501
     atom    2 type  1   force =     0.00000000   -0.00000000    0.00000785
     atom    3 type  2   force =     0.00000000    0.00000000    0.01112803
     atom    4 type  2   force =     0.00000000    0.00000000    0.00934066
     atom    5 type  1   force =     0.00000000    0.00000000   -0.01484745
     atom    6 type  2   force =     0.00000000    0.00000000   -0.01756106
     atom    7 type  2   force =     0.00000000    0.00000000    0.01711473
     atom    8 type  1   force =     0.00000000    0.00000000    0.01413953
     atom    9 type  2   force =     0.00000000   -0.00000000   -0.00794925
     atom   10 type  2   force =     0.00000000    0.00000000   -0.01393450
     atom   11 type  1   force =     0.00000000    0.00000000   -0.00286329
     atom   12 type  2   force =     0.00000000   -0.00000000    0.01348977

     Total force =     0.041777     Total SCF correction =     0.000274
     Energy error            =      1.8E-03 Ry
     Gradient error          =      1.8E-02 Ry/Bohr

     number of scf cycles    =  16
     number of bfgs steps    =  15

     energy             old  =   -1978.3610259598 Ry
     energy             new  =   -1978.3628227233 Ry

     CASE: energy            _new < energy            _old

     new trust radius        =       0.4079246240 bohr
     new conv_thr            =       0.0000000018 Ry


ATOMIC_POSITIONS (crystal)
S                0.3333330000        0.6666670000       -0.1110828496
Mo               0.0000000000        0.0000000000       -0.0585753715
S                0.3333330000        0.6666670000       -0.0059857382
S                0.6666670000        0.3333330000        0.1095877730
Mo               0.3333330000        0.6666670000        0.1625271526
S                0.6666670000        0.3333330000        0.2150780921
S               -0.0000000000       -0.0000000000        0.3029282428
Mo               0.6666670000        0.3333330000        0.3555372823
S               -0.0000000000       -0.0000000000        0.4084457131
S                0.3333330000        0.6666670000        0.5265665498
Mo               0.0000000000        0.0000000000        0.5789094047
S                0.3333330000        0.6666670000        0.6310637489



     Writing config-only to output data dir ./tmp/relax/mos2_slab.save/ :
     XML data file
     NEW-OLD atomic charge density approx. for the potential
     extrapolated charge  103.99797, renormalised to  104.00000

     total cpu time spent up to now is    56928.0 secs

     Self-consistent Calculation

     iteration #  1     ecut=    80.00 Ry     beta= 0.30
     Davidson diagonalization with overlap
     c_bands:  1 eigenvalues not converged
     c_bands:  1 eigenvalues not converged
     c_bands:  1 eigenvalues not converged
     ethr =  1.00E-06,  avg # of iterations = 14.8

     total cpu time spent up to now is    57469.9 secs

     total energy              =   -1978.38081698 Ry
     estimated scf accuracy    <       0.05519481 Ry

     iteration #  2     ecut=    80.00 Ry     beta= 0.30
     Davidson diagonalization with overlap
     ethr =  5.31E-05,  avg # of iterations =  1.0

     total cpu time spent up to now is    57570.4 secs

     total energy              =   -1978.36152067 Ry
     estimated scf accuracy    <       0.03305425 Ry

     iteration #  3     ecut=    80.00 Ry     beta= 0.30
     Davidson diagonalization with overlap
     ethr =  3.18E-05,  avg # of iterations =  2.2

     total cpu time spent up to now is    57696.5 secs

     total energy              =   -1978.36507530 Ry
     estimated scf accuracy    <       0.00257000 Ry

     iteration #  4     ecut=    80.00 Ry     beta= 0.30
     Davidson diagonalization with overlap
     ethr =  2.47E-06,  avg # of iterations =  3.9

     total cpu time spent up to now is    57827.9 secs

     total energy              =   -1978.36536814 Ry
     estimated scf accuracy    <       0.00078715 Ry

     iteration #  5     ecut=    80.00 Ry     beta= 0.30
     Davidson diagonalization with overlap
     ethr =  7.57E-07,  avg # of iterations =  2.6

     total cpu time spent up to now is    57942.5 secs

     total energy              =   -1978.36542326 Ry
     estimated scf accuracy    <       0.00017050 Ry

     iteration #  6     ecut=    80.00 Ry     beta= 0.30
     Davidson diagonalization with overlap
     ethr =  1.64E-07,  avg # of iterations =  4.0

     total cpu time spent up to now is    58066.4 secs

     total energy              =   -1978.36540353 Ry
     estimated scf accuracy    <       0.00006849 Ry

     iteration #  7     ecut=    80.00 Ry     beta= 0.30
     Davidson diagonalization with overlap
     ethr =  6.59E-08,  avg # of iterations =  2.0

     total cpu time spent up to now is    58196.1 secs

     total energy              =   -1978.36541506 Ry
     estimated scf accuracy    <       0.00001622 Ry

     iteration #  8     ecut=    80.00 Ry     beta= 0.30
     Davidson diagonalization with overlap
     ethr =  1.56E-08,  avg # of iterations =  3.2

     total cpu time spent up to now is    58315.4 secs

     total energy              =   -1978.36541420 Ry
     estimated scf accuracy    <       0.00001527 Ry

     iteration #  9     ecut=    80.00 Ry     beta= 0.30
     Davidson diagonalization with overlap
     ethr =  1.47E-08,  avg # of iterations =  2.0

     total cpu time spent up to now is    58428.1 secs

     total energy              =   -1978.36541478 Ry
     estimated scf accuracy    <       0.00000727 Ry

     iteration # 10     ecut=    80.00 Ry     beta= 0.30
     Davidson diagonalization with overlap
     ethr =  6.99E-09,  avg # of iterations =  2.9

     total cpu time spent up to now is    58543.4 secs

     total energy              =   -1978.36541514 Ry
     estimated scf accuracy    <       0.00000660 Ry

     iteration # 11     ecut=    80.00 Ry     beta= 0.30
     Davidson diagonalization with overlap
     ethr =  6.35E-09,  avg # of iterations =  1.1

     total cpu time spent up to now is    58644.8 secs

     total energy              =   -1978.36541500 Ry
     estimated scf accuracy    <       0.00000473 Ry

     iteration # 12     ecut=    80.00 Ry     beta= 0.30
     Davidson diagonalization with overlap
     ethr =  4.55E-09,  avg # of iterations =  1.3

     total cpu time spent up to now is    58748.6 secs

     total energy              =   -1978.36541435 Ry
     estimated scf accuracy    <       0.00000421 Ry

     iteration # 13     ecut=    80.00 Ry     beta= 0.30
     Davidson diagonalization with overlap
     ethr =  4.05E-09,  avg # of iterations =  2.1

     total cpu time spent up to now is    58861.8 secs

     total energy              =   -1978.36541445 Ry
     estimated scf accuracy    <       0.00000187 Ry

     iteration # 14     ecut=    80.00 Ry     beta= 0.30
     Davidson diagonalization with overlap
     ethr =  1.79E-09,  avg # of iterations =  2.1

     total cpu time spent up to now is    58972.2 secs

     total energy              =   -1978.36541455 Ry
     estimated scf accuracy    <       0.00000125 Ry

     iteration # 15     ecut=    80.00 Ry     beta= 0.30
     Davidson diagonalization with overlap
     ethr =  1.20E-09,  avg # of iterations =  2.0

     total cpu time spent up to now is    59083.2 secs

     total energy              =   -1978.36541453 Ry
     estimated scf accuracy    <       0.00000097 Ry

     iteration # 16     ecut=    80.00 Ry     beta= 0.30
     Davidson diagonalization with overlap
     ethr =  9.32E-10,  avg # of iterations =  1.0

     total cpu time spent up to now is    59183.7 secs

     total energy              =   -1978.36541438 Ry
     estimated scf accuracy    <       0.00000077 Ry

     iteration # 17     ecut=    80.00 Ry     beta= 0.30
     Davidson diagonalization with overlap
     ethr =  7.42E-10,  avg # of iterations =  2.5

     total cpu time spent up to now is    59299.2 secs

     total energy              =   -1978.36541438 Ry
     estimated scf accuracy    <       0.00000066 Ry

     iteration # 18     ecut=    80.00 Ry     beta= 0.30
     Davidson diagonalization with overlap
     ethr =  6.36E-10,  avg # of iterations =  1.6

     total cpu time spent up to now is    59406.3 secs

     total energy              =   -1978.36541426 Ry
     estimated scf accuracy    <       0.00000048 Ry

     iteration # 19     ecut=    80.00 Ry     beta= 0.30
     Davidson diagonalization with overlap
     ethr =  4.57E-10,  avg # of iterations =  2.0

     total cpu time spent up to now is    59518.8 secs

     total energy              =   -1978.36541417 Ry
     estimated scf accuracy    <       0.00000032 Ry

     iteration # 20     ecut=    80.00 Ry     beta= 0.30
     Davidson diagonalization with overlap
     ethr =  3.11E-10,  avg # of iterations =  2.0

     total cpu time spent up to now is    59634.6 secs

     total energy              =   -1978.36541418 Ry
     estimated scf accuracy    <       0.00000020 Ry

     iteration # 21     ecut=    80.00 Ry     beta= 0.30
     Davidson diagonalization with overlap
     ethr =  1.97E-10,  avg # of iterations =  2.0

     total cpu time spent up to now is    59751.8 secs

     total energy              =   -1978.36541417 Ry
     estimated scf accuracy    <       0.00000011 Ry

     iteration # 22     ecut=    80.00 Ry     beta= 0.30
     Davidson diagonalization with overlap
     ethr =  1.07E-10,  avg # of iterations =  1.2

     total cpu time spent up to now is    59857.7 secs

     total energy              =   -1978.36541417 Ry
     estimated scf accuracy    <       0.00000007 Ry

     iteration # 23     ecut=    80.00 Ry     beta= 0.30
     Davidson diagonalization with overlap
     ethr =  6.98E-11,  avg # of iterations =  2.0

     total cpu time spent up to now is    59973.9 secs

     total energy              =   -1978.36541418 Ry
     estimated scf accuracy    <       0.00000005 Ry

     iteration # 24     ecut=    80.00 Ry     beta= 0.30
     Davidson diagonalization with overlap
     ethr =  4.61E-11,  avg # of iterations =  1.1

     total cpu time spent up to now is    60078.1 secs

     total energy              =   -1978.36541418 Ry
     estimated scf accuracy    <       0.00000004 Ry

     iteration # 25     ecut=    80.00 Ry     beta= 0.30
     Davidson diagonalization with overlap
     ethr =  4.06E-11,  avg # of iterations =  1.3

     total cpu time spent up to now is    60185.5 secs

     total energy              =   -1978.36541416 Ry
     estimated scf accuracy    <       0.00000003 Ry

     iteration # 26     ecut=    80.00 Ry     beta= 0.30
     Davidson diagonalization with overlap
     ethr =  3.32E-11,  avg # of iterations =  1.2

     total cpu time spent up to now is    60289.3 secs

     total energy              =   -1978.36541416 Ry
     estimated scf accuracy    <       0.00000003 Ry

     iteration # 27     ecut=    80.00 Ry     beta= 0.30
     Davidson diagonalization with overlap
     ethr =  3.11E-11,  avg # of iterations =  1.0

     total cpu time spent up to now is    60389.8 secs

     total energy              =   -1978.36541417 Ry
     estimated scf accuracy    <       0.00000003 Ry

     iteration # 28     ecut=    80.00 Ry     beta= 0.30
     Davidson diagonalization with overlap
     ethr =  3.02E-11,  avg # of iterations =  1.0

     total cpu time spent up to now is    60489.9 secs

     total energy              =   -1978.36541416 Ry
     estimated scf accuracy    <       0.00000003 Ry

     iteration # 29     ecut=    80.00 Ry     beta= 0.30
     Davidson diagonalization with overlap
     ethr =  2.86E-11,  avg # of iterations =  1.0

     total cpu time spent up to now is    60590.0 secs

     total energy              =   -1978.36541415 Ry
     estimated scf accuracy    <       0.00000002 Ry

     iteration # 30     ecut=    80.00 Ry     beta= 0.30
     Davidson diagonalization with overlap
     ethr =  2.15E-11,  avg # of iterations =  2.1

     total cpu time spent up to now is    60702.9 secs

     total energy              =   -1978.36541416 Ry
     estimated scf accuracy    <          9.8E-09 Ry

     iteration # 31     ecut=    80.00 Ry     beta= 0.30
     Davidson diagonalization with overlap
     ethr =  9.40E-12,  avg # of iterations =  2.0

     total cpu time spent up to now is    60816.8 secs

     total energy              =   -1978.36541417 Ry
     estimated scf accuracy    <          5.3E-09 Ry

     iteration # 32     ecut=    80.00 Ry     beta= 0.30
     Davidson diagonalization with overlap
     ethr =  5.13E-12,  avg # of iterations =  2.2

     total cpu time spent up to now is    60930.5 secs

     total energy              =   -1978.36541416 Ry
     estimated scf accuracy    <          3.0E-09 Ry

     iteration # 33     ecut=    80.00 Ry     beta= 0.30
     Davidson diagonalization with overlap
     ethr =  2.84E-12,  avg # of iterations =  2.0

     total cpu time spent up to now is    61043.1 secs

     End of self-consistent calculation

          k = 0.0000 0.0000 0.0000 ( 21311 PWs)   bands (ev):

   -53.5082 -53.4997 -53.3931 -53.3895 -27.6836 -27.6715 -27.5657 -27.5624
   -27.4480 -27.4480 -27.4331 -27.4331 -27.3285 -27.3285 -27.3227 -27.3226
    -6.9484  -6.8024  -6.6646  -6.5848  -5.7050  -5.4974  -5.3904  -5.2406
     1.2154   1.6450   1.7840   2.1709   4.6772   4.7330   4.7331   4.8159
     4.8159   4.9028   4.9028   4.9247   4.9247   5.3222   5.6036   5.8582
     5.8582   5.9152   5.9152   6.0155   6.0155   6.0307   6.0308   6.3418
     6.9530   7.3732   7.5174   8.1343  10.0544  10.0544  10.1366  10.1366
    10.1831  10.1833  10.2478  10.2479  10.3242  10.3245

          k = 0.0000 0.0722 0.0000 ( 21283 PWs)   bands (ev):

   -53.5066 -53.4982 -53.3916 -53.3880 -27.6805 -27.6685 -27.5627 -27.5594
   -27.4636 -27.4515 -27.4485 -27.4366 -27.3440 -27.3381 -27.3321 -27.3262
    -6.8892  -6.7429  -6.6053  -6.5262  -5.6747  -5.4726  -5.3651  -5.2180
     1.2829   1.7132   1.8522   2.2377   4.5530   4.5997   4.6779   4.7678
     4.7879   4.7957   4.8769   4.9651   4.9865   5.1014   5.2985   5.6462
     5.7615   5.8172   5.9186   5.9353   5.9953   6.0878   6.1726   6.5330
     6.9585   7.3482   7.4816   8.0051  10.0173  10.0500  10.0914  10.0955
    10.1628  10.1871  10.2048  10.2139  10.2488  10.3004

          k = 0.0000 0.1443 0.0000 ( 21263 PWs)   bands (ev):

   -53.5021 -53.4938 -53.3872 -53.3835 -27.6718 -27.6599 -27.5540 -27.5508
   -27.5078 -27.4924 -27.4616 -27.4466 -27.3880 -27.3820 -27.3421 -27.3362
    -6.7162  -6.5696  -6.4325  -6.3554  -5.5861  -5.4002  -5.2913  -5.1527
     1.4705   1.9014   2.0402   2.4191   4.2437   4.2707   4.3190   4.4199
     4.4350   4.6871   4.8404   4.9762   5.0507   5.1445   5.1536   5.1635
     5.5112   5.5664   5.6682   5.6886   6.0534   6.1923   6.3222   6.6577
     6.9362   7.2262   7.3366   7.6369   9.7368   9.8261   9.8830   9.9263
     9.9591   9.9738  10.0025  10.0914  10.1160  10.1941

          k = 0.0000 0.2165 0.0000 ( 21233 PWs)   bands (ev):

   -53.4955 -53.4872 -53.3805 -53.3769 -27.6588 -27.6470 -27.5735 -27.5574
   -27.5411 -27.5379 -27.4766 -27.4615 -27.4533 -27.4470 -27.3570 -27.3511
    -6.4435  -6.2981  -6.1614  -6.0887  -5.4465  -5.2871  -5.1758  -5.0515
     1.7247   2.1459   2.2843   2.6373   3.8215   3.8615   3.8964   3.9879
     4.0181   4.2253   4.3621   4.6165   5.1857   5.2046   5.2535   5.3302
     5.3449   5.3696   5.4182   5.4556   5.9493   6.1382   6.2729   6.5665
     6.7977   6.9475   7.0384   7.1459   9.3601   9.5110   9.6389   9.7482
     9.8348   9.8970   9.9637   9.9826  10.0260  10.0691

          k = 0.0000 0.2887 0.0000 ( 21197 PWs)   bands (ev):

   -53.4876 -53.4793 -53.3727 -53.3691 -27.6501 -27.6433 -27.6334 -27.6317
   -27.5294 -27.5258 -27.5233 -27.5223 -27.4943 -27.4791 -27.3746 -27.3686
    -6.0956  -5.9547  -5.8184  -5.7534  -5.2690  -5.1451  -5.0310  -4.9265
     1.9288   2.2880   2.4260   2.6781   3.4074   3.4916   3.5503   3.6278
     3.7054   3.7714   3.9036   4.0921   4.8588   4.8951   5.0162   5.0373
     5.5828   5.6415   5.7153   5.7448   5.7726   5.9463   6.0630   6.3248
     6.5176   6.5839   6.6773   6.7285   9.2191   9.4209   9.5710   9.5741
     9.7023   9.7941   9.8391   9.8558  10.1709  10.3417

          k = 0.0000 0.3608 0.0000 ( 21187 PWs)   bands (ev):

   -53.4797 -53.4715 -53.3648 -53.3613 -27.7258 -27.7083 -27.6278 -27.6165
   -27.6046 -27.5980 -27.5119 -27.5105 -27.5074 -27.4965 -27.3922 -27.3861
    -5.7094  -5.5792  -5.4426  -5.3908  -5.0734  -4.9920  -4.8754  -4.7958
     1.9257   2.1467   2.2819   2.3864   3.0080   3.1944   3.2711   3.3867
     3.4420   3.5233   3.6169   3.7824   4.5710   4.6070   4.7287   4.7522
     5.4665   5.7200   5.8149   5.9112   5.9422   6.0542   6.0688   6.1033
     6.2994   6.3565   6.4555   6.5089   9.3323   9.4932   9.5386   9.5836
     9.6714   9.6826   9.7204   9.9541  10.4937  10.6822

          k = 0.0000 0.4330 0.0000 ( 21140 PWs)   bands (ev):

   -53.4730 -53.4648 -53.3582 -53.3546 -27.7893 -27.7712 -27.6677 -27.6609
   -27.6146 -27.6035 -27.5268 -27.5113 -27.4974 -27.4944 -27.4070 -27.4009
    -5.3380  -5.2268  -5.0899  -5.0577  -4.8891  -4.8497  -4.7340  -4.6819
     1.7229   1.8521   1.9663   2.0182   2.6612   2.8394   2.9118   3.0058
     3.3200   3.4118   3.5236   3.6698   4.3507   4.3858   4.5085   4.5334
     5.2827   5.5385   5.6254   5.8448   6.1645   6.1896   6.3192   6.3312
     6.3772   6.3969   6.4883   6.5648   9.5149   9.5583   9.5942   9.6657
     9.6911   9.7689   9.8660  10.0889  10.7974  10.9721

          k = 0.0000 0.5052 0.0000 ( 21078 PWs)   bands (ev):

   -53.4685 -53.4604 -53.3537 -53.3501 -27.8314 -27.8129 -27.7096 -27.7026
   -27.6058 -27.5949 -27.5367 -27.5211 -27.4887 -27.4857 -27.4168 -27.4107
    -5.0536  -4.9679  -4.8361  -4.8196  -4.7634  -4.7344  -4.6360  -4.6042
     1.4977   1.6046   1.6941   1.7522   2.4197   2.5764   2.6530   2.7275
     3.2042   3.3028   3.4253   3.5533   4.2132   4.2477   4.3712   4.3968
     5.1808   5.4322   5.5184   5.7191   6.3025   6.3547   6.4934   6.5063
     6.5504   6.5872   6.6722   6.7419   9.5832   9.5945   9.7082   9.7226
     9.8872  10.0061  10.0815  10.2157  10.9892  11.1405

          k = 0.0000-0.5774 0.0000 ( 21006 PWs)   bands (ev):

   -53.4670 -53.4588 -53.3521 -53.3486 -27.8461 -27.8275 -27.7242 -27.7172
   -27.6027 -27.5918 -27.5402 -27.5246 -27.4856 -27.4826 -27.4203 -27.4142
    -4.9416  -4.8712  -4.7531  -4.7276  -4.7213  -4.6870  -4.6009  -4.5744
     1.4024   1.5099   1.5923   1.6533   2.3326   2.4819   2.5595   2.6288
     3.1542   3.2522   3.3780   3.5013   4.1666   4.2008   4.3246   4.3505
     5.1495   5.3981   5.4846   5.6769   6.3457   6.4100   6.5467   6.6082
     6.6244   6.6900   6.7661   6.8220   9.6121   9.6258   9.7362   9.7466
    10.0422  10.1079  10.2059  10.2501  11.0533  11.1866

          k = 0.0625 0.1083 0.0000 ( 21269 PWs)   bands (ev):

   -53.5036 -53.4952 -53.3886 -53.3850 -27.6746 -27.6627 -27.5568 -27.5536
   -27.4931 -27.4777 -27.4588 -27.4438 -27.3733 -27.3673 -27.3393 -27.3334
    -6.7731  -6.6265  -6.4892  -6.4114  -5.6152  -5.4239  -5.3155  -5.1741
     1.4109   1.8420   1.9810   2.3627   4.3475   4.3693   4.4324   4.5287
     4.5435   4.8164   4.9152   4.9796   4.9936   5.0840   5.1031   5.3171
     5.5472   5.6015   5.7042   5.7188   6.0951   6.2124   6.3306   6.6643
     6.9518   7.2757   7.3922   7.7569   9.8510   9.8808   9.9269   9.9706
     9.9760  10.0297  10.0780  10.1033  10.1365  10.1648

          k = 0.0625 0.1804 0.0000 ( 21194 PWs)   bands (ev):

   -53.4980 -53.4897 -53.3831 -53.3795 -27.6637 -27.6519 -27.5468 -27.5461
   -27.5428 -27.5310 -27.4726 -27.4575 -27.4267 -27.4206 -27.3530 -27.3470
    -6.5501  -6.4039  -6.2671  -6.1925  -5.5010  -5.3310  -5.2206  -5.0906
     1.6353   2.0639   2.2026   2.5708   3.9801   4.0334   4.0574   4.1473
     4.1608   4.4321   4.5750   4.8688   5.1321   5.1722   5.1850   5.2521
     5.3000   5.3118   5.3384   5.3733   6.1374   6.2832   6.4079   6.6874
     6.8763   7.0733   7.1708   7.3262   9.4638   9.5890   9.6769   9.7965
     9.8336   9.9117   9.9242   9.9714  10.0041  10.0583

          k = 0.0625 0.2526 0.0000 ( 21202 PWs)   bands (ev):

   -53.4908 -53.4825 -53.3758 -53.3722 -27.6495 -27.6379 -27.6163 -27.5998
   -27.5319 -27.5288 -27.4958 -27.4906 -27.4894 -27.4753 -27.3709 -27.3649
    -6.2392  -6.0958  -5.9594  -5.8909  -5.3418  -5.2028  -5.0899  -4.9768
     1.8757   2.2752   2.4135   2.7264   3.5973   3.6343   3.6832   3.7630
     3.8299   3.9981   4.1330   4.3437   4.8065   4.8591   4.9567   4.9875
     5.4071   5.4674   5.5695   5.5917   6.0232   6.1901   6.3021   6.5292
     6.6669   6.7421   6.8314   6.8779   9.1941   9.3821   9.4898   9.6426
     9.7499   9.8097   9.8681   9.8971   9.9885  10.0952

          k = 0.0625 0.3248 0.0000 ( 21194 PWs)   bands (ev):

   -53.4829 -53.4746 -53.3680 -53.3644 -27.6906 -27.6734 -27.6340 -27.6226
   -27.5696 -27.5631 -27.5166 -27.5135 -27.5100 -27.4946 -27.3902 -27.3842
    -5.8707  -5.7349  -5.5985  -5.5403  -5.1537  -5.0539  -4.9383  -4.8475
     1.9844   2.2744   2.4128   2.5807   3.2193   3.3502   3.4695   3.4830
     3.5862   3.6162   3.7285   3.8751   4.5090   4.5593   4.6623   4.7115
     5.6518   5.6767   5.7672   5.8097   5.8469   5.9749   6.0684   6.2698
     6.4332   6.4670   6.5684   6.6002   9.1507   9.3560   9.4411   9.5672
     9.6903   9.7637   9.8100   9.9296  10.2311  10.3933

          k = 0.0625 0.3969 0.0000 ( 21151 PWs)   bands (ev):

   -53.4756 -53.4674 -53.3607 -53.3572 -27.7585 -27.7408 -27.6372 -27.6304
   -27.6197 -27.6085 -27.5279 -27.5124 -27.5024 -27.4994 -27.4080 -27.4020
    -5.4887  -5.3678  -5.2310  -5.1895  -4.9608  -4.9043  -4.7874  -4.7233
     1.8675   2.0331   2.1617   2.2267   2.8365   3.0054   3.0716   3.1744
     3.4027   3.4835   3.5859   3.7353   4.3114   4.3553   4.4678   4.5135
     5.5179   5.7238   5.7853   5.8048   5.8271   5.9261   5.9602   6.0479
     6.4439   6.4796   6.5740   6.6035   9.2831   9.4505   9.5155   9.6102
     9.7377   9.8125   9.8612  10.0283  10.5598  10.7293

          k = 0.0625 0.4691 0.0000 ( 21105 PWs)   bands (ev):

   -53.4700 -53.4618 -53.3551 -53.3516 -27.8101 -27.7918 -27.6884 -27.6815
   -27.6087 -27.5977 -27.5415 -27.5259 -27.4915 -27.4885 -27.4216 -27.4155
    -5.1553  -5.0575  -4.9217  -4.9017  -4.8005  -4.7737  -4.6650  -4.6261
     1.6445   1.7597   1.8604   1.9139   2.5192   2.6589   2.7363   2.8110
     3.2759   3.3788   3.4969   3.6260   4.2016   4.2346   4.3547   4.3836
     5.3192   5.5325   5.6129   5.7809   5.9086   5.9512   6.0794   6.1287
     6.6187   6.6579   6.7491   6.7875   9.4853   9.5710   9.6403   9.6962
     9.8750   9.9529  10.0181  10.1593  10.8618  11.0164

          k = 0.0625 0.5413 0.0000 ( 21084 PWs)   bands (ev):

   -53.4670 -53.4588 -53.3521 -53.3486 -27.8378 -27.8193 -27.7159 -27.7090
   -27.6027 -27.5918 -27.5489 -27.5332 -27.4856 -27.4827 -27.4289 -27.4228
    -4.9493  -4.8756  -4.7554  -4.7311  -4.7192  -4.6837  -4.5976  -4.5702
     1.4811   1.5906   1.6736   1.7349   2.3392   2.4645   2.5466   2.6112
     3.1808   3.2860   3.4110   3.5323   4.1556   4.1803   4.3080   4.3178
     5.2087   5.4291   5.5126   5.6822   5.9790   6.0528   6.1813   6.2274
     6.7729   6.8136   6.9078   6.9502   9.6102   9.6300   9.7203   9.7415
    10.0422  10.1110  10.1982  10.2667  11.0732  11.1834

          k = 0.1250 0.2165 0.0000 ( 21179 PWs)   bands (ev):

   -53.4919 -53.4836 -53.3769 -53.3733 -27.6517 -27.6400 -27.6022 -27.5858
   -27.5341 -27.5309 -27.4914 -27.4818 -27.4762 -27.4755 -27.3718 -27.3658
    -6.2885  -6.1444  -6.0079  -5.9382  -5.3666  -5.2225  -5.1100  -4.9940
     1.8549   2.2673   2.4059   2.7396   3.6695   3.6997   3.7735   3.8221
     3.8934   4.1533   4.2903   4.5268   4.6656   4.7296   4.8157   4.8527
     5.3275   5.3854   5.4896   5.5081   6.2165   6.3532   6.4577   6.6475
     6.7421   6.8111   6.9049   6.9367   9.1767   9.3587   9.4525   9.6273
     9.7181   9.8126   9.8303   9.8750   9.9257   9.9617

          k = 0.1250 0.2887 0.0000 ( 21199 PWs)   bands (ev):

   -53.4846 -53.4763 -53.3697 -53.3661 -27.6658 -27.6488 -27.6374 -27.6260
   -27.5450 -27.5385 -27.5199 -27.5168 -27.5148 -27.4994 -27.3950 -27.3890
    -5.9554  -5.8170  -5.6807  -5.6196  -5.1954  -5.0859  -4.9708  -4.8743
     2.0199   2.3589   2.4986   2.7223   3.4133   3.4504   3.5439   3.6108
     3.7056   3.7717   3.9053   4.0037   4.2627   4.3232   4.4218   4.5652
     5.4422   5.4649   5.5925   5.6068   6.1331   6.2665   6.3452   6.4842
     6.5445   6.5507   6.6446   6.6702   9.0123   9.2278   9.3285   9.5072
     9.7275   9.8037   9.8344   9.8889  10.0014  10.1070

          k = 0.1250 0.3608 0.0000 ( 21195 PWs)   bands (ev):

   -53.4773 -53.4691 -53.3624 -53.3589 -27.7283 -27.7108 -27.6231 -27.6118
   -27.6071 -27.6004 -27.5386 -27.5230 -27.5058 -27.5027 -27.4187 -27.4126
    -5.5871  -5.4605  -5.3239  -5.2768  -5.0063  -4.9375  -4.8207  -4.7483
     2.0058   2.2194   2.3571   2.4569   3.0565   3.1754   3.2261   3.3379
     3.5075   3.5637   3.6544   3.7657   4.0681   4.1583   4.2784   4.4359
     5.3822   5.4036   5.5335   5.5497   5.8988   6.0329   6.0950   6.2202
     6.4976   6.5101   6.6277   6.6437   9.0457   9.2749   9.3855   9.5812
     9.8134   9.8770   9.9179   9.9911  10.2280  10.3731

          k = 0.1250 0.4330 0.0000 ( 21113 PWs)   bands (ev):

   -53.4711 -53.4629 -53.3563 -53.3527 -27.7806 -27.7626 -27.6591 -27.6523
   -27.6109 -27.5999 -27.5588 -27.5431 -27.4937 -27.4907 -27.4388 -27.4327
    -5.2351  -5.1283  -4.9917  -4.9652  -4.8287  -4.7972  -4.6838  -4.6375
     1.8484   1.9884   2.1086   2.1586   2.6517   2.7341   2.8087   2.8799
     3.3901   3.5055   3.6157   3.7201   4.0291   4.1214   4.2394   4.3540
     5.3040   5.3727   5.4881   5.5239   5.6428   5.7502   5.8220   5.9383
     6.6340   6.6586   6.7685   6.7890   9.2547   9.4655   9.5721   9.7487
     9.9287   9.9735  10.0455  10.0942  10.5171  10.6662

          k = 0.1250 0.5052 0.0000 ( 21081 PWs)   bands (ev):

   -53.4670 -53.4588 -53.3521 -53.3486 -27.8153 -27.7970 -27.6936 -27.6867
   -27.6028 -27.5918 -27.5724 -27.5565 -27.4857 -27.4827 -27.4523 -27.4461
    -4.9671  -4.8862  -4.7616  -4.7409  -4.7124  -4.6770  -4.5891  -4.5598
     1.6853   1.8053   1.8951   1.9533   2.3593   2.4249   2.5163   2.5707
     3.2601   3.3883   3.5104   3.6165   4.0683   4.1378   4.2520   4.3081
     5.2551   5.3988   5.4295   5.5130   5.5534   5.6003   5.6300   5.7398
     6.8229   6.8540   6.9592   6.9942   9.4914   9.5962   9.6752   9.7519
    10.0813  10.1388  10.2181  10.2960  10.7419  10.9101

          k = 0.1250 0.5774 0.0000 ( 21108 PWs)   bands (ev):

   -53.4655 -53.4574 -53.3507 -53.3471 -27.8275 -27.8090 -27.7057 -27.6988
   -27.5999 -27.5890 -27.5771 -27.5612 -27.4828 -27.4799 -27.4570 -27.4508
    -4.8614  -4.7964  -4.6916  -4.6718  -4.6520  -4.6308  -4.5539  -4.5290
     1.6174   1.7367   1.8137   1.8797   2.2550   2.3161   2.4123   2.4624
     3.2017   3.3262   3.4518   3.5616   4.1132   4.1525   4.2585   4.2945
     5.1962   5.3891   5.4271   5.4570   5.5124   5.5785   5.6135   5.7016
     6.9157   6.9513   7.0568   7.1002   9.5791   9.6011   9.6831   9.7112
    10.1831  10.2572  10.3446  10.3858  10.8114  11.0427

          k = 0.1875 0.3248 0.0000 ( 21195 PWs)   bands (ev):

   -53.4779 -53.4697 -53.3630 -53.3595 -27.7147 -27.6973 -27.6243 -27.6130
   -27.5935 -27.5869 -27.5454 -27.5297 -27.5069 -27.5039 -27.4254 -27.4193
    -5.6212  -5.4927  -5.3563  -5.3073  -5.0218  -4.9486  -4.8319  -4.7566
     2.0635   2.3015   2.4421   2.5639   3.2050   3.2647   3.3127   3.4277
     3.5573   3.5748   3.7013   3.7258   3.9441   4.0379   4.1712   4.4045
     5.2064   5.2293   5.3584   5.3760   6.0531   6.1790   6.2219   6.3261
     6.5044   6.5132   6.6372   6.6606   8.9548   9.2023   9.3276   9.5613
     9.8280   9.8908   9.9198   9.9741  10.0935  10.2134

          k = 0.1875 0.3969 0.0000 ( 21153 PWs)   bands (ev):

   -53.4717 -53.4635 -53.3569 -53.3533 -27.7568 -27.7389 -27.6354 -27.6286
   -27.6121 -27.6010 -27.5763 -27.5604 -27.4949 -27.4919 -27.4562 -27.4500
    -5.2789  -5.1671  -5.0306  -5.0002  -4.8439  -4.8077  -4.6929  -4.6419
     1.9993   2.1671   2.3013   2.3637   2.7720   2.7948   2.8576   2.9333
     3.4819   3.6258   3.7218   3.7703   3.9421   4.0266   4.1555   4.3673
     4.8810   4.9226   5.0500   5.0776   5.8049   5.9175   5.9950   6.0513
     6.6062   6.6253   6.7436   6.7804   9.1036   9.3678   9.5064   9.7962
     9.9626   9.9706  10.0655  10.0879  10.2599  10.3932

          k = 0.1875 0.4691 0.0000 ( 21101 PWs)   bands (ev):

   -53.4670 -53.4588 -53.3521 -53.3486 -27.7874 -27.7693 -27.6658 -27.6590
   -27.6028 -27.6013 -27.5919 -27.5852 -27.4857 -27.4827 -27.4811 -27.4748
    -4.9840  -4.8966  -4.7683  -4.7504  -4.7054  -4.6713  -4.5803  -4.5489
     1.9124   2.0578   2.1688   2.2143   2.3778   2.3937   2.4919   2.5344
     3.3930   3.5665   3.6754   3.7184   3.9807   4.0949   4.2108   4.3398
     4.6712   4.7732   4.8977   4.9756   5.5229   5.6245   5.7176   5.7717
     6.8055   6.8300   6.9416   6.9694   9.3333   9.5132   9.6089   9.7560
    10.1212  10.1725  10.2491  10.3236  10.4483  10.5527

          k = 0.1875 0.5413 0.0000 ( 21112 PWs)   bands (ev):

   -53.4644 -53.4563 -53.3496 -53.3460 -27.8034 -27.7852 -27.6818 -27.6749
   -27.6153 -27.5991 -27.5977 -27.5869 -27.4950 -27.4887 -27.4807 -27.4777
    -4.8023  -4.7405  -4.6481  -4.6284  -4.5973  -4.5850  -4.5150  -4.4911
     1.8576   2.0067   2.0796   2.1508   2.1646   2.1819   2.2930   2.3222
     3.2693   3.4198   3.5446   3.6279   4.0844   4.1816   4.2719   4.3334
     4.6067   4.7563   4.8781   4.9605   5.3539   5.4238   5.5056   5.5768
     6.9917   7.0184   7.1282   7.1648   9.4296   9.4683   9.5585   9.5999
    10.2787  10.3923  10.4669  10.5370  10.5662  10.6557

          k = 0.2500 0.4330 0.0000 ( 21125 PWs)   bands (ev):

   -53.4670 -53.4588 -53.3521 -53.3486 -27.7728 -27.7548 -27.6513 -27.6445
   -27.6163 -27.6028 -27.6001 -27.5919 -27.4960 -27.4897 -27.4857 -27.4827
    -4.9907  -4.9009  -4.7714  -4.7542  -4.7024  -4.6691  -4.5766  -4.5443
     2.0148   2.1773   2.3020   2.3325   2.3716   2.3976   2.4964   2.5197
     3.5141   3.6871   3.7588   3.8359   4.0009   4.0835   4.2020   4.3862
     4.4039   4.4357   4.5479   4.5526   5.5633   5.6670   5.7781   5.8012
     6.7885   6.8131   6.9249   6.9561   9.2669   9.4716   9.5754   9.7472
    10.1325  10.1730  10.2567  10.3233  10.3430  10.4180

          k = 0.2500 0.5052 0.0000 ( 21117 PWs)   bands (ev):

   -53.4638 -53.4557 -53.3490 -53.3454 -27.7776 -27.7595 -27.6560 -27.6492
   -27.6489 -27.6325 -27.5966 -27.5857 -27.5285 -27.5222 -27.4795 -27.4766
    -4.7742  -4.7122  -4.6247  -4.6038  -4.5693  -4.5581  -4.4922  -4.4684
     2.0134   2.0767   2.1336   2.2241   2.2329   2.2780   2.3864   2.4353
     3.4074   3.5887   3.6723   3.7125   3.9688   4.1171   4.1479   4.2110
     4.2676   4.3196   4.3917   4.4858   5.3109   5.3956   5.5040   5.5614
     7.0296   7.0537   7.1636   7.1883   9.2942   9.3507   9.4435   9.5042
    10.2332  10.2915  10.4137  10.4272  10.5523  10.5972

          k = 0.2500 0.5774 0.0000 ( 21116 PWs)   bands (ev):

   -53.4627 -53.4546 -53.3479 -53.3443 -27.7775 -27.7593 -27.6622 -27.6559
   -27.6490 -27.6457 -27.5944 -27.5836 -27.5417 -27.5354 -27.4774 -27.4744
    -4.6868  -4.6435  -4.5877  -4.5574  -4.5352  -4.4977  -4.4550  -4.4362
     1.9495   1.9728   2.0441   2.1221   2.2857   2.3447   2.4155   2.4825
     3.2911   3.4266   3.5514   3.5963   3.8704   4.1070   4.1725   4.2428
     4.2923   4.3830   4.4358   4.4825   5.2180   5.2610   5.3708   5.4328
     7.1582   7.1800   7.2906   7.3192   9.2202   9.2535   9.3515   9.3627
    10.2314  10.3272  10.4193  10.4635  10.7164  10.7481

          k = 0.3125 0.5413 0.0000 ( 21100 PWs)   bands (ev):

   -53.4621 -53.4540 -53.3473 -53.3437 -27.7564 -27.7382 -27.6907 -27.6742
   -27.6348 -27.6279 -27.5932 -27.5824 -27.5701 -27.5638 -27.4762 -27.4733
    -4.6437  -4.6097  -4.5670  -4.5316  -4.5207  -4.4636  -4.4325  -4.4143
     1.9010   1.9051   1.9909   2.0524   2.4651   2.5799   2.6684   2.7216
     3.2783   3.3568   3.3670   3.4935   3.7741   3.8361   3.9286   3.9570
     4.3459   4.3957   4.4898   4.5265   5.1125   5.1815   5.2946   5.3821
     7.2401   7.2590   7.3708   7.3906   9.1016   9.1417   9.2378   9.2518
    10.1843  10.2282  10.3291  10.3820  10.8178  10.8563

     the Fermi energy is     8.4253 ev

!    total energy              =   -1978.36541415 Ry
     total all-electron energy =    -38771.686259 Ry
     estimated scf accuracy    <          1.2E-09 Ry
     smearing contrib. (-TS)   =       0.00013414 Ry
     internal energy E=F+TS    =   -1978.36554829 Ry

     The total energy is F=E-TS. E is the sum of the following terms:
     one-electron contribution =   -1616.10044837 Ry
     hartree contribution      =     850.33032135 Ry
     xc contribution           =    -119.24062575 Ry
     ewald contribution        =     176.49539913 Ry
     one-center paw contrib.   =   -1269.85019466 Ry

     convergence has been achieved in  33 iterations

     Forces acting on atoms (cartesian axes, Ry/au):

     atom    1 type  2   force =     0.00000000   -0.00000000    0.00259410
     atom    2 type  1   force =     0.00000000    0.00000000    0.00148703
     atom    3 type  2   force =     0.00000000    0.00000000   -0.00062743
     atom    4 type  2   force =     0.00000000    0.00000000    0.00674764
     atom    5 type  1   force =     0.00000000   -0.00000000   -0.00726707
     atom    6 type  2   force =     0.00000000   -0.00000000   -0.01398639
     atom    7 type  2   force =     0.00000000    0.00000000    0.01311280
     atom    8 type  1   force =     0.00000000    0.00000000    0.00877507
     atom    9 type  2   force =     0.00000000    0.00000000   -0.00726714
     atom   10 type  2   force =     0.00000000    0.00000000   -0.00509925
     atom   11 type  1   force =     0.00000000    0.00000000   -0.00333089
     atom   12 type  2   force =     0.00000000    0.00000000    0.00486151

     Total force =     0.025803     Total SCF correction =     0.000162
     Energy error            =      2.6E-03 Ry
     Gradient error          =      1.4E-02 Ry/Bohr

     number of scf cycles    =  17
     number of bfgs steps    =  16

     energy             old  =   -1978.3628227233 Ry
     energy             new  =   -1978.3654141497 Ry

     CASE: energy            _new < energy            _old

     new trust radius        =       0.1816088965 bohr
     new conv_thr            =       0.0000000026 Ry


ATOMIC_POSITIONS (crystal)
S                0.3333330000        0.6666670000       -0.1142165037
Mo               0.0000000000        0.0000000000       -0.0615982000
S                0.3333330000        0.6666670000       -0.0088922135
S                0.6666670000        0.3333330000        0.1083897747
Mo               0.3333330000        0.6666670000        0.1610528389
S                0.6666670000        0.3333330000        0.2135745574
S               -0.0000000000       -0.0000000000        0.3044583784
Mo               0.6666670000        0.3333330000        0.3569723882
S               -0.0000000000       -0.0000000000        0.4096736748
S                0.3333330000        0.6666670000        0.5294186559
Mo               0.0000000000        0.0000000000        0.5818994571
S                0.3333330000        0.6666670000        0.6342671919



     Writing config-only to output data dir ./tmp/relax/mos2_slab.save/ :
     XML data file
     NEW-OLD atomic charge density approx. for the potential

     total cpu time spent up to now is    61098.3 secs

     Self-consistent Calculation

     iteration #  1     ecut=    80.00 Ry     beta= 0.30
     Davidson diagonalization with overlap
     c_bands:  1 eigenvalues not converged
     ethr =  1.00E-06,  avg # of iterations = 11.4

     total cpu time spent up to now is    61529.7 secs

     total energy              =   -1978.36824811 Ry
     estimated scf accuracy    <       0.01139538 Ry

     iteration #  2     ecut=    80.00 Ry     beta= 0.30
     Davidson diagonalization with overlap
     ethr =  1.10E-05,  avg # of iterations =  1.0

     total cpu time spent up to now is    61630.4 secs

     total energy              =   -1978.36582040 Ry
     estimated scf accuracy    <       0.00688251 Ry

     iteration #  3     ecut=    80.00 Ry     beta= 0.30
     Davidson diagonalization with overlap
     ethr =  6.62E-06,  avg # of iterations =  3.1

     total cpu time spent up to now is    61751.4 secs

     total energy              =   -1978.36646664 Ry
     estimated scf accuracy    <       0.00026302 Ry

     iteration #  4     ecut=    80.00 Ry     beta= 0.30
     Davidson diagonalization with overlap
     ethr =  2.53E-07,  avg # of iterations =  3.2

     total cpu time spent up to now is    61888.7 secs

     total energy              =   -1978.36652877 Ry
     estimated scf accuracy    <       0.00008792 Ry

     iteration #  5     ecut=    80.00 Ry     beta= 0.30
     Davidson diagonalization with overlap
     ethr =  8.45E-08,  avg # of iterations =  3.1

     total cpu time spent up to now is    62005.4 secs

     total energy              =   -1978.36653343 Ry
     estimated scf accuracy    <       0.00002034 Ry

     iteration #  6     ecut=    80.00 Ry     beta= 0.30
     Davidson diagonalization with overlap
     ethr =  1.96E-08,  avg # of iterations =  4.2

     total cpu time spent up to now is    62125.0 secs

     total energy              =   -1978.36653515 Ry
     estimated scf accuracy    <       0.00000558 Ry

     iteration #  7     ecut=    80.00 Ry     beta= 0.30
     Davidson diagonalization with overlap
     ethr =  5.36E-09,  avg # of iterations =  2.3

     total cpu time spent up to now is    62249.3 secs

     total energy              =   -1978.36653580 Ry
     estimated scf accuracy    <       0.00000309 Ry

     iteration #  8     ecut=    80.00 Ry     beta= 0.30
     Davidson diagonalization with overlap
     ethr =  2.97E-09,  avg # of iterations =  2.0

     total cpu time spent up to now is    62359.7 secs

     total energy              =   -1978.36653564 Ry
     estimated scf accuracy    <       0.00000256 Ry

     iteration #  9     ecut=    80.00 Ry     beta= 0.30
     Davidson diagonalization with overlap
     ethr =  2.47E-09,  avg # of iterations =  1.6

     total cpu time spent up to now is    62466.4 secs

     total energy              =   -1978.36653575 Ry
     estimated scf accuracy    <       0.00000168 Ry

     iteration # 10     ecut=    80.00 Ry     beta= 0.30
     Davidson diagonalization with overlap
     ethr =  1.62E-09,  avg # of iterations =  2.3

     total cpu time spent up to now is    62581.7 secs

     total energy              =   -1978.36653576 Ry
     estimated scf accuracy    <       0.00000187 Ry

     iteration # 11     ecut=    80.00 Ry     beta= 0.30
     Davidson diagonalization with overlap
     ethr =  1.62E-09,  avg # of iterations =  1.1

     total cpu time spent up to now is    62683.2 secs

     total energy              =   -1978.36653568 Ry
     estimated scf accuracy    <       0.00000113 Ry

     iteration # 12     ecut=    80.00 Ry     beta= 0.30
     Davidson diagonalization with overlap
     ethr =  1.09E-09,  avg # of iterations =  2.0

     total cpu time spent up to now is    62794.8 secs

     total energy              =   -1978.36653569 Ry
     estimated scf accuracy    <       0.00000101 Ry

     iteration # 13     ecut=    80.00 Ry     beta= 0.30
     Davidson diagonalization with overlap
     ethr =  9.67E-10,  avg # of iterations =  1.0

     total cpu time spent up to now is    62895.0 secs

     total energy              =   -1978.36653562 Ry
     estimated scf accuracy    <       0.00000070 Ry

     iteration # 14     ecut=    80.00 Ry     beta= 0.30
     Davidson diagonalization with overlap
     ethr =  6.76E-10,  avg # of iterations =  2.2

     total cpu time spent up to now is    63013.2 secs

     total energy              =   -1978.36653563 Ry
     estimated scf accuracy    <       0.00000041 Ry

     iteration # 15     ecut=    80.00 Ry     beta= 0.30
     Davidson diagonalization with overlap
     ethr =  3.91E-10,  avg # of iterations =  1.2

     total cpu time spent up to now is    63115.9 secs

     total energy              =   -1978.36653564 Ry
     estimated scf accuracy    <       0.00000023 Ry

     iteration # 16     ecut=    80.00 Ry     beta= 0.30
     Davidson diagonalization with overlap
     ethr =  2.26E-10,  avg # of iterations =  1.2

     total cpu time spent up to now is    63218.9 secs

     total energy              =   -1978.36653562 Ry
     estimated scf accuracy    <       0.00000021 Ry

     iteration # 17     ecut=    80.00 Ry     beta= 0.30
     Davidson diagonalization with overlap
     ethr =  2.00E-10,  avg # of iterations =  1.3

     total cpu time spent up to now is    63322.8 secs

     total energy              =   -1978.36653559 Ry
     estimated scf accuracy    <       0.00000017 Ry

     iteration # 18     ecut=    80.00 Ry     beta= 0.30
     Davidson diagonalization with overlap
     ethr =  1.59E-10,  avg # of iterations =  2.0

     total cpu time spent up to now is    63435.7 secs

     total energy              =   -1978.36653553 Ry
     estimated scf accuracy    <       0.00000016 Ry

     iteration # 19     ecut=    80.00 Ry     beta= 0.30
     Davidson diagonalization with overlap
     ethr =  1.54E-10,  avg # of iterations =  2.1

     total cpu time spent up to now is    63548.2 secs

     total energy              =   -1978.36653553 Ry
     estimated scf accuracy    <       0.00000006 Ry

     iteration # 20     ecut=    80.00 Ry     beta= 0.30
     Davidson diagonalization with overlap
     ethr =  5.83E-11,  avg # of iterations =  2.5

     total cpu time spent up to now is    63662.4 secs

     total energy              =   -1978.36653555 Ry
     estimated scf accuracy    <       0.00000005 Ry

     iteration # 21     ecut=    80.00 Ry     beta= 0.30
     Davidson diagonalization with overlap
     ethr =  4.85E-11,  avg # of iterations =  2.1

     total cpu time spent up to now is    63777.7 secs

     total energy              =   -1978.36653555 Ry
     estimated scf accuracy    <       0.00000003 Ry

     iteration # 22     ecut=    80.00 Ry     beta= 0.30
     Davidson diagonalization with overlap
     ethr =  2.84E-11,  avg # of iterations =  1.3

     total cpu time spent up to now is    63881.4 secs

     total energy              =   -1978.36653556 Ry
     estimated scf accuracy    <       0.00000002 Ry

     iteration # 23     ecut=    80.00 Ry     beta= 0.30
     Davidson diagonalization with overlap
     ethr =  2.01E-11,  avg # of iterations =  2.0

     total cpu time spent up to now is    63993.8 secs

     total energy              =   -1978.36653556 Ry
     estimated scf accuracy    <       0.00000002 Ry

     iteration # 24     ecut=    80.00 Ry     beta= 0.30
     Davidson diagonalization with overlap
     ethr =  1.76E-11,  avg # of iterations =  1.0

     total cpu time spent up to now is    64093.9 secs

     total energy              =   -1978.36653555 Ry
     estimated scf accuracy    <       0.00000001 Ry

     iteration # 25     ecut=    80.00 Ry     beta= 0.30
     Davidson diagonalization with overlap
     ethr =  1.37E-11,  avg # of iterations =  1.0

     total cpu time spent up to now is    64194.3 secs

     total energy              =   -1978.36653555 Ry
     estimated scf accuracy    <       0.00000001 Ry

     iteration # 26     ecut=    80.00 Ry     beta= 0.30
     Davidson diagonalization with overlap
     ethr =  1.34E-11,  avg # of iterations =  1.0

     total cpu time spent up to now is    64294.5 secs

     total energy              =   -1978.36653555 Ry
     estimated scf accuracy    <       0.00000001 Ry

     iteration # 27     ecut=    80.00 Ry     beta= 0.30
     Davidson diagonalization with overlap
     ethr =  1.29E-11,  avg # of iterations =  1.0

     total cpu time spent up to now is    64395.3 secs

     total energy              =   -1978.36653555 Ry
     estimated scf accuracy    <       0.00000001 Ry

     iteration # 28     ecut=    80.00 Ry     beta= 0.30
     Davidson diagonalization with overlap
     ethr =  1.27E-11,  avg # of iterations =  1.0

     total cpu time spent up to now is    64495.7 secs

     total energy              =   -1978.36653555 Ry
     estimated scf accuracy    <       0.00000001 Ry

     iteration # 29     ecut=    80.00 Ry     beta= 0.30
     Davidson diagonalization with overlap
     ethr =  1.26E-11,  avg # of iterations =  1.0

     total cpu time spent up to now is    64596.1 secs

     total energy              =   -1978.36653555 Ry
     estimated scf accuracy    <       0.00000001 Ry

     iteration # 30     ecut=    80.00 Ry     beta= 0.30
     Davidson diagonalization with overlap
     ethr =  1.19E-11,  avg # of iterations =  1.1

     total cpu time spent up to now is    64698.0 secs

     total energy              =   -1978.36653555 Ry
     estimated scf accuracy    <       0.00000001 Ry

     iteration # 31     ecut=    80.00 Ry     beta= 0.30
     Davidson diagonalization with overlap
     ethr =  1.08E-11,  avg # of iterations =  2.0

     total cpu time spent up to now is    64810.0 secs

     total energy              =   -1978.36653555 Ry
     estimated scf accuracy    <          9.3E-09 Ry

     iteration # 32     ecut=    80.00 Ry     beta= 0.30
     Davidson diagonalization with overlap
     ethr =  8.97E-12,  avg # of iterations =  1.0

     total cpu time spent up to now is    64910.3 secs

     total energy              =   -1978.36653555 Ry
     estimated scf accuracy    <          7.7E-09 Ry

     iteration # 33     ecut=    80.00 Ry     beta= 0.30
     Davidson diagonalization with overlap
     ethr =  7.41E-12,  avg # of iterations =  1.7

     total cpu time spent up to now is    65016.9 secs

     total energy              =   -1978.36653555 Ry
     estimated scf accuracy    <          6.0E-09 Ry

     iteration # 34     ecut=    80.00 Ry     beta= 0.30
     Davidson diagonalization with overlap
     ethr =  5.77E-12,  avg # of iterations =  2.0

     total cpu time spent up to now is    65130.9 secs

     total energy              =   -1978.36653555 Ry
     estimated scf accuracy    <          4.8E-09 Ry

     iteration # 35     ecut=    80.00 Ry     beta= 0.30
     Davidson diagonalization with overlap
     ethr =  4.60E-12,  avg # of iterations =  2.2

     total cpu time spent up to now is    65244.3 secs

     End of self-consistent calculation

          k = 0.0000 0.0000 0.0000 ( 21311 PWs)   bands (ev):

   -53.4991 -53.4988 -53.4031 -53.4008 -27.6728 -27.6720 -27.5770 -27.5722
   -27.4362 -27.4362 -27.4339 -27.4339 -27.3382 -27.3382 -27.3345 -27.3345
    -6.9171  -6.7740  -6.6634  -6.6124  -5.6765  -5.4877  -5.3970  -5.2713
     1.2561   1.6689   1.7905   2.1207   4.7126   4.7747   4.7747   4.7945
     4.7945   4.8884   4.8884   4.9162   4.9162   5.3238   5.5882   5.8923
     5.8923   5.9008   5.9008   5.9985   5.9986   6.0251   6.0251   6.3042
     6.9573   7.3476   7.4921   8.0474  10.0787  10.0787  10.1461  10.1462
    10.1934  10.1936  10.2417  10.2418  10.3307  10.3311

          k = 0.0000 0.0722 0.0000 ( 21283 PWs)   bands (ev):

   -53.4975 -53.4973 -53.4015 -53.3992 -27.6697 -27.6689 -27.5739 -27.5692
   -27.4518 -27.4494 -27.4398 -27.4375 -27.3537 -27.3500 -27.3417 -27.3380
    -6.8577  -6.7146  -6.6042  -6.5535  -5.6472  -5.4625  -5.3715  -5.2487
     1.3240   1.7374   1.8590   2.1879   4.5843   4.6405   4.6576   4.7524
     4.7809   4.8371   4.8561   4.9505   4.9784   5.1071   5.2930   5.6192
     5.7953   5.8033   5.9026   5.9286   5.9983   6.0825   6.1744   6.5110
     6.9621   7.3256   7.4577   7.9359  10.0288  10.0583  10.1079  10.1286
    10.1548  10.1810  10.2066  10.2279  10.2569  10.2602

          k = 0.0000 0.1443 0.0000 ( 21263 PWs)   bands (ev):

   -53.4931 -53.4928 -53.3971 -53.3948 -27.6611 -27.6603 -27.5653 -27.5606
   -27.4959 -27.4934 -27.4498 -27.4475 -27.3977 -27.3938 -27.3518 -27.3480
    -6.6842  -6.5416  -6.4316  -6.3821  -5.5616  -5.3894  -5.2973  -5.1829
     1.5125   1.9266   2.0478   2.3708   4.2747   4.2996   4.3044   4.4025
     4.4321   4.6970   4.8363   5.0170   5.0323   5.1175   5.1290   5.1577
     5.5443   5.5525   5.6540   5.6789   6.0512   6.1975   6.3198   6.6442
     6.9386   7.2125   7.3170   7.6033   9.7397   9.8217   9.8771   9.9197
     9.9796   9.9953   9.9964  10.0836  10.1145  10.1886

          k = 0.0000 0.2165 0.0000 ( 21233 PWs)   bands (ev):

   -53.4864 -53.4862 -53.3905 -53.3882 -27.6481 -27.6474 -27.5613 -27.5586
   -27.5524 -27.5477 -27.4648 -27.4630 -27.4624 -27.4589 -27.3667 -27.3630
    -6.4111  -6.2703  -6.1609  -6.1140  -5.4269  -5.2750  -5.1812  -5.0806
     1.7678   2.1735   2.2932   2.5921   3.8440   3.8658   3.9045   3.9807
     4.0155   4.2378   4.3564   4.5767   5.2038   5.2220   5.2912   5.3062
     5.3407   5.3551   5.4096   5.4321   5.9531   6.1419   6.2670   6.5551
     6.8003   6.9453   7.0243   7.1337   9.3613   9.5028   9.6235   9.7822
     9.8304   9.8973   9.9601   9.9730  10.0169  10.0686

          k = 0.0000 0.2887 0.0000 ( 21197 PWs)   bands (ev):

   -53.4786 -53.4784 -53.3826 -53.3804 -27.6376 -27.6347 -27.6327 -27.6321
   -27.5391 -27.5370 -27.5349 -27.5325 -27.4824 -27.4800 -27.3843 -27.3805
    -6.0631  -5.9272  -5.8187  -5.7766  -5.2559  -5.1315  -5.0357  -4.9540
     1.9697   2.3201   2.4354   2.6422   3.4194   3.5003   3.5707   3.6266
     3.7082   3.7779   3.8927   4.0476   4.8849   4.8961   5.0034   5.0281
     5.6175   5.6276   5.7260   5.7342   5.7585   5.9463   6.0557   6.3120
     6.5238   6.5899   6.6658   6.7152   9.2232   9.4130   9.5554   9.6026
     9.7053   9.7849   9.8280   9.8442  10.1687  10.3349

          k = 0.0000 0.3608 0.0000 ( 21187 PWs)   bands (ev):

   -53.4707 -53.4705 -53.3748 -53.3725 -27.7130 -27.7099 -27.6173 -27.6167
   -27.6143 -27.6099 -27.5217 -27.5172 -27.5000 -27.4975 -27.4018 -27.3980
    -5.6776  -5.5516  -5.4447  -5.4099  -5.0682  -4.9771  -4.8793  -4.8205
     1.9564   2.1805   2.2861   2.3696   3.0262   3.2123   3.2837   3.3887
     3.4523   3.5199   3.6076   3.7403   4.5960   4.6088   4.7170   4.7411
     5.4820   5.7178   5.8076   5.9283   5.9510   6.0393   6.0629   6.0846
     6.3053   6.3636   6.4455   6.4917   9.3388   9.5132   9.5326   9.5902
     9.6587   9.6745   9.7082   9.9389  10.4932  10.6715

          k = 0.0000 0.4330 0.0000 ( 21140 PWs)   bands (ev):

   -53.4640 -53.4638 -53.3681 -53.3659 -27.7763 -27.7730 -27.6774 -27.6729
   -27.6043 -27.6037 -27.5148 -27.5123 -27.5087 -27.5042 -27.4166 -27.4128
    -5.3086  -5.1991  -5.0966  -5.0682  -4.8908  -4.8357  -4.7379  -4.7021
     1.7454   1.8825   1.9617   2.0191   2.6836   2.8580   2.9161   3.0008
     3.3208   3.4267   3.5210   3.6376   4.3747   4.3887   4.4976   4.5213
     5.3010   5.5367   5.6171   5.8265   6.1686   6.2165   6.3248   6.3298
     6.3529   6.4043   6.4803   6.5473   9.5250   9.5688   9.6017   9.6578
     9.6790   9.7658   9.8575  10.0734  10.7994  10.9618

          k = 0.0000 0.5052 0.0000 ( 21078 PWs)   bands (ev):

   -53.4595 -53.4594 -53.3636 -53.3614 -27.8182 -27.8149 -27.7193 -27.7146
   -27.5955 -27.5950 -27.5247 -27.5222 -27.4999 -27.4955 -27.4265 -27.4226
    -5.0283  -4.9398  -4.8502  -4.8164  -4.7585  -4.7343  -4.6433  -4.6174
     1.5206   1.6314   1.6900   1.7551   2.4437   2.5941   2.6533   2.7215
     3.2070   3.3227   3.4238   3.5220   4.2367   4.2513   4.3606   4.3842
     5.2014   5.4312   5.5088   5.6982   6.3108   6.3815   6.4933   6.5122
     6.5237   6.5952   6.6657   6.7289   9.5880   9.6058   9.6981   9.7126
     9.8949  10.0080  10.0749  10.2012  10.9931  11.1325

          k = 0.0000-0.5774 0.0000 ( 21006 PWs)   bands (ev):

   -53.4580 -53.4578 -53.3621 -53.3598 -27.8329 -27.8295 -27.7339 -27.7292
   -27.5924 -27.5919 -27.5282 -27.5257 -27.4969 -27.4925 -27.4300 -27.4261
    -4.9191  -4.8431  -4.7643  -4.7230  -4.7088  -4.6960  -4.6118  -4.5845
     1.4271   1.5351   1.5888   1.6556   2.3570   2.4991   2.5588   2.6227
     3.1574   3.2734   3.3770   3.4696   4.1898   4.2047   4.3141   4.3376
     5.1711   5.3974   5.4745   5.6551   6.3563   6.4359   6.5468   6.5810
     6.6298   6.6980   6.7604   6.8123   9.6216   9.6309   9.7247   9.7377
    10.0503  10.1146  10.1962  10.2378  11.0567  11.1807

          k = 0.0625 0.1083 0.0000 ( 21269 PWs)   bands (ev):

   -53.4945 -53.4943 -53.3985 -53.3962 -27.6639 -27.6631 -27.5681 -27.5634
   -27.4811 -27.4787 -27.4470 -27.4447 -27.3830 -27.3792 -27.3490 -27.3452
    -6.7412  -6.5984  -6.4882  -6.4383  -5.5897  -5.4134  -5.3216  -5.2044
     1.4526   1.8668   1.9882   2.3138   4.3772   4.4048   4.4142   4.5104
     4.5409   4.8250   4.9562   4.9726   4.9766   5.0684   5.0970   5.2818
     5.5810   5.5872   5.6869   5.7132   6.0919   6.2163   6.3301   6.6500
     6.9543   7.2592   7.3711   7.7139   9.8590   9.8944   9.9275   9.9664
     9.9837  10.0208  10.0661  10.1110  10.1255  10.1623

          k = 0.0625 0.1804 0.0000 ( 21194 PWs)   bands (ev):

   -53.4890 -53.4887 -53.3930 -53.3907 -27.6531 -27.6523 -27.5573 -27.5527
   -27.5347 -27.5321 -27.4607 -27.4584 -27.4364 -27.4324 -27.3627 -27.3589
    -6.5178  -6.3761  -6.2665  -6.2184  -5.4794  -5.3194  -5.2263  -5.1202
     1.6782   2.0904   2.2110   2.5240   4.0150   4.0231   4.0700   4.1333
     4.1626   4.4436   4.5701   4.8292   5.1686   5.1735   5.2158   5.2290
     5.2880   5.3113   5.3288   5.3471   6.1366   6.2879   6.4050   6.6782
     6.8777   7.0674   7.1547   7.3103   9.4684   9.5846   9.6715   9.8012
     9.8393   9.9131   9.9268   9.9703   9.9970  10.0484

          k = 0.0625 0.2526 0.0000 ( 21202 PWs)   bands (ev):

   -53.4817 -53.4815 -53.3858 -53.3835 -27.6389 -27.6382 -27.6039 -27.6011
   -27.5432 -27.5386 -27.5055 -27.5013 -27.4787 -27.4763 -27.3806 -27.3768
    -6.2066  -6.0682  -5.9594  -5.9150  -5.3259  -5.1899  -5.0948  -5.0051
     1.9188   2.3053   2.4232   2.6845   3.6108   3.6440   3.6905   3.7630
     3.8292   4.0110   4.1258   4.3042   4.8323   4.8535   4.9469   4.9760
     5.4434   5.4522   5.5551   5.5823   6.0268   6.1923   6.2974   6.5210
     6.6697   6.7465   6.8203   6.8682   9.2001   9.3746   9.4848   9.6465
     9.7561   9.8094   9.8663   9.8847   9.9819  10.0940

          k = 0.0625 0.3248 0.0000 ( 21194 PWs)   bands (ev):

   -53.4738 -53.4737 -53.3779 -53.3757 -27.6780 -27.6750 -27.6235 -27.6229
   -27.5794 -27.5750 -27.5279 -27.5233 -27.4981 -27.4956 -27.3999 -27.3961
    -5.8384  -5.7074  -5.5997  -5.5615  -5.1452  -5.0395  -4.9424  -4.8736
     2.0211   2.3085   2.4204   2.5534   3.2331   3.3659   3.4789   3.5045
     3.5888   3.6178   3.7133   3.8301   4.5264   4.5611   4.6579   4.6926
     5.6670   5.6888   5.7630   5.8167   5.8297   5.9743   6.0622   6.2580
     6.4385   6.4754   6.5581   6.5870   9.1598   9.3504   9.4397   9.5648
     9.6950   9.7597   9.8000   9.9211  10.2287  10.3883

          k = 0.0625 0.3969 0.0000 ( 21151 PWs)   bands (ev):

   -53.4666 -53.4664 -53.3707 -53.3684 -27.7456 -27.7425 -27.6469 -27.6424
   -27.6093 -27.6087 -27.5159 -27.5137 -27.5134 -27.5092 -27.4177 -27.4138
    -5.4579  -5.3402  -5.2351  -5.2046  -4.9601  -4.8894  -4.7911  -4.7457
     1.8934   2.0655   2.1607   2.2197   2.8554   3.0250   3.0793   3.1721
     3.4025   3.4938   3.5826   3.7045   4.3250   4.3635   4.4625   4.4961
     5.5319   5.7228   5.7833   5.8178   5.8355   5.9160   5.9536   6.0266
     6.4542   6.4812   6.5645   6.5904   9.2936   9.4506   9.5131   9.6036
     9.7420   9.8071   9.8539  10.0153  10.5615  10.7228

          k = 0.0625 0.4691 0.0000 ( 21105 PWs)   bands (ev):

   -53.4610 -53.4608 -53.3651 -53.3628 -27.7970 -27.7937 -27.6981 -27.6935
   -27.5983 -27.5978 -27.5295 -27.5270 -27.5028 -27.4983 -27.4313 -27.4274
    -5.1279  -5.0297  -4.9333  -4.9038  -4.8014  -4.7653  -4.6703  -4.6426
     1.6671   1.7882   1.8557   1.9167   2.5391   2.6786   2.7362   2.8066
     3.2787   3.3981   3.4953   3.5970   4.2155   4.2455   4.3428   4.3746
     5.3357   5.5319   5.6046   5.7646   5.9160   5.9729   6.0749   6.1096
     6.6274   6.6612   6.7403   6.7745   9.4930   9.5780   9.6350   9.6879
     9.8785   9.9520  10.0119  10.1445  10.8698  11.0134

          k = 0.0625 0.5413 0.0000 ( 21084 PWs)   bands (ev):

   -53.4580 -53.4578 -53.3621 -53.3598 -27.8246 -27.8212 -27.7257 -27.7210
   -27.5924 -27.5919 -27.5368 -27.5343 -27.4969 -27.4925 -27.4386 -27.4347
    -4.9262  -4.8475  -4.7673  -4.7267  -4.7069  -4.6927  -4.6077  -4.5807
     1.5061   1.6161   1.6704   1.7374   2.3592   2.4836   2.5441   2.6063
     3.1851   3.3077   3.4101   3.5020   4.1722   4.1903   4.2864   4.3194
     5.2273   5.4285   5.5028   5.6625   5.9925   6.0741   6.1781   6.2059
     6.7782   6.8219   6.8994   6.9382   9.6172   9.6369   9.7092   9.7356
    10.0484  10.1166  10.1898  10.2536  11.0900  11.1960

          k = 0.1250 0.2165 0.0000 ( 21179 PWs)   bands (ev):

   -53.4828 -53.4826 -53.3869 -53.3846 -27.6411 -27.6404 -27.5899 -27.5871
   -27.5453 -27.5407 -27.4915 -27.4874 -27.4795 -27.4772 -27.3814 -27.3776
    -6.2559  -6.1168  -6.0078  -5.9627  -5.3498  -5.2098  -5.1151  -5.0225
     1.8986   2.2966   2.4155   2.6956   3.6919   3.7033   3.7647   3.8269
     3.9002   4.1665   4.2841   4.4899   4.6935   4.7177   4.8097   4.8345
     5.3641   5.3708   5.4728   5.5017   6.2179   6.3556   6.4548   6.6440
     6.7412   6.8151   6.8944   6.9299   9.1850   9.3524   9.4484   9.6218
     9.7301   9.8130   9.8278   9.8667   9.9142   9.9631

          k = 0.1250 0.2887 0.0000 ( 21199 PWs)   bands (ev):

   -53.4755 -53.4754 -53.3796 -53.3774 -27.6532 -27.6503 -27.6269 -27.6262
   -27.5547 -27.5504 -27.5312 -27.5266 -27.5028 -27.5004 -27.4047 -27.4008
    -5.9229  -5.7895  -5.6815  -5.6416  -5.1850  -5.0718  -4.9752  -4.9010
     2.0607   2.3926   2.5077   2.6872   3.4170   3.4689   3.5595   3.6163
     3.7096   3.7834   3.8982   3.9727   4.2699   4.3236   4.4211   4.5282
     5.4565   5.4770   5.5740   5.6052   6.1391   6.2659   6.3431   6.4803
     6.5489   6.5585   6.6330   6.6621   9.0229   9.2214   9.3221   9.4997
     9.7386   9.8000   9.8321   9.8840   9.9931  10.1066

          k = 0.1250 0.3608 0.0000 ( 21195 PWs)   bands (ev):

   -53.4683 -53.4681 -53.3724 -53.3701 -27.7155 -27.7124 -27.6168 -27.6126
   -27.6124 -27.6121 -27.5265 -27.5240 -27.5170 -27.5125 -27.4283 -27.4244
    -5.5556  -5.4330  -5.3269  -5.2942  -5.0035  -4.9226  -4.8244  -4.7720
     2.0368   2.2535   2.3607   2.4384   3.0690   3.1956   3.2410   3.3402
     3.5079   3.5689   3.6514   3.7490   4.0683   4.1706   4.2752   4.3985
     5.3865   5.4273   5.5179   5.5475   5.9092   6.0324   6.0907   6.2089
     6.5065   6.5176   6.6178   6.6299   9.0581   9.2706   9.3772   9.5715
     9.8225   9.8740   9.9136   9.9856  10.2253  10.3700

          k = 0.1250 0.4330 0.0000 ( 21113 PWs)   bands (ev):

   -53.4621 -53.4619 -53.3662 -53.3640 -27.7676 -27.7644 -27.6688 -27.6643
   -27.6005 -27.6000 -27.5467 -27.5442 -27.5050 -27.5005 -27.4485 -27.4445
    -5.2063  -5.1006  -5.0004  -4.9722  -4.8311  -4.7851  -4.6881  -4.6563
     1.8733   2.0188   2.1040   2.1575   2.6630   2.7576   2.8053   2.8803
     3.3951   3.5254   3.6146   3.7036   4.0318   4.1362   4.2372   4.3260
     5.3154   5.3949   5.4837   5.5205   5.6421   5.7497   5.8131   5.9228
     6.6477   6.6602   6.7596   6.7736   9.2671   9.4645   9.5640   9.7395
     9.9381   9.9728  10.0380  10.0830  10.5242  10.6645

          k = 0.1250 0.5052 0.0000 ( 21081 PWs)   bands (ev):

   -53.4580 -53.4578 -53.3621 -53.3598 -27.8022 -27.7989 -27.7033 -27.6987
   -27.5924 -27.5920 -27.5602 -27.5576 -27.4969 -27.4925 -27.4620 -27.4580
    -4.9427  -4.8582  -4.7744  -4.7365  -4.7019  -4.6847  -4.5977  -4.5714
     1.7118   1.8318   1.8919   1.9561   2.3687   2.4483   2.5083   2.5698
     3.2690   3.4108   3.5095   3.5924   4.0731   4.1555   4.2477   4.2939
     5.2828   5.4098   5.4480   5.5138   5.5535   5.5861   5.6033   5.7199
     6.8313   6.8604   6.9512   6.9782   9.4986   9.6022   9.6701   9.7418
    10.0863  10.1430  10.2113  10.2838  10.7707  10.9076

          k = 0.1250 0.5774 0.0000 ( 21108 PWs)   bands (ev):

   -53.4565 -53.4564 -53.3606 -53.3584 -27.8143 -27.8110 -27.7154 -27.7107
   -27.5896 -27.5891 -27.5650 -27.5624 -27.4941 -27.4897 -27.4667 -27.4627
    -4.8401  -4.7683  -4.6980  -4.6595  -4.6500  -4.6400  -4.5666  -4.5384
     1.6461   1.7616   1.8122   1.8820   2.2636   2.3395   2.4034   2.4609
     3.2101   3.3496   3.4516   3.5346   4.1189   4.1708   4.2470   4.2927
     5.2272   5.3966   5.4287   5.4752   5.5016   5.5780   5.5892   5.6744
     6.9216   6.9608   7.0496   7.0835   9.5869   9.6054   9.6738   9.7049
    10.1905  10.2635  10.3361  10.3760  10.8543  11.0363

          k = 0.1875 0.3248 0.0000 ( 21195 PWs)   bands (ev):

   -53.4689 -53.4687 -53.3730 -53.3707 -27.7019 -27.6989 -27.6138 -27.6132
   -27.6033 -27.5989 -27.5333 -27.5308 -27.5182 -27.5137 -27.4351 -27.4312
    -5.5895  -5.4652  -5.3588  -5.3253  -5.0183  -4.9337  -4.8357  -4.7807
     2.0971   2.3362   2.4473   2.5399   3.2096   3.2850   3.3343   3.4340
     3.5553   3.5891   3.6935   3.7251   3.9371   4.0487   4.1620   4.3552
     5.2110   5.2534   5.3424   5.3738   6.0682   6.1795   6.2188   6.3158
     6.5077   6.5277   6.6315   6.6418   8.9680   9.1977   9.3176   9.5501
     9.8397   9.8877   9.9207   9.9689  10.0869  10.2114

          k = 0.1875 0.3969 0.0000 ( 21153 PWs)   bands (ev):

   -53.4627 -53.4625 -53.3668 -53.3646 -27.7439 -27.7407 -27.6451 -27.6406
   -27.6017 -27.6012 -27.5641 -27.5616 -27.5062 -27.5017 -27.4659 -27.4619
    -5.2492  -5.1395  -5.0378  -5.0095  -4.8462  -4.7945  -4.6968  -4.6618
     2.0271   2.1990   2.3001   2.3535   2.7778   2.8175   2.8501   2.9387
     3.4998   3.6418   3.7274   3.7756   3.9392   4.0353   4.1460   4.3228
     4.8879   4.9447   5.0406   5.0665   5.8249   5.9214   5.9830   6.0385
     6.6147   6.6337   6.7395   6.7579   9.1194   9.3661   9.4954   9.7838
     9.9695   9.9787  10.0558  10.0827  10.2594  10.3903

          k = 0.1875 0.4691 0.0000 ( 21101 PWs)   bands (ev):

   -53.4580 -53.4578 -53.3621 -53.3598 -27.7744 -27.7711 -27.6755 -27.6710
   -27.5925 -27.5920 -27.5891 -27.5864 -27.4969 -27.4925 -27.4908 -27.4867
    -4.9583  -4.8688  -4.7817  -4.7465  -4.6971  -4.6769  -4.5877  -4.5618
     1.9418   2.0857   2.1645   2.2164   2.3832   2.4152   2.4754   2.5381
     3.4148   3.5877   3.6728   3.7167   3.9815   4.1068   4.2052   4.3162
     4.6844   4.7943   4.8960   4.9535   5.5360   5.6270   5.7048   5.7547
     6.8196   6.8311   6.9367   6.9484   9.3456   9.5173   9.6035   9.7445
    10.1272  10.1778  10.2436  10.3151  10.4591  10.5522

          k = 0.1875 0.5413 0.0000 ( 21112 PWs)   bands (ev):

   -53.4554 -53.4553 -53.3595 -53.3573 -27.7904 -27.7871 -27.6915 -27.6869
   -27.6030 -27.6004 -27.5874 -27.5870 -27.5047 -27.5006 -27.4919 -27.4875
    -4.7819  -4.7125  -4.6496  -4.6179  -4.6034  -4.5878  -4.5290  -4.5004
     1.8929   2.0312   2.0827   2.1537   2.1719   2.1976   2.2751   2.3222
     3.2844   3.4437   3.5443   3.6083   4.0916   4.1965   4.2720   4.3284
     4.6262   4.7759   4.8762   4.9410   5.3533   5.4223   5.4928   5.5580
     7.0002   7.0251   7.1218   7.1459   9.4349   9.4775   9.5511   9.5898
    10.2940  10.4013  10.4672  10.5438  10.5697  10.6482

          k = 0.2500 0.4330 0.0000 ( 21125 PWs)   bands (ev):

   -53.4580 -53.4578 -53.3621 -53.3598 -27.7598 -27.7566 -27.6610 -27.6565
   -27.6040 -27.6013 -27.5925 -27.5920 -27.5057 -27.5016 -27.4969 -27.4925
    -4.9646  -4.8731  -4.7847  -4.7506  -4.6952  -4.6737  -4.5837  -4.5577
     2.0457   2.2060   2.2969   2.3358   2.3937   2.4023   2.4699   2.5257
     3.5543   3.6970   3.7760   3.8411   4.0017   4.0926   4.1952   4.3572
     4.4127   4.4367   4.5279   4.5478   5.5855   5.6704   5.7659   5.7814
     6.8038   6.8130   6.9217   6.9328   9.2812   9.4755   9.5699   9.7361
    10.1381  10.1810  10.2505  10.3184  10.3432  10.4201

          k = 0.2500 0.5052 0.0000 ( 21117 PWs)   bands (ev):

   -53.4548 -53.4547 -53.3589 -53.3567 -27.7646 -27.7613 -27.6657 -27.6612
   -27.6366 -27.6339 -27.5863 -27.5858 -27.5382 -27.5341 -27.4908 -27.4864
    -4.7538  -4.6843  -4.6245  -4.5943  -4.5765  -4.5600  -4.5064  -4.4777
     2.0381   2.1073   2.1334   2.2274   2.2360   2.2991   2.3786   2.4269
     3.4363   3.6106   3.6729   3.7171   3.9897   4.1167   4.1683   4.2215
     4.2670   4.3107   4.3718   4.4558   5.3257   5.3985   5.4914   5.5363
     7.0450   7.0528   7.1590   7.1674   9.2991   9.3623   9.4381   9.4917
    10.2561  10.3078  10.4069  10.4204  10.5507  10.5886

          k = 0.2500 0.5774 0.0000 ( 21116 PWs)   bands (ev):

   -53.4537 -53.4536 -53.3578 -53.3556 -27.7644 -27.7612 -27.6656 -27.6610
   -27.6498 -27.6471 -27.5841 -27.5837 -27.5514 -27.5473 -27.4886 -27.4842
    -4.6710  -4.6154  -4.5735  -4.5614  -4.5406  -4.4935  -4.4716  -4.4478
     1.9604   2.0041   2.0417   2.1295   2.2937   2.3664   2.4109   2.4831
     3.3050   3.4500   3.5488   3.5862   3.9125   4.1243   4.1751   4.2433
     4.3032   4.3702   4.4243   4.4641   5.2245   5.2634   5.3575   5.4047
     7.1687   7.1840   7.2845   7.3003   9.2393   9.2491   9.3366   9.3579
    10.2631  10.3450  10.4100  10.4516  10.7145  10.7411

          k = 0.3125 0.5413 0.0000 ( 21100 PWs)   bands (ev):

   -53.4531 -53.4530 -53.3572 -53.3550 -27.7434 -27.7401 -27.6783 -27.6755
   -27.6445 -27.6399 -27.5829 -27.5825 -27.5799 -27.5757 -27.4874 -27.4831
    -4.6304  -4.5814  -4.5479  -4.5408  -4.5220  -4.4596  -4.4478  -4.4287
     1.9053   1.9332   1.9832   2.0602   2.4894   2.6026   2.6633   2.7215
     3.3020   3.3612   3.3886   3.4963   3.7918   3.8573   3.9062   3.9585
     4.3455   4.4007   4.4811   4.5144   5.1247   5.1841   5.2815   5.3486
     7.2540   7.2592   7.3659   7.3707   9.1233   9.1349   9.2240   9.2451
    10.2126  10.2486  10.3194  10.3678  10.8140  10.8507

     the Fermi energy is     8.4124 ev

!    total energy              =   -1978.36653554 Ry
     total all-electron energy =    -38771.687380 Ry
     estimated scf accuracy    <          2.4E-09 Ry
     smearing contrib. (-TS)   =       0.00009849 Ry
     internal energy E=F+TS    =   -1978.36663403 Ry

     The total energy is F=E-TS. E is the sum of the following terms:
     one-electron contribution =   -1514.25857294 Ry
     hartree contribution      =     799.40358857 Ry
     xc contribution           =    -119.22803505 Ry
     ewald contribution        =     125.56623317 Ry
     one-center paw contrib.   =   -1269.84984778 Ry

     convergence has been achieved in  35 iterations

     Forces acting on atoms (cartesian axes, Ry/au):

     atom    1 type  2   force =     0.00000000   -0.00000000    0.00498056
     atom    2 type  1   force =     0.00000000    0.00000000    0.00156516
     atom    3 type  2   force =     0.00000000    0.00000000   -0.00301270
     atom    4 type  2   force =     0.00000000    0.00000000    0.00143463
     atom    5 type  1   force =     0.00000000    0.00000000   -0.00281340
     atom    6 type  2   force =     0.00000000    0.00000000   -0.00955368
     atom    7 type  2   force =     0.00000000    0.00000000    0.00801937
     atom    8 type  1   force =     0.00000000   -0.00000000    0.00596490
     atom    9 type  2   force =     0.00000000    0.00000000   -0.00297361
     atom   10 type  2   force =     0.00000000    0.00000000   -0.00197642
     atom   11 type  1   force =     0.00000000    0.00000000   -0.00196483
     atom   12 type  2   force =     0.00000000    0.00000000    0.00033002

     Total force =     0.015943     Total SCF correction =     0.000206
     Energy error            =      1.1E-03 Ry
     Gradient error          =      9.6E-03 Ry/Bohr

     number of scf cycles    =  18
     number of bfgs steps    =  17

     energy             old  =   -1978.3654141497 Ry
     energy             new  =   -1978.3665355411 Ry

     CASE: energy            _new < energy            _old

     new trust radius        =       0.1099562186 bohr
     new conv_thr            =       0.0000000011 Ry


ATOMIC_POSITIONS (crystal)
S                0.3333330000        0.6666670000       -0.1160186653
Mo              -0.0000000000       -0.0000000000       -0.0634619822
S                0.3333330000        0.6666670000       -0.0108317577
S                0.6666670000        0.3333330000        0.1075863723
Mo               0.3333330000        0.6666670000        0.1600033078
S                0.6666670000        0.3333330000        0.2123649081
S               -0.0000000000       -0.0000000000        0.3056849895
Mo               0.6666670000        0.3333330000        0.3580293739
S               -0.0000000000       -0.0000000000        0.4104802061
S                0.3333330000        0.6666670000        0.5312244566
Mo               0.0000000000        0.0000000000        0.5837410960
S                0.3333330000        0.6666670000        0.6361976949



     Writing config-only to output data dir ./tmp/relax/mos2_slab.save/ :
     XML data file
     NEW-OLD atomic charge density approx. for the potential

     total cpu time spent up to now is    65299.6 secs

     Self-consistent Calculation

     iteration #  1     ecut=    80.00 Ry     beta= 0.30
     Davidson diagonalization with overlap
     ethr =  1.00E-06,  avg # of iterations =  9.9

     total cpu time spent up to now is    65684.9 secs

     total energy              =   -1978.36765906 Ry
     estimated scf accuracy    <       0.00457600 Ry

     iteration #  2     ecut=    80.00 Ry     beta= 0.30
     Davidson diagonalization with overlap
     ethr =  4.40E-06,  avg # of iterations =  1.0

     total cpu time spent up to now is    65785.4 secs

     total energy              =   -1978.36678743 Ry
     estimated scf accuracy    <       0.00279594 Ry

     iteration #  3     ecut=    80.00 Ry     beta= 0.30
     Davidson diagonalization with overlap
     ethr =  2.69E-06,  avg # of iterations =  2.9

     total cpu time spent up to now is    65904.4 secs

     total energy              =   -1978.36705617 Ry
     estimated scf accuracy    <       0.00010017 Ry

     iteration #  4     ecut=    80.00 Ry     beta= 0.30
     Davidson diagonalization with overlap
     ethr =  9.63E-08,  avg # of iterations =  3.7

     total cpu time spent up to now is    66042.2 secs

     total energy              =   -1978.36707898 Ry
     estimated scf accuracy    <       0.00003260 Ry

     iteration #  5     ecut=    80.00 Ry     beta= 0.30
     Davidson diagonalization with overlap
     ethr =  3.13E-08,  avg # of iterations =  2.8

     total cpu time spent up to now is    66161.9 secs

     total energy              =   -1978.36708110 Ry
     estimated scf accuracy    <       0.00000818 Ry

     iteration #  6     ecut=    80.00 Ry     beta= 0.30
     Davidson diagonalization with overlap
     ethr =  7.87E-09,  avg # of iterations =  4.6

     total cpu time spent up to now is    66279.5 secs

     total energy              =   -1978.36708163 Ry
     estimated scf accuracy    <       0.00000259 Ry

     iteration #  7     ecut=    80.00 Ry     beta= 0.30
     Davidson diagonalization with overlap
     ethr =  2.49E-09,  avg # of iterations =  2.5

     total cpu time spent up to now is    66399.0 secs

     total energy              =   -1978.36708199 Ry
     estimated scf accuracy    <       0.00000136 Ry

     iteration #  8     ecut=    80.00 Ry     beta= 0.30
     Davidson diagonalization with overlap
     ethr =  1.31E-09,  avg # of iterations =  1.7

     total cpu time spent up to now is    66506.3 secs

     total energy              =   -1978.36708194 Ry
     estimated scf accuracy    <       0.00000119 Ry

     iteration #  9     ecut=    80.00 Ry     beta= 0.30
     Davidson diagonalization with overlap
     ethr =  1.14E-09,  avg # of iterations =  1.6

     total cpu time spent up to now is    66613.0 secs

     total energy              =   -1978.36708200 Ry
     estimated scf accuracy    <       0.00000086 Ry

     iteration # 10     ecut=    80.00 Ry     beta= 0.30
     Davidson diagonalization with overlap
     ethr =  8.28E-10,  avg # of iterations =  2.0

     total cpu time spent up to now is    66726.3 secs

     total energy              =   -1978.36708206 Ry
     estimated scf accuracy    <       0.00000084 Ry

     iteration # 11     ecut=    80.00 Ry     beta= 0.30
     Davidson diagonalization with overlap
     ethr =  8.09E-10,  avg # of iterations =  1.8

     total cpu time spent up to now is    66835.7 secs

     total energy              =   -1978.36708199 Ry
     estimated scf accuracy    <       0.00000052 Ry

     iteration # 12     ecut=    80.00 Ry     beta= 0.30
     Davidson diagonalization with overlap
     ethr =  5.02E-10,  avg # of iterations =  1.3

     total cpu time spent up to now is    66939.2 secs

     total energy              =   -1978.36708196 Ry
     estimated scf accuracy    <       0.00000042 Ry

     iteration # 13     ecut=    80.00 Ry     beta= 0.30
     Davidson diagonalization with overlap
     ethr =  4.06E-10,  avg # of iterations =  2.0

     total cpu time spent up to now is    67053.0 secs

     total energy              =   -1978.36708197 Ry
     estimated scf accuracy    <       0.00000030 Ry

     iteration # 14     ecut=    80.00 Ry     beta= 0.30
     Davidson diagonalization with overlap
     ethr =  2.85E-10,  avg # of iterations =  1.0

     total cpu time spent up to now is    67153.6 secs

     total energy              =   -1978.36708195 Ry
     estimated scf accuracy    <       0.00000021 Ry

     iteration # 15     ecut=    80.00 Ry     beta= 0.30
     Davidson diagonalization with overlap
     ethr =  1.98E-10,  avg # of iterations =  2.1

     total cpu time spent up to now is    67270.5 secs

     total energy              =   -1978.36708197 Ry
     estimated scf accuracy    <       0.00000014 Ry

     iteration # 16     ecut=    80.00 Ry     beta= 0.30
     Davidson diagonalization with overlap
     ethr =  1.39E-10,  avg # of iterations =  1.0

     total cpu time spent up to now is    67371.3 secs

     total energy              =   -1978.36708196 Ry
     estimated scf accuracy    <       0.00000012 Ry

     iteration # 17     ecut=    80.00 Ry     beta= 0.30
     Davidson diagonalization with overlap
     ethr =  1.12E-10,  avg # of iterations =  1.3

     total cpu time spent up to now is    67475.2 secs

     total energy              =   -1978.36708194 Ry
     estimated scf accuracy    <       0.00000010 Ry

     iteration # 18     ecut=    80.00 Ry     beta= 0.30
     Davidson diagonalization with overlap
     ethr =  1.01E-10,  avg # of iterations =  1.2

     total cpu time spent up to now is    67578.1 secs

     total energy              =   -1978.36708194 Ry
     estimated scf accuracy    <       0.00000008 Ry

     iteration # 19     ecut=    80.00 Ry     beta= 0.30
     Davidson diagonalization with overlap
     ethr =  7.55E-11,  avg # of iterations =  1.4

     total cpu time spent up to now is    67682.3 secs

     total energy              =   -1978.36708189 Ry
     estimated scf accuracy    <       0.00000005 Ry

     iteration # 20     ecut=    80.00 Ry     beta= 0.30
     Davidson diagonalization with overlap
     ethr =  5.09E-11,  avg # of iterations =  2.1

     total cpu time spent up to now is    67798.3 secs

     total energy              =   -1978.36708189 Ry
     estimated scf accuracy    <       0.00000003 Ry

     iteration # 21     ecut=    80.00 Ry     beta= 0.30
     Davidson diagonalization with overlap
     ethr =  2.85E-11,  avg # of iterations =  1.3

     total cpu time spent up to now is    67902.4 secs

     total energy              =   -1978.36708190 Ry
     estimated scf accuracy    <       0.00000002 Ry

     iteration # 22     ecut=    80.00 Ry     beta= 0.30
     Davidson diagonalization with overlap
     ethr =  1.85E-11,  avg # of iterations =  2.4

     total cpu time spent up to now is    68019.1 secs

     total energy              =   -1978.36708191 Ry
     estimated scf accuracy    <       0.00000001 Ry

     iteration # 23     ecut=    80.00 Ry     beta= 0.30
     Davidson diagonalization with overlap
     ethr =  1.02E-11,  avg # of iterations =  2.0

     total cpu time spent up to now is    68131.9 secs

     total energy              =   -1978.36708191 Ry
     estimated scf accuracy    <          7.5E-09 Ry

     iteration # 24     ecut=    80.00 Ry     beta= 0.30
     Davidson diagonalization with overlap
     ethr =  7.20E-12,  avg # of iterations =  1.4

     total cpu time spent up to now is    68237.2 secs

     total energy              =   -1978.36708192 Ry
     estimated scf accuracy    <          6.1E-09 Ry

     iteration # 25     ecut=    80.00 Ry     beta= 0.30
     Davidson diagonalization with overlap
     ethr =  5.85E-12,  avg # of iterations =  1.5

     total cpu time spent up to now is    68342.1 secs

     total energy              =   -1978.36708192 Ry
     estimated scf accuracy    <          5.8E-09 Ry

     iteration # 26     ecut=    80.00 Ry     beta= 0.30
     Davidson diagonalization with overlap
     ethr =  5.55E-12,  avg # of iterations =  1.0

     total cpu time spent up to now is    68442.6 secs

     total energy              =   -1978.36708192 Ry
     estimated scf accuracy    <          5.4E-09 Ry

     iteration # 27     ecut=    80.00 Ry     beta= 0.30
     Davidson diagonalization with overlap
     ethr =  5.22E-12,  avg # of iterations =  1.0

     total cpu time spent up to now is    68543.0 secs

     total energy              =   -1978.36708192 Ry
     estimated scf accuracy    <          5.0E-09 Ry

     iteration # 28     ecut=    80.00 Ry     beta= 0.30
     Davidson diagonalization with overlap
     ethr =  4.80E-12,  avg # of iterations =  1.0

     total cpu time spent up to now is    68643.6 secs

     total energy              =   -1978.36708192 Ry
     estimated scf accuracy    <          4.7E-09 Ry

     iteration # 29     ecut=    80.00 Ry     beta= 0.30
     Davidson diagonalization with overlap
     ethr =  4.53E-12,  avg # of iterations =  2.1

     total cpu time spent up to now is    68758.4 secs

     total energy              =   -1978.36708191 Ry
     estimated scf accuracy    <          2.0E-09 Ry

     iteration # 30     ecut=    80.00 Ry     beta= 0.30
     Davidson diagonalization with overlap
     ethr =  1.92E-12,  avg # of iterations =  2.1

     total cpu time spent up to now is    68873.2 secs

     End of self-consistent calculation

          k = 0.0000 0.0000 0.0000 ( 21311 PWs)   bands (ev):

   -53.4966 -53.4922 -53.4122 -53.4071 -27.6717 -27.6653 -27.5878 -27.5792
   -27.4346 -27.4346 -27.4285 -27.4285 -27.3502 -27.3502 -27.3418 -27.3418
    -6.9075  -6.7606  -6.6812  -6.6401  -5.6548  -5.4806  -5.4035  -5.2930
     1.2774   1.6771   1.7826   2.0762   4.7475   4.7613   4.7613   4.7932
     4.7932   4.8449   4.8449   4.8975   4.8975   5.3287   5.5863   5.8761
     5.8761   5.9088   5.9088   5.9632   5.9632   6.0089   6.0090   6.2810
     6.9690   7.3385   7.4874   7.9991  10.0961  10.0962  10.1535  10.1535
    10.2009  10.2009  10.2370  10.2370  10.3420  10.3422

          k = 0.0000 0.0722 0.0000 ( 21283 PWs)   bands (ev):

   -53.4951 -53.4907 -53.4107 -53.4055 -27.6686 -27.6623 -27.5847 -27.5761
   -27.4502 -27.4440 -27.4382 -27.4320 -27.3658 -27.3573 -27.3538 -27.3453
    -6.8480  -6.7012  -6.6219  -6.5810  -5.6263  -5.4554  -5.3782  -5.2704
     1.3454   1.7458   1.8511   2.1436   4.6124   4.6256   4.6588   4.7099
     4.7624   4.8233   4.8556   4.9073   4.9598   5.1101   5.2884   5.5896
     5.7784   5.8122   5.8671   5.9124   5.9863   6.0776   6.1674   6.4959
     6.9727   7.3179   7.4531   7.8975  10.0386  10.0649  10.1180  10.1493
    10.1592  10.1817  10.2152  10.2414  10.2591  10.2643

          k = 0.0000 0.1443 0.0000 ( 21263 PWs)   bands (ev):

   -53.4906 -53.4862 -53.4062 -53.4011 -27.6599 -27.6537 -27.5760 -27.5675
   -27.4943 -27.4880 -27.4482 -27.4420 -27.4100 -27.4012 -27.3638 -27.3553
    -6.6741  -6.5283  -6.4492  -6.4090  -5.5432  -5.3820  -5.3044  -5.2047
     1.5342   1.9353   2.0399   2.3269   4.2715   4.2948   4.3167   4.3651
     4.4146   4.6997   4.8279   5.0010   5.0354   5.0829   5.0869   5.1392
     5.5264   5.5622   5.6182   5.6625   6.0454   6.1996   6.3174   6.6365
     6.9469   7.2092   7.3129   7.5862   9.7485   9.8251   9.8791   9.9213
     9.9860   9.9940  10.0297  10.0808  10.1182  10.1907

          k = 0.0000 0.2165 0.0000 ( 21233 PWs)   bands (ev):

   -53.4840 -53.4796 -53.3996 -53.3945 -27.6469 -27.6407 -27.5630 -27.5598
   -27.5546 -27.5533 -27.4755 -27.4664 -27.4632 -27.4570 -27.3788 -27.3703
    -6.4005  -6.2571  -6.1787  -6.1398  -5.4126  -5.2673  -5.1891  -5.1027
     1.7891   2.1830   2.2846   2.5487   3.8309   3.8714   3.9010   3.9614
     4.0012   4.2418   4.3438   4.5406   5.1875   5.2380   5.2716   5.3047
     5.3103   5.3384   5.3666   5.4134   5.9569   6.1455   6.2658   6.5503
     6.8062   6.9478   7.0205   7.1297   9.3707   9.5049   9.6232   9.8119
     9.8345   9.9014   9.9602   9.9724  10.0169  10.0725

          k = 0.0000 0.2887 0.0000 ( 21197 PWs)   bands (ev):

   -53.4761 -53.4717 -53.3917 -53.3866 -27.6363 -27.6315 -27.6295 -27.6254
   -27.5519 -27.5476 -27.5424 -27.5393 -27.4809 -27.4746 -27.3965 -27.3879
    -6.0525  -5.9140  -5.8371  -5.8005  -5.2472  -5.1233  -5.0446  -4.9760
     1.9871   2.3316   2.4235   2.6027   3.4190   3.4991   3.5769   3.6152
     3.6963   3.7796   3.8754   4.0097   4.8656   4.9109   4.9677   5.0114
     5.5968   5.6385   5.6949   5.7381   5.7406   5.9492   6.0555   6.3071
     6.5300   6.5960   6.6600   6.7082   9.2350   9.4154   9.5552   9.6269
     9.7103   9.7826   9.8247   9.8442  10.1715  10.3346

          k = 0.0000 0.3608 0.0000 ( 21187 PWs)   bands (ev):

   -53.4682 -53.4639 -53.3838 -53.3788 -27.7118 -27.7049 -27.6275 -27.6176
   -27.6161 -27.6100 -27.5322 -27.5240 -27.4984 -27.4921 -27.4141 -27.4054
    -5.6677  -5.5384  -5.4646  -5.4307  -5.0662  -4.9684  -4.8897  -4.8417
     1.9638   2.1940   2.2685   2.3429   3.0353   3.2195   3.2854   3.3821
     3.4494   3.5160   3.5919   3.7046   4.5767   4.6235   4.6810   4.7242
     5.4995   5.7203   5.8084   5.9100   5.9652   6.0277   6.0334   6.0662
     6.3096   6.3691   6.4371   6.4797   9.3515   9.5295   9.5350   9.5963
     9.6590   9.6701   9.7016   9.9356  10.4989  10.6693

          k = 0.0000 0.4330 0.0000 ( 21140 PWs)   bands (ev):

   -53.4615 -53.4572 -53.3771 -53.3721 -27.7751 -27.7681 -27.6908 -27.6807
   -27.6030 -27.5969 -27.5190 -27.5133 -27.5110 -27.5070 -27.4289 -27.4202
    -5.3006  -5.1857  -5.1191  -5.0843  -4.8960  -4.8270  -4.7507  -4.7207
     1.7476   1.8959   1.9437   2.0034   2.6961   2.8675   2.9126   2.9900
     3.3156   3.4345   3.5083   3.6086   4.3554   4.4034   4.4614   4.5042
     5.3216   5.5397   5.6177   5.8193   6.1575   6.2303   6.3015   6.3279
     6.3318   6.4093   6.4721   6.5335   9.5320   9.5762   9.6132   9.6502
     9.6699   9.7680   9.8579  10.0675  10.8083  10.9607

          k = 0.0000 0.5052 0.0000 ( 21078 PWs)   bands (ev):

   -53.4571 -53.4527 -53.3727 -53.3677 -27.8171 -27.8099 -27.7328 -27.7225
   -27.5942 -27.5882 -27.5232 -27.5168 -27.5103 -27.5023 -27.4388 -27.4300
    -5.0231  -4.9264  -4.8725  -4.8293  -4.7694  -4.7266  -4.6598  -4.6317
     1.5253   1.6441   1.6761   1.7424   2.4579   2.6041   2.6482   2.7114
     3.2028   3.3327   3.4099   3.4930   4.2173   4.2661   4.3243   4.3670
     5.2240   5.4346   5.5088   5.6896   6.3061   6.3945   6.4718   6.4993
     6.5160   6.6007   6.6593   6.7183   9.5879   9.6139   9.6856   9.7031
     9.9042  10.0115  10.0730  10.1930  11.0042  11.1332

          k = 0.0000-0.5774 0.0000 ( 21006 PWs)   bands (ev):

   -53.4555 -53.4512 -53.3711 -53.3661 -27.8318 -27.8246 -27.7475 -27.7371
   -27.5911 -27.5851 -27.5266 -27.5203 -27.5072 -27.4992 -27.4423 -27.4335
    -4.9158  -4.8296  -4.7843  -4.7354  -4.7204  -4.6905  -4.6297  -4.5974
     1.4340   1.5475   1.5763   1.6436   2.3719   2.5091   2.5535   2.6129
     3.1528   3.2839   3.3624   3.4401   4.1705   4.2195   4.2778   4.3204
     5.1945   5.4010   5.4743   5.6461   6.3541   6.4486   6.5274   6.5558
     6.6336   6.7037   6.7554   6.8042   9.6192   9.6391   9.7099   9.7282
    10.0589  10.1205  10.1900  10.2294  11.0676  11.1827

          k = 0.0625 0.1083 0.0000 ( 21269 PWs)   bands (ev):

   -53.4921 -53.4877 -53.4077 -53.4025 -27.6627 -27.6565 -27.5788 -27.5703
   -27.4796 -27.4733 -27.4454 -27.4392 -27.3952 -27.3866 -27.3610 -27.3525
    -6.7312  -6.5851  -6.5059  -6.4654  -5.5705  -5.4061  -5.3286  -5.2262
     1.4742   1.8754   1.9804   2.2697   4.3839   4.3977   4.4223   4.4707
     4.5230   4.8275   4.9416   4.9682   4.9748   5.0262   5.0785   5.2476
     5.5634   5.5971   5.6520   5.6973   6.0826   6.2170   6.3269   6.6411
     6.9631   7.2545   7.3668   7.6910   9.8697   9.9059   9.9304   9.9674
     9.9959  10.0160  10.0609  10.1242  10.1344  10.1655

          k = 0.0625 0.1804 0.0000 ( 21194 PWs)   bands (ev):

   -53.4865 -53.4821 -53.4021 -53.3970 -27.6519 -27.6457 -27.5680 -27.5595
   -27.5332 -27.5268 -27.4591 -27.4529 -27.4488 -27.4399 -27.3748 -27.3662
    -6.5073  -6.3628  -6.2842  -6.2447  -5.4635  -5.3118  -5.2339  -5.1422
     1.7000   2.0995   2.2028   2.4803   3.9968   4.0330   4.0645   4.1138
     4.1480   4.4469   4.5596   4.7924   5.1475   5.1915   5.1988   5.2312
     5.2500   5.2873   5.2968   5.3311   6.1342   6.2909   6.4037   6.6742
     6.8835   7.0681   7.1504   7.3040   9.4791   9.5881   9.6756   9.8074
     9.8502   9.9166   9.9356   9.9741   9.9965  10.0484

          k = 0.0625 0.2526 0.0000 ( 21202 PWs)   bands (ev):

   -53.4792 -53.4749 -53.3949 -53.3898 -27.6377 -27.6315 -27.6025 -27.5959
   -27.5538 -27.5454 -27.5182 -27.5089 -27.4771 -27.4709 -27.3927 -27.3841
    -6.1959  -6.0551  -5.9774  -5.9398  -5.3148  -5.1818  -5.1034  -5.0271
     1.9389   2.3159   2.4132   2.6419   3.6014   3.6457   3.6886   3.7496
     3.8180   4.0156   4.1110   4.2683   4.8214   4.8584   4.9171   4.9583
     5.4229   5.4626   5.5160   5.5647   6.0308   6.1952   6.2966   6.5184
     6.6738   6.7521   6.8159   6.8644   9.2129   9.3771   9.4893   9.6563
     9.7658   9.8140   9.8698   9.8825   9.9803  10.0977

          k = 0.0625 0.3248 0.0000 ( 21194 PWs)   bands (ev):

   -53.4714 -53.4670 -53.3870 -53.3819 -27.6767 -27.6699 -27.6223 -27.6162
   -27.5924 -27.5827 -27.5384 -27.5301 -27.4965 -27.4902 -27.4121 -27.4035
    -5.8280  -5.6942  -5.6187  -5.5838  -5.1403  -5.0310  -4.9522  -4.8953
     2.0336   2.3215   2.4052   2.5194   3.2376   3.3706   3.4745   3.5153
     3.5865   3.6064   3.6934   3.7907   4.5148   4.5674   4.6319   4.6710
     5.6511   5.7031   5.7448   5.8007   5.8237   5.9765   6.0616   6.2535
     6.4409   6.4815   6.5488   6.5770   9.1747   9.3531   9.4452   9.5692
     9.7014   9.7606   9.7965   9.9220  10.2315  10.3889

          k = 0.0625 0.3969 0.0000 ( 21151 PWs)   bands (ev):

   -53.4641 -53.4598 -53.3797 -53.3747 -27.7445 -27.7375 -27.6602 -27.6501
   -27.6080 -27.6020 -27.5241 -27.5160 -27.5144 -27.5080 -27.4300 -27.4212
    -5.4489  -5.3269  -5.2565  -5.2229  -4.9622  -4.8806  -4.8027  -4.7658
     1.8972   2.0791   2.1414   2.1997   2.8646   3.0340   3.0774   3.1609
     3.3952   3.4995   3.5702   3.6763   4.3128   4.3722   4.4360   4.4754
     5.5464   5.7245   5.7820   5.8112   5.8467   5.9022   5.9383   6.0120
     6.4517   6.4852   6.5491   6.5775   9.3076   9.4543   9.5157   9.6018
     9.7463   9.8055   9.8511  10.0112  10.5687  10.7227

          k = 0.0625 0.4691 0.0000 ( 21105 PWs)   bands (ev):

   -53.4585 -53.4542 -53.3741 -53.3691 -27.7959 -27.7887 -27.7116 -27.7013
   -27.5970 -27.5910 -27.5280 -27.5216 -27.5131 -27.5051 -27.4436 -27.4348
    -5.1213  -5.0163  -4.9562  -4.9176  -4.8102  -4.7570  -4.6852  -4.6587
     1.6706   1.8012   1.8399   1.9029   2.5491   2.6891   2.7293   2.7954
     3.2752   3.4077   3.4822   3.5697   4.2020   4.2569   4.3133   4.3575
     5.3537   5.5352   5.6043   5.7584   5.9141   5.9840   6.0583   6.0908
     6.6241   6.6655   6.7256   6.7609   9.5012   9.5835   9.6316   9.6812
     9.8814   9.9531  10.0088  10.1365  10.8819  11.0143

          k = 0.0625 0.5413 0.0000 ( 21084 PWs)   bands (ev):

   -53.4555 -53.4512 -53.3711 -53.3661 -27.8235 -27.8163 -27.7392 -27.7288
   -27.5911 -27.5851 -27.5353 -27.5290 -27.5072 -27.4992 -27.4510 -27.4421
    -4.9225  -4.8341  -4.7874  -4.7392  -4.7185  -4.6870  -4.6254  -4.5938
     1.5130   1.6286   1.6578   1.7253   2.3698   2.4942   2.5362   2.5956
     3.1814   3.3184   3.3957   3.4732   4.1565   4.2046   4.2549   4.3042
     5.2476   5.4320   5.5023   5.6548   5.9956   6.0853   6.1625   6.1871
     6.7760   6.8279   6.8868   6.9255   9.6181   9.6431   9.6987   9.7274
    10.0545  10.1216  10.1842  10.2447  11.1069  11.2080

          k = 0.1250 0.2165 0.0000 ( 21179 PWs)   bands (ev):

   -53.4803 -53.4760 -53.3960 -53.3909 -27.6399 -27.6337 -27.5885 -27.5819
   -27.5559 -27.5476 -27.5041 -27.4949 -27.4780 -27.4717 -27.3936 -27.3850
    -6.2452  -6.1036  -6.0257  -5.9878  -5.3380  -5.2018  -5.1234  -5.0446
     1.9196   2.3068   2.4061   2.6521   3.6756   3.7138   3.7481   3.8144
     3.8982   4.1709   4.2707   4.4536   4.6889   4.7154   4.7813   4.8158
     5.3430   5.3824   5.4342   5.4844   6.2190   6.3585   6.4542   6.6445
     6.7424   6.8207   6.8904   6.9281   9.1993   9.3553   9.4538   9.6258
     9.7427   9.8168   9.8301   9.8653   9.9103   9.9698

          k = 0.1250 0.2887 0.0000 ( 21199 PWs)   bands (ev):

   -53.4731 -53.4687 -53.3887 -53.3836 -27.6519 -27.6452 -27.6256 -27.6195
   -27.5676 -27.5580 -27.5417 -27.5335 -27.5013 -27.4950 -27.4169 -27.4082
    -5.9123  -5.7763  -5.7002  -5.6646  -5.1786  -5.0634  -4.9846  -4.9228
     2.0768   2.4050   2.4941   2.6478   3.4110   3.4761   3.5615   3.6113
     3.6995   3.7878   3.8805   3.9400   4.2578   4.3262   4.4058   4.4945
     5.4408   5.4912   5.5432   5.5899   6.1449   6.2678   6.3435   6.4804
     6.5504   6.5655   6.6240   6.6540   9.0394   9.2243   9.3260   9.5008
     9.7491   9.8013   9.8328   9.8865   9.9904  10.1111

          k = 0.1250 0.3608 0.0000 ( 21195 PWs)   bands (ev):

   -53.4658 -53.4615 -53.3814 -53.3764 -27.7143 -27.7074 -27.6300 -27.6201
   -27.6114 -27.6053 -27.5274 -27.5250 -27.5193 -27.5187 -27.4407 -27.4318
    -5.5459  -5.4197  -5.3473  -5.3138  -5.0036  -4.9138  -4.8353  -4.7928
     2.0440   2.2673   2.3419   2.4113   3.0718   3.2018   3.2446   3.3284
     3.4967   3.5720   3.6400   3.7290   4.0593   4.1762   4.2604   4.3645
     5.3800   5.4397   5.4952   5.5345   5.9196   6.0346   6.0913   6.2059
     6.5010   6.5276   6.5986   6.6189   9.0756   9.2739   9.3793   9.5691
     9.8294   9.8734   9.9109   9.9855  10.2279  10.3720

          k = 0.1250 0.4330 0.0000 ( 21113 PWs)   bands (ev):

   -53.4596 -53.4553 -53.3752 -53.3702 -27.7665 -27.7594 -27.6822 -27.6721
   -27.5992 -27.5932 -27.5452 -27.5388 -27.5153 -27.5073 -27.4609 -27.4520
    -5.1986  -5.0872  -5.0231  -4.9871  -4.8382  -4.7765  -4.7017  -4.6740
     1.8773   2.0322   2.0854   2.1413   2.6636   2.7693   2.7940   2.8678
     3.3939   3.5347   3.6039   3.6841   4.0255   4.1433   4.2230   4.2981
     5.3168   5.4063   5.4701   5.5072   5.6486   5.7528   5.8115   5.9169
     6.6418   6.6682   6.7392   6.7613   9.2833   9.4682   9.5646   9.7353
     9.9428   9.9731  10.0298  10.0749  10.5354  10.6683

          k = 0.1250 0.5052 0.0000 ( 21081 PWs)   bands (ev):

   -53.4555 -53.4512 -53.3711 -53.3661 -27.8011 -27.7940 -27.7168 -27.7065
   -27.5911 -27.5852 -27.5588 -27.5523 -27.5072 -27.4992 -27.4744 -27.4654
    -4.9379  -4.8449  -4.7951  -4.7490  -4.7135  -4.6787  -4.6148  -4.5849
     1.7189   1.8445   1.8786   1.9434   2.3687   2.4603   2.4940   2.5575
     3.2690   3.4216   3.4960   3.5676   4.0680   4.1646   4.2311   4.2752
     5.3003   5.4183   5.4584   5.5156   5.5448   5.5707   5.5929   5.7099
     6.8276   6.8670   6.9349   6.9634   9.5062   9.6069   9.6664   9.7334
    10.0892  10.1467  10.2051  10.2756  10.7993  10.9129

          k = 0.1250 0.5774 0.0000 ( 21108 PWs)   bands (ev):

   -53.4540 -53.4497 -53.3696 -53.3646 -27.8132 -27.8060 -27.7289 -27.7186
   -27.5883 -27.5823 -27.5635 -27.5571 -27.5043 -27.4964 -27.4792 -27.4702
    -4.8374  -4.7550  -4.7154  -4.6710  -4.6559  -4.6434  -4.5853  -4.5509
     1.6558   1.7739   1.8010   1.8702   2.2634   2.3515   2.3886   2.4487
     3.2088   3.3608   3.4372   3.5074   4.1130   4.1811   4.2282   4.2793
     5.2516   5.4007   5.4328   5.4854   5.4998   5.5684   5.5735   5.6548
     6.9186   6.9676   7.0353   7.0680   9.5872   9.6109   9.6642   9.6964
    10.1979  10.2690  10.3307  10.3697  10.8964  11.0387

          k = 0.1875 0.3248 0.0000 ( 21195 PWs)   bands (ev):

   -53.4664 -53.4621 -53.3820 -53.3770 -27.7007 -27.6938 -27.6164 -27.6125
   -27.6065 -27.6065 -27.5318 -27.5286 -27.5254 -27.5205 -27.4475 -27.4386
    -5.5796  -5.4520  -5.3790  -5.3453  -5.0176  -4.9251  -4.8464  -4.8018
     2.1061   2.3501   2.4291   2.5089   3.2067   3.2879   3.3431   3.4223
     3.5417   3.5947   3.6790   3.7179   3.9254   4.0532   4.1472   4.3154
     5.2051   5.2658   5.3199   5.3609   6.0810   6.1815   6.2212   6.3137
     6.5033   6.5377   6.6133   6.6290   8.9870   9.2015   9.3196   9.5472
     9.8489   9.8867   9.9222   9.9678  10.0854  10.2144

          k = 0.1875 0.3969 0.0000 ( 21153 PWs)   bands (ev):

   -53.4602 -53.4559 -53.3758 -53.3708 -27.7427 -27.7357 -27.6584 -27.6483
   -27.6004 -27.5944 -27.5627 -27.5562 -27.5165 -27.5085 -27.4783 -27.4693
    -5.2409  -5.1262  -5.0601  -5.0252  -4.8522  -4.7858  -4.7098  -4.6803
     2.0324   2.2128   2.2799   2.3327   2.7676   2.8300   2.8351   2.9252
     3.5078   3.6480   3.7254   3.7722   3.9302   4.0393   4.1323   4.2868
     4.8856   4.9562   5.0210   5.0526   5.8432   5.9272   5.9790   6.0346
     6.6085   6.6431   6.7220   6.7404   9.1400   9.3710   9.4968   9.7809
     9.9690   9.9868  10.0461  10.0743  10.2647  10.3933

          k = 0.1875 0.4691 0.0000 ( 21101 PWs)   bands (ev):

   -53.4555 -53.4512 -53.3711 -53.3661 -27.7732 -27.7661 -27.6889 -27.6787
   -27.5911 -27.5877 -27.5852 -27.5812 -27.5072 -27.5033 -27.4993 -27.4942
    -4.9527  -4.8555  -4.8028  -4.7590  -4.7086  -4.6705  -4.6043  -4.5759
     1.9500   2.0986   2.1484   2.2027   2.3724   2.4283   2.4541   2.5245
     3.4245   3.5975   3.6618   3.7061   3.9785   4.1130   4.1943   4.2939
     4.6891   4.8052   4.8836   4.9318   5.5513   5.6320   5.7006   5.7482
     6.8135   6.8394   6.9173   6.9340   9.3598   9.5221   9.6025   9.7360
    10.1295  10.1820  10.2375  10.3092  10.4744  10.5599

          k = 0.1875 0.5413 0.0000 ( 21112 PWs)   bands (ev):

   -53.4529 -53.4486 -53.3685 -53.3635 -27.7892 -27.7821 -27.7049 -27.6947
   -27.6016 -27.5951 -27.5861 -27.5802 -27.5173 -27.5081 -27.5022 -27.4943
    -4.7795  -4.6993  -4.6650  -4.6246  -4.6054  -4.6012  -4.5483  -4.5128
     1.9071   2.0430   2.0733   2.1421   2.1601   2.2106   2.2515   2.3082
     3.2879   3.4549   3.5301   3.5861   4.0939   4.2047   4.2647   4.3174
     4.6371   4.7863   4.8653   4.9209   5.3595   5.4257   5.4895   5.5509
     6.9963   7.0323   7.1061   7.1298   9.4352   9.4837   9.5406   9.5782
    10.3090  10.4103  10.4696  10.5455  10.5920  10.6503

          k = 0.2500 0.4330 0.0000 ( 21125 PWs)   bands (ev):

   -53.4555 -53.4512 -53.3711 -53.3661 -27.7587 -27.7516 -27.6744 -27.6643
   -27.6026 -27.5961 -27.5912 -27.5852 -27.5183 -27.5091 -27.5072 -27.4993
    -4.9587  -4.8598  -4.8060  -4.7631  -4.7066  -4.6671  -4.6000  -4.5721
     2.0546   2.2187   2.2790   2.3223   2.3792   2.4162   2.4426   2.5116
     3.5777   3.6995   3.7843   3.8355   3.9966   4.0974   4.1853   4.3296
     4.4053   4.4447   4.5053   4.5362   5.6072   5.6756   5.7617   5.7731
     6.7971   6.8217   6.9030   6.9168   9.2980   9.4809   9.5697   9.7281
    10.1403  10.1876  10.2440  10.3148  10.3500  10.4303

          k = 0.2500 0.5052 0.0000 ( 21117 PWs)   bands (ev):

   -53.4523 -53.4480 -53.3679 -53.3629 -27.7634 -27.7564 -27.6791 -27.6690
   -27.6352 -27.6286 -27.5849 -27.5790 -27.5509 -27.5416 -27.5010 -27.4931
    -4.7514  -4.6713  -4.6393  -4.5980  -4.5823  -4.5734  -4.5258  -4.4901
     2.0398   2.1174   2.1243   2.2150   2.2234   2.3101   2.3616   2.4117
     3.4493   3.6209   3.6654   3.7084   4.0010   4.1138   4.1790   4.2269
     4.2566   4.2993   4.3545   4.4324   5.3427   5.4036   5.4877   5.5244
     7.0396   7.0609   7.1401   7.1541   9.2999   9.3691   9.4282   9.4775
    10.2800  10.3294  10.4093  10.4250  10.5549  10.5900

          k = 0.2500 0.5774 0.0000 ( 21116 PWs)   bands (ev):

   -53.4512 -53.4469 -53.3668 -53.3618 -27.7633 -27.7562 -27.6790 -27.6688
   -27.6485 -27.6418 -27.5828 -27.5768 -27.5641 -27.5548 -27.4988 -27.4910
    -4.6710  -4.6025  -4.5857  -4.5577  -4.5518  -4.5074  -4.4943  -4.4598
     1.9531   2.0188   2.0257   2.1154   2.2921   2.3775   2.4005   2.4717
     3.3078   3.4611   3.5328   3.5700   3.9374   4.1312   4.1749   4.2351
     4.3077   4.3584   4.4132   4.4498   5.2360   5.2684   5.3536   5.3913
     7.1651   7.1914   7.2685   7.2858   9.2340   9.2550   9.3165   9.3466
    10.2975  10.3692  10.4108  10.4569  10.7188  10.7442

          k = 0.3125 0.5413 0.0000 ( 21100 PWs)   bands (ev):

   -53.4506 -53.4463 -53.3662 -53.3612 -27.7422 -27.7351 -27.6769 -27.6703
   -27.6579 -27.6477 -27.5926 -27.5832 -27.5816 -27.5757 -27.4977 -27.4898
    -4.6318  -4.5685  -4.5593  -4.5360  -4.5325  -4.4768  -4.4695  -4.4402
     1.8918   1.9483   1.9630   2.0456   2.4984   2.6144   2.6515   2.7102
     3.3098   3.3573   3.4003   3.4856   3.7978   3.8684   3.8836   3.9484
     4.3445   4.4057   4.4730   4.5052   5.1401   5.1890   5.2775   5.3311
     7.2493   7.2681   7.3478   7.3596   9.1174   9.1394   9.2013   9.2326
    10.2455  10.2750  10.3200  10.3724  10.8183  10.8545

     the Fermi energy is     8.4077 ev

!    total energy              =   -1978.36708191 Ry
     total all-electron energy =    -38771.687927 Ry
     estimated scf accuracy    <          7.1E-10 Ry
     smearing contrib. (-TS)   =       0.00007561 Ry
     internal energy E=F+TS    =   -1978.36715752 Ry

     The total energy is F=E-TS. E is the sum of the following terms:
     one-electron contribution =   -1453.85033606 Ry
     hartree contribution      =     769.18835830 Ry
     xc contribution           =    -119.23819842 Ry
     ewald contribution        =      95.38458987 Ry
     one-center paw contrib.   =   -1269.85157121 Ry

     convergence has been achieved in  30 iterations

     Forces acting on atoms (cartesian axes, Ry/au):

     atom    1 type  2   force =     0.00000000    0.00000000    0.00360783
     atom    2 type  1   force =     0.00000000    0.00000000    0.00130781
     atom    3 type  2   force =     0.00000000    0.00000000   -0.00138753
     atom    4 type  2   force =     0.00000000    0.00000000   -0.00365170
     atom    5 type  1   force =     0.00000000   -0.00000000   -0.00117487
     atom    6 type  2   force =     0.00000000    0.00000000   -0.00378013
     atom    7 type  2   force =     0.00000000    0.00000000    0.00234461
     atom    8 type  1   force =     0.00000000   -0.00000000    0.00401522
     atom    9 type  2   force =     0.00000000    0.00000000    0.00232341
     atom   10 type  2   force =     0.00000000    0.00000000   -0.00109682
     atom   11 type  1   force =     0.00000000    0.00000000   -0.00103595
     atom   12 type  2   force =     0.00000000    0.00000000   -0.00147189

     Total force =     0.008782     Total SCF correction =     0.000075
     Energy error            =      5.5E-04 Ry
     Gradient error          =      4.0E-03 Ry/Bohr

     number of scf cycles    =  19
     number of bfgs steps    =  18

     energy             old  =   -1978.3665355411 Ry
     energy             new  =   -1978.3670819113 Ry

     CASE: energy            _new < energy            _old

     new trust radius        =       0.0362194171 bohr
     new conv_thr            =       0.0000000005 Ry


ATOMIC_POSITIONS (crystal)
S                0.3333330000        0.6666670000       -0.1164200987
Mo              -0.0000000000       -0.0000000000       -0.0639755316
S                0.3333330000        0.6666670000       -0.0114706407
S                0.6666670000        0.3333330000        0.1072526833
Mo               0.3333330000        0.6666670000        0.1595810050
S                0.6666670000        0.3333330000        0.2118171504
S               -0.0000000000       -0.0000000000        0.3062353110
Mo               0.6666670000        0.3333330000        0.3584814514
S               -0.0000000000       -0.0000000000        0.4108023029
S                0.3333330000        0.6666670000        0.5317572024
Mo               0.0000000000        0.0000000000        0.5842498542
S                0.3333330000        0.6666670000        0.6366893104



     Writing config-only to output data dir ./tmp/relax/mos2_slab.save/ :
     XML data file
     NEW-OLD atomic charge density approx. for the potential

     total cpu time spent up to now is    68928.5 secs

     Self-consistent Calculation

     iteration #  1     ecut=    80.00 Ry     beta= 0.30
     Davidson diagonalization with overlap
     ethr =  1.00E-06,  avg # of iterations =  7.1

     total cpu time spent up to now is    69221.4 secs

     total energy              =   -1978.36731177 Ry
     estimated scf accuracy    <       0.00040988 Ry

     iteration #  2     ecut=    80.00 Ry     beta= 0.30
     Davidson diagonalization with overlap
     ethr =  3.94E-07,  avg # of iterations =  1.1

     total cpu time spent up to now is    69323.0 secs

     total energy              =   -1978.36723644 Ry
     estimated scf accuracy    <       0.00026118 Ry

     iteration #  3     ecut=    80.00 Ry     beta= 0.30
     Davidson diagonalization with overlap
     ethr =  2.51E-07,  avg # of iterations =  2.6

     total cpu time spent up to now is    69443.4 secs

     total energy              =   -1978.36726252 Ry
     estimated scf accuracy    <       0.00001157 Ry

     iteration #  4     ecut=    80.00 Ry     beta= 0.30
     Davidson diagonalization with overlap
     ethr =  1.11E-08,  avg # of iterations =  3.4

     total cpu time spent up to now is    69577.7 secs

     total energy              =   -1978.36726439 Ry
     estimated scf accuracy    <       0.00000406 Ry

     iteration #  5     ecut=    80.00 Ry     beta= 0.30
     Davidson diagonalization with overlap
     ethr =  3.90E-09,  avg # of iterations =  3.3

     total cpu time spent up to now is    69702.5 secs

     total energy              =   -1978.36726458 Ry
     estimated scf accuracy    <       0.00000175 Ry

     iteration #  6     ecut=    80.00 Ry     beta= 0.30
     Davidson diagonalization with overlap
     ethr =  1.68E-09,  avg # of iterations =  2.0

     total cpu time spent up to now is    69811.3 secs

     total energy              =   -1978.36726457 Ry
     estimated scf accuracy    <       0.00000059 Ry

     iteration #  7     ecut=    80.00 Ry     beta= 0.30
     Davidson diagonalization with overlap
     ethr =  5.67E-10,  avg # of iterations =  3.4

     total cpu time spent up to now is    69931.0 secs

     total energy              =   -1978.36726465 Ry
     estimated scf accuracy    <       0.00000025 Ry

     iteration #  8     ecut=    80.00 Ry     beta= 0.30
     Davidson diagonalization with overlap
     ethr =  2.40E-10,  avg # of iterations =  2.2

     total cpu time spent up to now is    70047.1 secs

     total energy              =   -1978.36726466 Ry
     estimated scf accuracy    <       0.00000025 Ry

     iteration #  9     ecut=    80.00 Ry     beta= 0.30
     Davidson diagonalization with overlap
     ethr =  2.39E-10,  avg # of iterations =  2.6

     total cpu time spent up to now is    70159.7 secs

     total energy              =   -1978.36726463 Ry
     estimated scf accuracy    <       0.00000029 Ry

     iteration # 10     ecut=    80.00 Ry     beta= 0.30
     Davidson diagonalization with overlap
     ethr =  2.39E-10,  avg # of iterations =  1.4

     total cpu time spent up to now is    70263.8 secs

     total energy              =   -1978.36726466 Ry
     estimated scf accuracy    <       0.00000016 Ry

     iteration # 11     ecut=    80.00 Ry     beta= 0.30
     Davidson diagonalization with overlap
     ethr =  1.53E-10,  avg # of iterations =  4.0

     total cpu time spent up to now is    70387.1 secs

     total energy              =   -1978.36726466 Ry
     estimated scf accuracy    <       0.00000022 Ry

     iteration # 12     ecut=    80.00 Ry     beta= 0.30
     Davidson diagonalization with overlap
     ethr =  1.53E-10,  avg # of iterations =  1.0

     total cpu time spent up to now is    70487.4 secs

     total energy              =   -1978.36726459 Ry
     estimated scf accuracy    <       0.00000019 Ry

     iteration # 13     ecut=    80.00 Ry     beta= 0.30
     Davidson diagonalization with overlap
     ethr =  1.53E-10,  avg # of iterations =  3.3

     total cpu time spent up to now is    70611.5 secs

     total energy              =   -1978.36726464 Ry
     estimated scf accuracy    <       0.00000011 Ry

     iteration # 14     ecut=    80.00 Ry     beta= 0.30
     Davidson diagonalization with overlap
     ethr =  1.08E-10,  avg # of iterations =  2.7

     total cpu time spent up to now is    70724.1 secs

     total energy              =   -1978.36726464 Ry
     estimated scf accuracy    <       0.00000004 Ry

     iteration # 15     ecut=    80.00 Ry     beta= 0.30
     Davidson diagonalization with overlap
     ethr =  3.79E-11,  avg # of iterations =  2.2

     total cpu time spent up to now is    70834.3 secs

     total energy              =   -1978.36726462 Ry
     estimated scf accuracy    <       0.00000003 Ry

     iteration # 16     ecut=    80.00 Ry     beta= 0.30
     Davidson diagonalization with overlap
     ethr =  2.98E-11,  avg # of iterations =  2.1

     total cpu time spent up to now is    70947.9 secs

     total energy              =   -1978.36726462 Ry
     estimated scf accuracy    <       0.00000002 Ry

     iteration # 17     ecut=    80.00 Ry     beta= 0.30
     Davidson diagonalization with overlap
     ethr =  2.21E-11,  avg # of iterations =  2.7

     total cpu time spent up to now is    71061.5 secs

     total energy              =   -1978.36726461 Ry
     estimated scf accuracy    <       0.00000002 Ry

     iteration # 18     ecut=    80.00 Ry     beta= 0.30
     Davidson diagonalization with overlap
     ethr =  2.00E-11,  avg # of iterations =  1.2

     total cpu time spent up to now is    71163.9 secs

     total energy              =   -1978.36726462 Ry
     estimated scf accuracy    <       0.00000002 Ry

     iteration # 19     ecut=    80.00 Ry     beta= 0.30
     Davidson diagonalization with overlap
     ethr =  1.48E-11,  avg # of iterations =  3.5

     total cpu time spent up to now is    71280.8 secs

     total energy              =   -1978.36726462 Ry
     estimated scf accuracy    <       0.00000001 Ry

     iteration # 20     ecut=    80.00 Ry     beta= 0.30
     Davidson diagonalization with overlap
     ethr =  1.42E-11,  avg # of iterations =  3.0

     total cpu time spent up to now is    71396.8 secs

     total energy              =   -1978.36726461 Ry
     estimated scf accuracy    <          7.0E-09 Ry

     iteration # 21     ecut=    80.00 Ry     beta= 0.30
     Davidson diagonalization with overlap
     ethr =  6.72E-12,  avg # of iterations =  2.3

     total cpu time spent up to now is    71510.0 secs

     total energy              =   -1978.36726461 Ry
     estimated scf accuracy    <          5.2E-09 Ry

     iteration # 22     ecut=    80.00 Ry     beta= 0.30
     Davidson diagonalization with overlap
     ethr =  4.97E-12,  avg # of iterations =  2.7

     total cpu time spent up to now is    71626.1 secs

     total energy              =   -1978.36726461 Ry
     estimated scf accuracy    <          5.4E-09 Ry

     iteration # 23     ecut=    80.00 Ry     beta= 0.30
     Davidson diagonalization with overlap
     ethr =  4.97E-12,  avg # of iterations =  3.3

     total cpu time spent up to now is    71746.3 secs

     total energy              =   -1978.36726462 Ry
     estimated scf accuracy    <          1.3E-09 Ry

     iteration # 24     ecut=    80.00 Ry     beta= 0.30
     Davidson diagonalization with overlap
     ethr =  1.21E-12,  avg # of iterations =  2.7

     total cpu time spent up to now is    71860.3 secs

     total energy              =   -1978.36726462 Ry
     estimated scf accuracy    <          6.2E-10 Ry

     iteration # 25     ecut=    80.00 Ry     beta= 0.30
     Davidson diagonalization with overlap
     ethr =  5.96E-13,  avg # of iterations =  5.0

     total cpu time spent up to now is    71987.1 secs

     total energy              =   -1978.36726462 Ry
     estimated scf accuracy    <          2.1E-09 Ry

     iteration # 26     ecut=    80.00 Ry     beta= 0.30
     Davidson diagonalization with overlap
     ethr =  5.96E-13,  avg # of iterations =  4.6

     total cpu time spent up to now is    72117.6 secs

     End of self-consistent calculation

          k = 0.0000 0.0000 0.0000 ( 21311 PWs)   bands (ev):

   -53.4947 -53.4892 -53.4158 -53.4106 -27.6708 -27.6625 -27.5922 -27.5838
   -27.4344 -27.4344 -27.4257 -27.4257 -27.3553 -27.3553 -27.3471 -27.3471
    -6.9067  -6.7600  -6.6965  -6.6565  -5.6452  -5.4779  -5.4075  -5.3016
     1.2839   1.6744   1.7722   2.0555   4.7434   4.7434   4.7648   4.7924
     4.7924   4.8226   4.8226   4.8723   4.8723   5.3321   5.5910   5.8631
     5.8631   5.9088   5.9089   5.9454   5.9454   5.9884   5.9884   6.2735
     6.9769   7.3411   7.4926   7.9844  10.1040  10.1040  10.1568  10.1568
    10.2040  10.2041  10.2346  10.2346  10.3486  10.3487

          k = 0.0000 0.0722 0.0000 ( 21283 PWs)   bands (ev):

   -53.4932 -53.4876 -53.4142 -53.4090 -27.6677 -27.6594 -27.5892 -27.5807
   -27.4500 -27.4413 -27.4379 -27.4292 -27.3710 -27.3626 -27.3589 -27.3506
    -6.8470  -6.7007  -6.6371  -6.5973  -5.6171  -5.4527  -5.3824  -5.2791
     1.3519   1.7430   1.8406   2.1229   4.6078   4.6258   4.6583   4.6880
     4.7377   4.8055   4.8549   4.8851   4.9347   5.1100   5.2862   5.5747
     5.7655   5.8122   5.8492   5.8918   5.9776   6.0725   6.1597   6.4904
     6.9800   7.3205   7.4578   7.8862  10.0436  10.0681  10.1219  10.1467
    10.1738  10.1857  10.2220  10.2480  10.2647  10.2688

          k = 0.0000 0.1443 0.0000 ( 21263 PWs)   bands (ev):

   -53.4887 -53.4832 -53.4098 -53.4046 -27.6590 -27.6508 -27.5804 -27.5721
   -27.4942 -27.4853 -27.4480 -27.4393 -27.4152 -27.4067 -27.3690 -27.3607
    -6.6730  -6.5277  -6.4643  -6.4250  -5.5351  -5.3794  -5.3093  -5.2137
     1.5406   1.9324   2.0291   2.3060   4.2567   4.2975   4.3169   4.3472
     4.3916   4.6976   4.8214   4.9840   5.0348   5.0651   5.0662   5.1146
     5.5135   5.5622   5.6002   5.6419   6.0422   6.1984   6.3158   6.6344
     6.9527   7.2123   7.3162   7.5824   9.7554   9.8298   9.8841   9.9247
     9.9873   9.9970  10.0460  10.0798  10.1228  10.1939

          k = 0.0000 0.2165 0.0000 ( 21233 PWs)   bands (ev):

   -53.4820 -53.4765 -53.4031 -53.3980 -27.6460 -27.6378 -27.5674 -27.5599
   -27.5591 -27.5506 -27.4809 -27.4720 -27.4630 -27.4543 -27.3840 -27.3756
    -6.3992  -6.2564  -6.1934  -6.1555  -5.4063  -5.2649  -5.1950  -5.1120
     1.7952   2.1799   2.2726   2.5275   3.8204   3.8685   3.8950   3.9471
     3.9877   4.2398   4.3340   4.5237   5.1768   5.2376   5.2544   5.2863
     5.3095   5.3177   5.3457   5.3895   5.9592   6.1468   6.2670   6.5499
     6.8102   6.9515   7.0220   7.1303   9.3781   9.5101   9.6291   9.8263
     9.8392   9.9058   9.9612   9.9756  10.0190  10.0761

          k = 0.0000 0.2887 0.0000 ( 21197 PWs)   bands (ev):

   -53.4742 -53.4687 -53.3952 -53.3901 -27.6365 -27.6305 -27.6269 -27.6225
   -27.5575 -27.5519 -27.5482 -27.5438 -27.4807 -27.4719 -27.4017 -27.3932
    -6.0511  -5.9133  -5.8514  -5.8159  -5.2434  -5.1212  -5.0518  -4.9857
     1.9908   2.3286   2.4083   2.5816   3.4173   3.4957   3.5734   3.6061
     3.6838   3.7780   3.8630   3.9930   4.8537   4.9108   4.9493   4.9906
     5.5823   5.6381   5.6748   5.7180   5.7449   5.9517   6.0584   6.3067
     6.5333   6.5995   6.6588   6.7064   9.2432   9.4205   9.5613   9.6385
     9.7143   9.7838   9.8249   9.8475  10.1745  10.3368

          k = 0.0000 0.3608 0.0000 ( 21187 PWs)   bands (ev):

   -53.4663 -53.4608 -53.3873 -53.3823 -27.7122 -27.7023 -27.6332 -27.6236
   -27.6150 -27.6071 -27.5364 -27.5284 -27.4983 -27.4894 -27.4193 -27.4108
    -5.6667  -5.5377  -5.4786  -5.4458  -5.0653  -4.9666  -4.8983  -4.8518
     1.9629   2.1921   2.2522   2.3246   3.0388   3.2194   3.2820   3.3752
     3.4435   3.5132   3.5798   3.6886   4.5648   4.6234   4.6625   4.7033
     5.5090   5.7233   5.8122   5.8987   5.9651   6.0089   6.0327   6.0456
     6.3116   6.3716   6.4329   6.4748   9.3596   9.5373   9.5395   9.5998
     9.6646   9.6687   9.6997   9.9371  10.5038  10.6713

          k = 0.0000 0.4330 0.0000 ( 21140 PWs)   bands (ev):

   -53.4596 -53.4541 -53.3806 -53.3756 -27.7757 -27.7655 -27.6967 -27.6868
   -27.6019 -27.5940 -27.5233 -27.5153 -27.5132 -27.5042 -27.4342 -27.4256
    -5.3004  -5.1850  -5.1324  -5.0995  -4.8983  -4.8255  -4.7605  -4.7310
     1.7451   1.8953   1.9323   1.9867   2.7008   2.8688   2.9084   2.9818
     3.3121   3.4349   3.4971   3.5944   4.3434   4.4033   4.4428   4.4832
     5.3326   5.5432   5.6216   5.8184   6.1500   6.2306   6.2844   6.3136
     6.3291   6.4111   6.4673   6.5274   9.5353   9.5790   9.6201   9.6460
     9.6655   9.7712   9.8617  10.0670  10.8149  10.9636

          k = 0.0000 0.5052 0.0000 ( 21078 PWs)   bands (ev):

   -53.4551 -53.4497 -53.3761 -53.3711 -27.8178 -27.8074 -27.7388 -27.7287
   -27.5930 -27.5853 -27.5231 -27.5145 -27.5141 -27.5066 -27.4441 -27.4355
    -5.0243  -4.9257  -4.8847  -4.8446  -4.7748  -4.7253  -4.6695  -4.6426
     1.5246   1.6446   1.6677   1.7278   2.4634   2.6062   2.6441   2.7037
     3.1996   3.3333   3.3974   3.4782   4.2054   4.2660   4.3056   4.3460
     5.2358   5.4385   5.5125   5.6885   6.3018   6.3951   6.4562   6.4830
     6.5175   6.6025   6.6555   6.7134   9.5877   9.6163   9.6794   9.6962
     9.9095  10.0140  10.0735  10.1903  11.0118  11.1370

          k = 0.0000-0.5774 0.0000 ( 21006 PWs)   bands (ev):

   -53.4535 -53.4481 -53.3746 -53.3695 -27.8325 -27.8220 -27.7535 -27.7433
   -27.5899 -27.5822 -27.5266 -27.5176 -27.5114 -27.5035 -27.4475 -27.4389
    -4.9177  -4.8289  -4.7956  -4.7498  -4.7283  -4.6892  -4.6392  -4.6088
     1.4345   1.5484   1.5687   1.6301   2.3778   2.5114   2.5496   2.6055
     3.1493   3.2845   3.3491   3.4248   4.1585   4.2194   4.2591   4.2994
     5.2065   5.4050   5.4778   5.6448   6.3510   6.4493   6.5125   6.5402
     6.6353   6.7059   6.7528   6.8002   9.6177   9.6412   9.7028   9.7203
    10.0636  10.1236  10.1875  10.2259  11.0751  11.1868

          k = 0.0625 0.1083 0.0000 ( 21269 PWs)   bands (ev):

   -53.4902 -53.4846 -53.4112 -53.4061 -27.6619 -27.6536 -27.5833 -27.5749
   -27.4795 -27.4706 -27.4452 -27.4365 -27.4004 -27.3920 -27.3661 -27.3579
    -6.7301  -6.5845  -6.5210  -6.4816  -5.5620  -5.4035  -5.3333  -5.2351
     1.4807   1.8726   1.9697   2.2489   4.3676   4.4044   4.4230   4.4506
     4.4993   4.8257   4.9243   4.9628   4.9740   5.0045   5.0538   5.2310
     5.5508   5.5973   5.6344   5.6770   6.0774   6.2147   6.3238   6.6382
     6.9693   7.2574   7.3705   7.6851   9.8768   9.9118   9.9337   9.9704
    10.0034  10.0146  10.0615  10.1312  10.1442  10.1703

          k = 0.0625 0.1804 0.0000 ( 21194 PWs)   bands (ev):

   -53.4846 -53.4791 -53.4056 -53.4005 -27.6510 -27.6428 -27.5724 -27.5641
   -27.5332 -27.5241 -27.4589 -27.4542 -27.4502 -27.4454 -27.3799 -27.3716
    -6.5061  -6.3621  -6.2990  -6.2605  -5.4564  -5.3094  -5.2394  -5.1514
     1.7063   2.0965   2.1914   2.4592   3.9832   4.0325   4.0546   4.1030
     4.1328   4.4447   4.5513   4.7751   5.1338   5.1833   5.1913   5.2289
     5.2314   5.2678   5.2757   5.3113   6.1332   6.2909   6.4033   6.6737
     6.8877   7.0717   7.1523   7.3040   9.4868   9.5934   9.6824   9.8124
     9.8555   9.9198   9.9418   9.9786   9.9979  10.0516

          k = 0.0625 0.2526 0.0000 ( 21202 PWs)   bands (ev):

   -53.4773 -53.4718 -53.3984 -53.3933 -27.6367 -27.6286 -27.6027 -27.5932
   -27.5581 -27.5499 -27.5236 -27.5146 -27.4770 -27.4681 -27.3979 -27.3895
    -6.1946  -6.0543  -5.9919  -5.9553  -5.3100  -5.1796  -5.1100  -5.0367
     1.9441   2.3126   2.3996   2.6203   3.5941   3.6420   3.6843   3.7353
     3.8086   4.0143   4.0996   4.2518   4.8108   4.8580   4.9005   4.9397
     5.4081   5.4622   5.4962   5.5420   6.0334   6.1965   6.2977   6.5187
     6.6763   6.7559   6.8158   6.8642   9.2215   9.3824   9.4965   9.6629
     9.7720   9.8184   9.8727   9.8853   9.9808  10.1015

          k = 0.0625 0.3248 0.0000 ( 21194 PWs)   bands (ev):

   -53.4694 -53.4640 -53.3905 -53.3854 -27.6770 -27.6672 -27.6212 -27.6133
   -27.5980 -27.5886 -27.5427 -27.5346 -27.4964 -27.4875 -27.4174 -27.4089
    -5.8268  -5.6934  -5.6329  -5.5990  -5.1381  -5.0291  -4.9602  -4.9052
     2.0350   2.3189   2.3884   2.4995   3.2391   3.3696   3.4668   3.5166
     3.5835   3.5938   3.6806   3.7734   4.5051   4.5666   4.6154   4.6531
     5.6410   5.7032   5.7318   5.7817   5.8245   5.9785   6.0636   6.2531
     6.4419   6.4839   6.5445   6.5720   9.1839   9.3579   9.4517   9.5733
     9.7054   9.7626   9.7967   9.9252  10.2345  10.3915

          k = 0.0625 0.3969 0.0000 ( 21151 PWs)   bands (ev):

   -53.4621 -53.4567 -53.3832 -53.3781 -27.7449 -27.7349 -27.6659 -27.6562
   -27.6069 -27.5990 -27.5283 -27.5204 -27.5143 -27.5053 -27.4352 -27.4267
    -5.4483  -5.3261  -5.2701  -5.2379  -4.9632  -4.8790  -4.8120  -4.7760
     1.8951   2.0780   2.1272   2.1822   2.8677   3.0344   3.0736   3.1512
     3.3904   3.4993   3.5595   3.6625   4.3037   4.3716   4.4197   4.4574
     5.5541   5.7264   5.7817   5.8078   5.8476   5.8944   5.9247   6.0066
     6.4486   6.4862   6.5407   6.5683   9.3158   9.4580   9.5191   9.6023
     9.7486   9.8059   9.8511  10.0116  10.5741  10.7251

          k = 0.0625 0.4691 0.0000 ( 21105 PWs)   bands (ev):

   -53.4566 -53.4511 -53.3776 -53.3726 -27.7965 -27.7862 -27.7175 -27.7075
   -27.5959 -27.5881 -27.5279 -27.5189 -27.5173 -27.5094 -27.4489 -27.4403
    -5.1218  -5.0155  -4.9690  -4.9329  -4.8143  -4.7556  -4.6951  -4.6693
     1.6690   1.8012   1.8303   1.8874   2.5526   2.6907   2.7241   2.7859
     3.2724   3.4083   3.4706   3.5556   4.1927   4.2569   4.2973   4.3391
     5.3633   5.5386   5.6073   5.7579   5.9119   5.9852   6.0469   6.0784
     6.6207   6.6662   6.7169   6.7514   9.5056   9.5861   9.6302   9.6780
     9.8832   9.9543  10.0079  10.1342  10.8895  11.0184

          k = 0.0625 0.5413 0.0000 ( 21084 PWs)   bands (ev):

   -53.4535 -53.4481 -53.3746 -53.3695 -27.8242 -27.8138 -27.7452 -27.7351
   -27.5900 -27.5822 -27.5353 -27.5263 -27.5114 -27.5035 -27.4563 -27.4476
    -4.9242  -4.8334  -4.7989  -4.7540  -4.7258  -4.6858  -4.6349  -4.6051
     1.5134   1.6294   1.6502   1.7116   2.3736   2.4963   2.5310   2.5866
     3.1782   3.3189   3.3827   3.4581   4.1470   4.2050   4.2390   4.2855
     5.2583   5.4358   5.5055   5.6539   5.9956   6.0868   6.1513   6.1755
     6.7738   6.8291   6.8794   6.9172   9.6181   9.6451   9.6937   9.7209
    10.0579  10.1242  10.1816  10.2411  11.1161  11.2151

          k = 0.1250 0.2165 0.0000 ( 21179 PWs)   bands (ev):

   -53.4784 -53.4729 -53.3995 -53.3944 -27.6389 -27.6308 -27.5886 -27.5792
   -27.5603 -27.5521 -27.5096 -27.5006 -27.4778 -27.4690 -27.3988 -27.3904
    -6.2438  -6.1028  -6.0403  -6.0033  -5.3327  -5.1996  -5.1299  -5.0542
     1.9253   2.3036   2.3931   2.6303   3.6653   3.7115   3.7394   3.7976
     3.8947   4.1692   4.2603   4.4364   4.6787   4.7147   4.7651   4.7980
     5.3285   5.3821   5.4146   5.4619   6.2201   6.3594   6.4547   6.6462
     6.7433   6.8247   6.8905   6.9291   9.2085   9.3607   9.4613   9.6303
     9.7498   9.8201   9.8332   9.8665   9.9109   9.9753

          k = 0.1250 0.2887 0.0000 ( 21199 PWs)   bands (ev):

   -53.4712 -53.4657 -53.3922 -53.3871 -27.6522 -27.6425 -27.6246 -27.6166
   -27.5732 -27.5639 -27.5460 -27.5379 -27.5012 -27.4923 -27.4222 -27.4137
    -5.9110  -5.7756  -5.7144  -5.6798  -5.1758  -5.0614  -4.9923  -4.9327
     2.0797   2.4020   2.4778   2.6264   3.4079   3.4756   3.5565   3.6046
     3.6890   3.7866   3.8662   3.9242   4.2488   4.3247   4.3912   4.4781
     5.4311   5.4916   5.5274   5.5712   6.1481   6.2691   6.3450   6.4820
     6.5511   6.5681   6.6204   6.6487   9.0494   9.2295   9.3328   9.5036
     9.7547   9.8034   9.8343   9.8905   9.9906  10.1155

          k = 0.1250 0.3608 0.0000 ( 21195 PWs)   bands (ev):

   -53.4639 -53.4584 -53.3849 -53.3798 -27.7147 -27.7047 -27.6357 -27.6261
   -27.6103 -27.6024 -27.5317 -27.5250 -27.5237 -27.5160 -27.4459 -27.4373
    -5.5451  -5.4190  -5.3611  -5.3288  -5.0036  -4.9121  -4.8443  -4.8029
     2.0430   2.2657   2.3252   2.3927   3.0719   3.2004   3.2427   3.3154
     3.4893   3.5708   3.6304   3.7177   4.0529   4.1753   4.2472   4.3483
     5.3753   5.4408   5.4835   5.5202   5.9251   6.0369   6.0934   6.2066
     6.4980   6.5295   6.5892   6.6089   9.0859   9.2786   9.3849   9.5699
     9.8326   9.8741   9.9096   9.9871  10.2306  10.3751

          k = 0.1250 0.4330 0.0000 ( 21113 PWs)   bands (ev):

   -53.4577 -53.4522 -53.3787 -53.3737 -27.7670 -27.7568 -27.6880 -27.6782
   -27.5981 -27.5903 -27.5452 -27.5361 -27.5195 -27.5116 -27.4662 -27.4575
    -5.1986  -5.0865  -5.0361  -5.0022  -4.8414  -4.7751  -4.7116  -4.6843
     1.8755   2.0318   2.0732   2.1248   2.6623   2.7701   2.7869   2.8545
     3.3925   3.5351   3.5944   3.6725   4.0208   4.1429   4.2103   4.2839
     5.3160   5.4076   5.4607   5.4955   5.6537   5.7559   5.8131   5.9165
     6.6377   6.6697   6.7289   6.7504   9.2924   9.4721   9.5685   9.7348
     9.9439   9.9735  10.0246  10.0714  10.5421  10.6723

          k = 0.1250 0.5052 0.0000 ( 21081 PWs)   bands (ev):

   -53.4535 -53.4481 -53.3746 -53.3696 -27.8017 -27.7914 -27.7227 -27.7127
   -27.5900 -27.5822 -27.5588 -27.5496 -27.5114 -27.5036 -27.4797 -27.4710
    -4.9392  -4.8442  -4.8067  -4.7641  -4.7201  -4.6776  -4.6245  -4.5961
     1.7191   1.8450   1.8704   1.9292   2.3673   2.4617   2.4859   2.5448
     3.2676   3.4221   3.4840   3.5538   4.0640   4.1649   4.2193   4.2622
     5.3070   5.4226   5.4603   5.5153   5.5375   5.5618   5.5936   5.7076
     6.8243   6.8681   6.9253   6.9531   9.5103   9.6090   9.6646   9.7296
    10.0905  10.1485  10.2015  10.2724  10.8136  10.9193

          k = 0.1250 0.5774 0.0000 ( 21108 PWs)   bands (ev):

   -53.4521 -53.4467 -53.3731 -53.3681 -27.8139 -27.8035 -27.7349 -27.7248
   -27.5871 -27.5794 -27.5635 -27.5544 -27.5085 -27.5007 -27.4845 -27.4757
    -4.8395  -4.7544  -4.7257  -4.6804  -4.6698  -4.6424  -4.5947  -4.5625
     1.6574   1.7749   1.7940   1.8571   2.2620   2.3530   2.3803   2.4363
     3.2066   3.3612   3.4241   3.4927   4.1087   4.1818   4.2177   4.2657
     5.2627   5.4025   5.4366   5.4871   5.5021   5.5580   5.5679   5.6473
     6.9159   6.9688   7.0261   7.0582   9.5867   9.6128   9.6593   9.6899
    10.2019  10.2720  10.3286  10.3672  10.9171  11.0444

          k = 0.1875 0.3248 0.0000 ( 21195 PWs)   bands (ev):

   -53.4645 -53.4590 -53.3855 -53.3804 -27.7011 -27.6912 -27.6221 -27.6125
   -27.6115 -27.6036 -27.5329 -27.5318 -27.5249 -27.5227 -27.4527 -27.4441
    -5.5786  -5.4512  -5.3929  -5.3603  -5.0174  -4.9233  -4.8553  -4.8119
     2.1057   2.3482   2.4115   2.4895   3.2045   3.2850   3.3425   3.4074
     3.5326   3.5938   3.6686   3.7117   3.9179   4.0527   4.1365   4.2981
     5.2007   5.2669   5.3084   5.3469   6.0871   6.1835   6.2241   6.3152
     6.5009   6.5396   6.6034   6.6189   8.9980   9.2067   9.3258   9.5480
     9.8530   9.8870   9.9227   9.9688  10.0860  10.2182

          k = 0.1875 0.3969 0.0000 ( 21153 PWs)   bands (ev):

   -53.4583 -53.4528 -53.3793 -53.3743 -27.7431 -27.7331 -27.6641 -27.6544
   -27.5993 -27.5915 -27.5627 -27.5535 -27.5207 -27.5128 -27.4837 -27.4749
    -5.2407  -5.1254  -5.0733  -5.0402  -4.8549  -4.7844  -4.7196  -4.6906
     2.0308   2.2121   2.2650   2.3156   2.7608   2.8252   2.8316   2.9087
     3.5104   3.6477   3.7206   3.7671   3.9234   4.0391   4.1228   4.2713
     4.8833   4.9576   5.0103   5.0403   5.8523   5.9314   5.9791   6.0351
     6.6045   6.6445   6.7108   6.7290   9.1515   9.3763   9.5029   9.7821
     9.9686   9.9892  10.0414  10.0673  10.2690  10.3973

          k = 0.1875 0.4691 0.0000 ( 21101 PWs)   bands (ev):

   -53.4535 -53.4481 -53.3746 -53.3696 -27.7738 -27.7635 -27.6948 -27.6849
   -27.5900 -27.5877 -27.5823 -27.5785 -27.5114 -27.5087 -27.5036 -27.4998
    -4.9537  -4.8548  -4.8146  -4.7741  -4.7147  -4.6694  -4.6140  -4.5869
     1.9503   2.0988   2.1381   2.1878   2.3655   2.4289   2.4432   2.5083
     3.4273   3.5980   3.6535   3.6966   3.9762   4.1137   4.1858   4.2833
     4.6901   4.8067   4.8729   4.9202   5.5598   5.6362   5.7012   5.7476
     6.8093   6.8409   6.9065   6.9230   9.3674   9.5250   9.6034   9.7325
    10.1303  10.1837  10.2333  10.3067  10.4835  10.5674

          k = 0.1875 0.5413 0.0000 ( 21112 PWs)   bands (ev):

   -53.4510 -53.4456 -53.3720 -53.3670 -27.7898 -27.7795 -27.7108 -27.7008
   -27.6017 -27.5924 -27.5849 -27.5773 -27.5227 -27.5137 -27.5064 -27.4986
    -4.7816  -4.6989  -4.6743  -4.6335  -4.6169  -4.6040  -4.5577  -4.5245
     1.9103   2.0437   2.0667   2.1291   2.1529   2.2114   2.2395   2.2923
     3.2876   3.4553   3.5175   3.5729   4.0945   4.2062   4.2585   4.3095
     4.6410   4.7879   4.8553   4.9103   5.3645   5.4295   5.4910   5.5500
     6.9932   7.0336   7.0962   7.1196   9.4346   9.4852   9.5342   9.5704
    10.3168  10.4151  10.4714  10.5470  10.6063  10.6564

          k = 0.2500 0.4330 0.0000 ( 21125 PWs)   bands (ev):

   -53.4535 -53.4481 -53.3746 -53.3696 -27.7592 -27.7490 -27.6802 -27.6704
   -27.6027 -27.5934 -27.5900 -27.5823 -27.5237 -27.5147 -27.5114 -27.5036
    -4.9595  -4.8591  -4.8178  -4.7782  -4.7125  -4.6660  -4.6098  -4.5831
     2.0550   2.2185   2.2674   2.3076   2.3698   2.4168   2.4297   2.4941
     3.5866   3.6990   3.7849   3.8275   3.9919   4.0983   4.1784   4.3176
     4.4004   4.4457   4.4948   4.5241   5.6182   5.6797   5.7624   5.7714
     6.7927   6.8233   6.8918   6.9056   9.3070   9.4843   9.5715   9.7249
    10.1410  10.1902  10.2398  10.3130  10.3560  10.4387

          k = 0.2500 0.5052 0.0000 ( 21117 PWs)   bands (ev):

   -53.4504 -53.4450 -53.3714 -53.3664 -27.7640 -27.7538 -27.6850 -27.6751
   -27.6353 -27.6259 -27.5838 -27.5761 -27.5563 -27.5473 -27.5052 -27.4974
    -4.7535  -4.6709  -4.6481  -4.6073  -4.5890  -4.5811  -4.5353  -4.5018
     2.0366   2.1095   2.1234   2.2000   2.2145   2.3108   2.3515   2.3984
     3.4529   3.6215   3.6602   3.6973   4.0050   4.1120   4.1805   4.2274
     4.2468   4.2920   4.3460   4.4227   5.3521   5.4077   5.4889   5.5214
     7.0358   7.0626   7.1298   7.1439   9.2997   9.3704   9.4213   9.4688
    10.2922  10.3413  10.4151  10.4317  10.5598  10.5942

          k = 0.2500 0.5774 0.0000 ( 21116 PWs)   bands (ev):

   -53.4492 -53.4438 -53.3703 -53.3653 -27.7639 -27.7536 -27.6848 -27.6749
   -27.6486 -27.6392 -27.5816 -27.5739 -27.5696 -27.5605 -27.5030 -27.4952
    -4.6740  -4.6029  -4.5924  -4.5676  -4.5507  -4.5225  -4.5049  -4.4717
     1.9468   2.0151   2.0197   2.0975   2.2902   2.3784   2.3946   2.4594
     3.3072   3.4616   3.5207   3.5579   3.9465   4.1312   4.1734   4.2262
     4.3074   4.3534   4.4068   4.4438   5.2431   5.2726   5.3549   5.3877
     7.1622   7.1931   7.2591   7.2763   9.2287   9.2563   9.3064   9.3350
    10.3151  10.3827  10.4163  10.4667  10.7238  10.7488

          k = 0.3125 0.5413 0.0000 ( 21100 PWs)   bands (ev):

   -53.4486 -53.4432 -53.3697 -53.3647 -27.7428 -27.7326 -27.6771 -27.6676
   -27.6638 -27.6539 -27.5981 -27.5890 -27.5804 -27.5728 -27.5018 -27.4941
    -4.6351  -4.5705  -4.5641  -4.5459  -4.5311  -4.4897  -4.4827  -4.4523
     1.8832   1.9488   1.9510   2.0270   2.5003   2.6159   2.6445   2.6984
     3.3107   3.3545   3.4016   3.4732   3.7985   3.8698   3.8729   3.9367
     4.3443   4.4078   4.4688   4.5008   5.1488   5.1930   5.2789   5.3257
     7.2466   7.2701   7.3387   7.3506   9.1107   9.1404   9.1897   9.2194
    10.2629  10.2890  10.3256  10.3828  10.8236  10.8600

     the Fermi energy is     8.4084 ev

!    total energy              =   -1978.36726462 Ry
     total all-electron energy =    -38771.688109 Ry
     estimated scf accuracy    <          5.1E-10 Ry
     smearing contrib. (-TS)   =       0.00006800 Ry
     internal energy E=F+TS    =   -1978.36733262 Ry

     The total energy is F=E-TS. E is the sum of the following terms:
     one-electron contribution =   -1436.69888014 Ry
     hartree contribution      =     760.60556680 Ry
     xc contribution           =    -119.25127462 Ry
     ewald contribution        =      86.83044794 Ry
     one-center paw contrib.   =   -1269.85319259 Ry

     convergence has been achieved in  26 iterations

     Forces acting on atoms (cartesian axes, Ry/au):

     atom    1 type  2   force =     0.00000000    0.00000000    0.00116175
     atom    2 type  1   force =     0.00000000   -0.00000000    0.00108656
     atom    3 type  2   force =     0.00000000   -0.00000000    0.00128304
     atom    4 type  2   force =     0.00000000    0.00000000   -0.00564215
     atom    5 type  1   force =     0.00000000    0.00000000   -0.00177223
     atom    6 type  2   force =     0.00000000    0.00000000   -0.00028007
     atom    7 type  2   force =     0.00000000    0.00000000   -0.00059565
     atom    8 type  1   force =     0.00000000   -0.00000000    0.00324594
     atom    9 type  2   force =     0.00000000    0.00000000    0.00511945
     atom   10 type  2   force =     0.00000000   -0.00000000   -0.00160490
     atom   11 type  1   force =     0.00000000    0.00000000   -0.00091611
     atom   12 type  2   force =     0.00000000    0.00000000   -0.00108563

     Total force =     0.008996     Total SCF correction =     0.000089
     Energy error            =      1.8E-04 Ry
     Gradient error          =      5.6E-03 Ry/Bohr

     number of scf cycles    =  20
     number of bfgs steps    =  19

     energy             old  =   -1978.3670819113 Ry
     energy             new  =   -1978.3672646201 Ry

     CASE: energy            _new < energy            _old

     new trust radius        =       0.0178063686 bohr
     new conv_thr            =       0.0000000002 Ry


ATOMIC_POSITIONS (crystal)
S                0.3333330000        0.6666670000       -0.1162316283
Mo              -0.0000000000       -0.0000000000       -0.0639046489
S                0.3333330000        0.6666670000       -0.0115283675
S                0.6666670000        0.3333330000        0.1070638685
Mo               0.3333330000        0.6666670000        0.1593606880
S                0.6666670000        0.3333330000        0.2115030596
S               -0.0000000000       -0.0000000000        0.3065486753
Mo               0.6666670000        0.3333330000        0.3587341461
S               -0.0000000000       -0.0000000000        0.4109800615
S                0.3333330000        0.6666670000        0.5317188227
Mo               0.0000000000        0.0000000000        0.5841794598
S                0.3333330000        0.6666670000        0.6365758635



     Writing config-only to output data dir ./tmp/relax/mos2_slab.save/ :
     XML data file
     NEW-OLD atomic charge density approx. for the potential

     total cpu time spent up to now is    72172.8 secs

     Self-consistent Calculation

     iteration #  1     ecut=    80.00 Ry     beta= 0.30
     Davidson diagonalization with overlap
     ethr =  1.00E-06,  avg # of iterations =  6.0

     Threshold (ethr) on eigenvalues was too large:
     Diagonalizing with lowered threshold

     Davidson diagonalization with overlap
     ethr =  3.57E-08,  avg # of iterations =  4.4

     total cpu time spent up to now is    72525.8 secs

     total energy              =   -1978.36743285 Ry
     estimated scf accuracy    <       0.00006028 Ry

     iteration #  2     ecut=    80.00 Ry     beta= 0.30
     Davidson diagonalization with overlap
     ethr =  5.80E-08,  avg # of iterations =  1.0

     total cpu time spent up to now is    72626.0 secs

     total energy              =   -1978.36742168 Ry
     estimated scf accuracy    <       0.00003740 Ry

     iteration #  3     ecut=    80.00 Ry     beta= 0.30
     Davidson diagonalization with overlap
     ethr =  3.60E-08,  avg # of iterations =  2.6

     total cpu time spent up to now is    72747.3 secs

     total energy              =   -1978.36742559 Ry
     estimated scf accuracy    <       0.00000199 Ry

     iteration #  4     ecut=    80.00 Ry     beta= 0.30
     Davidson diagonalization with overlap
     ethr =  1.92E-09,  avg # of iterations =  3.4

     total cpu time spent up to now is    72873.2 secs

     total energy              =   -1978.36742582 Ry
     estimated scf accuracy    <       0.00000082 Ry

     iteration #  5     ecut=    80.00 Ry     beta= 0.30
     Davidson diagonalization with overlap
     ethr =  7.89E-10,  avg # of iterations =  2.4

     total cpu time spent up to now is    72989.1 secs

     total energy              =   -1978.36742584 Ry
     estimated scf accuracy    <       0.00000039 Ry

     iteration #  6     ecut=    80.00 Ry     beta= 0.30
     Davidson diagonalization with overlap
     ethr =  3.70E-10,  avg # of iterations =  2.7

     total cpu time spent up to now is    73101.5 secs

     total energy              =   -1978.36742586 Ry
     estimated scf accuracy    <       0.00000014 Ry

     iteration #  7     ecut=    80.00 Ry     beta= 0.30
     Davidson diagonalization with overlap
     ethr =  1.37E-10,  avg # of iterations =  2.9

     total cpu time spent up to now is    73219.7 secs

     total energy              =   -1978.36742585 Ry
     estimated scf accuracy    <       0.00000011 Ry

     iteration #  8     ecut=    80.00 Ry     beta= 0.30
     Davidson diagonalization with overlap
     ethr =  1.09E-10,  avg # of iterations =  2.0

     total cpu time spent up to now is    73329.0 secs

     total energy              =   -1978.36742586 Ry
     estimated scf accuracy    <       0.00000008 Ry

     iteration #  9     ecut=    80.00 Ry     beta= 0.30
     Davidson diagonalization with overlap
     ethr =  7.27E-11,  avg # of iterations =  2.1

     total cpu time spent up to now is    73442.0 secs

     total energy              =   -1978.36742586 Ry
     estimated scf accuracy    <       0.00000005 Ry

     iteration # 10     ecut=    80.00 Ry     beta= 0.30
     Davidson diagonalization with overlap
     ethr =  4.69E-11,  avg # of iterations =  2.4

     total cpu time spent up to now is    73556.3 secs

     total energy              =   -1978.36742585 Ry
     estimated scf accuracy    <       0.00000005 Ry

     iteration # 11     ecut=    80.00 Ry     beta= 0.30
     Davidson diagonalization with overlap
     ethr =  4.69E-11,  avg # of iterations =  2.6

     total cpu time spent up to now is    73676.8 secs

     total energy              =   -1978.36742585 Ry
     estimated scf accuracy    <       0.00000005 Ry

     iteration # 12     ecut=    80.00 Ry     beta= 0.30
     Davidson diagonalization with overlap
     ethr =  4.69E-11,  avg # of iterations =  1.0

     total cpu time spent up to now is    73777.5 secs

     total energy              =   -1978.36742584 Ry
     estimated scf accuracy    <       0.00000003 Ry

     iteration # 13     ecut=    80.00 Ry     beta= 0.30
     Davidson diagonalization with overlap
     ethr =  2.90E-11,  avg # of iterations =  3.3

     total cpu time spent up to now is    73901.7 secs

     total energy              =   -1978.36742584 Ry
     estimated scf accuracy    <       0.00000002 Ry

     iteration # 14     ecut=    80.00 Ry     beta= 0.30
     Davidson diagonalization with overlap
     ethr =  2.37E-11,  avg # of iterations =  1.4

     total cpu time spent up to now is    74005.9 secs

     total energy              =   -1978.36742584 Ry
     estimated scf accuracy    <       0.00000001 Ry

     iteration # 15     ecut=    80.00 Ry     beta= 0.30
     Davidson diagonalization with overlap
     ethr =  1.33E-11,  avg # of iterations =  1.1

     total cpu time spent up to now is    74106.7 secs

     total energy              =   -1978.36742584 Ry
     estimated scf accuracy    <       0.00000001 Ry

     iteration # 16     ecut=    80.00 Ry     beta= 0.30
     Davidson diagonalization with overlap
     ethr =  1.02E-11,  avg # of iterations =  1.9

     total cpu time spent up to now is    74213.4 secs

     total energy              =   -1978.36742584 Ry
     estimated scf accuracy    <          8.0E-09 Ry

     iteration # 17     ecut=    80.00 Ry     beta= 0.30
     Davidson diagonalization with overlap
     ethr =  7.65E-12,  avg # of iterations =  1.2

     total cpu time spent up to now is    74315.7 secs

     total energy              =   -1978.36742584 Ry
     estimated scf accuracy    <          7.0E-09 Ry

     iteration # 18     ecut=    80.00 Ry     beta= 0.30
     Davidson diagonalization with overlap
     ethr =  6.72E-12,  avg # of iterations =  1.2

     total cpu time spent up to now is    74417.6 secs

     total energy              =   -1978.36742584 Ry
     estimated scf accuracy    <          5.5E-09 Ry

     iteration # 19     ecut=    80.00 Ry     beta= 0.30
     Davidson diagonalization with overlap
     ethr =  5.33E-12,  avg # of iterations =  1.6

     total cpu time spent up to now is    74525.0 secs

     total energy              =   -1978.36742584 Ry
     estimated scf accuracy    <          3.8E-09 Ry

     iteration # 20     ecut=    80.00 Ry     beta= 0.30
     Davidson diagonalization with overlap
     ethr =  3.64E-12,  avg # of iterations =  2.0

     total cpu time spent up to now is    74638.6 secs

     total energy              =   -1978.36742583 Ry
     estimated scf accuracy    <          2.6E-09 Ry

     iteration # 21     ecut=    80.00 Ry     beta= 0.30
     Davidson diagonalization with overlap
     ethr =  2.52E-12,  avg # of iterations =  1.8

     total cpu time spent up to now is    74747.5 secs

     total energy              =   -1978.36742583 Ry
     estimated scf accuracy    <          1.6E-09 Ry

     iteration # 22     ecut=    80.00 Ry     beta= 0.30
     Davidson diagonalization with overlap
     ethr =  1.53E-12,  avg # of iterations =  2.0

     total cpu time spent up to now is    74858.2 secs

     total energy              =   -1978.36742583 Ry
     estimated scf accuracy    <          6.3E-10 Ry

     iteration # 23     ecut=    80.00 Ry     beta= 0.30
     Davidson diagonalization with overlap
     ethr =  6.02E-13,  avg # of iterations =  2.3

     total cpu time spent up to now is    74982.0 secs

     total energy              =   -1978.36742583 Ry
     estimated scf accuracy    <          2.0E-10 Ry

     iteration # 24     ecut=    80.00 Ry     beta= 0.30
     Davidson diagonalization with overlap
     ethr =  1.95E-13,  avg # of iterations =  2.3

     total cpu time spent up to now is    75095.9 secs

     End of self-consistent calculation

          k = 0.0000 0.0000 0.0000 ( 21311 PWs)   bands (ev):

   -53.4928 -53.4878 -53.4172 -53.4131 -27.6695 -27.6614 -27.5942 -27.5874
   -27.4334 -27.4334 -27.4249 -27.4249 -27.3577 -27.3577 -27.3514 -27.3514
    -6.9064  -6.7629  -6.7095  -6.6677  -5.6395  -5.4769  -5.4107  -5.3056
     1.2865   1.6682   1.7622   2.0444   4.7333   4.7333   4.7740   4.7869
     4.7869   4.8099   4.8099   4.8472   4.8472   5.3331   5.5980   5.8561
     5.8561   5.9048   5.9048   5.9355   5.9356   5.9682   5.9682   6.2722
     6.9825   7.3470   7.5014   7.9793  10.1091  10.1091  10.1584  10.1584
    10.2058  10.2059  10.2329  10.2329  10.3531  10.3532

          k = 0.0000 0.0722 0.0000 ( 21283 PWs)   bands (ev):

   -53.4912 -53.4862 -53.4157 -53.4115 -27.6664 -27.6584 -27.5912 -27.5844
   -27.4490 -27.4404 -27.4369 -27.4284 -27.3734 -27.3670 -27.3613 -27.3549
    -6.8468  -6.7035  -6.6500  -6.6085  -5.6116  -5.4518  -5.3858  -5.2831
     1.3545   1.7367   1.8305   2.1117   4.5981   4.6322   4.6533   4.6756
     4.7131   4.7956   4.8494   4.8725   4.9097   5.1079   5.2854   5.5664
     5.7585   5.8082   5.8393   5.8716   5.9721   6.0667   6.1531   6.4890
     6.9852   7.3263   7.4658   7.8826  10.0473  10.0698  10.1241  10.1451
    10.1830  10.1898  10.2272  10.2514  10.2716  10.2722

          k = 0.0000 0.1443 0.0000 ( 21263 PWs)   bands (ev):

   -53.4867 -53.4818 -53.4112 -53.4071 -27.6577 -27.6497 -27.5824 -27.5757
   -27.4933 -27.4845 -27.4470 -27.4384 -27.4177 -27.4111 -27.3713 -27.3650
    -6.6726  -6.5305  -6.4770  -6.4361  -5.5302  -5.3787  -5.3133  -5.2180
     1.5433   1.9258   2.0185   2.2947   4.2482   4.2960   4.3134   4.3377
     4.3693   4.6938   4.8165   4.9744   5.0294   5.0526   5.0572   5.0900
     5.5066   5.5582   5.5902   5.6217   6.0404   6.1956   6.3149   6.6348
     6.9568   7.2174   7.3222   7.5823   9.7608   9.8342   9.8894   9.9281
     9.9877  10.0005  10.0561  10.0801  10.1268  10.1980

          k = 0.0000 0.2165 0.0000 ( 21233 PWs)   bands (ev):

   -53.4801 -53.4751 -53.4045 -53.4004 -27.6446 -27.6367 -27.5693 -27.5627
   -27.5591 -27.5499 -27.4834 -27.4766 -27.4621 -27.4534 -27.3864 -27.3800
    -6.3987  -6.2591  -6.2057  -6.1665  -5.4025  -5.2644  -5.2000  -5.1167
     1.7976   2.1730   2.2608   2.5157   3.8144   3.8643   3.8895   3.9321
     3.9781   4.2362   4.3264   4.5148   5.1705   5.2330   5.2448   5.2756
     5.2976   5.3045   5.3346   5.3658   5.9608   6.1465   6.2690   6.5512
     6.8130   6.9552   7.0252   7.1321   9.3836   9.5152   9.6364   9.8351
     9.8437   9.9094   9.9624   9.9793  10.0213  10.0797

          k = 0.0000 0.2887 0.0000 ( 21197 PWs)   bands (ev):

   -53.4722 -53.4673 -53.3967 -53.3925 -27.6358 -27.6291 -27.6262 -27.6214
   -27.5601 -27.5539 -27.5531 -27.5473 -27.4798 -27.4710 -27.4041 -27.3976
    -6.0506  -5.9159  -5.8632  -5.8270  -5.2409  -5.1211  -5.0580  -4.9908
     1.9920   2.3214   2.3936   2.5690   3.4166   3.4923   3.5673   3.5984
     3.6729   3.7758   3.8536   3.9844   4.8471   4.9067   4.9389   4.9703
     5.5743   5.6334   5.6634   5.6957   5.7489   5.9530   6.0621   6.3079
     6.5356   6.6021   6.6590   6.7063   9.2489   9.4254   9.5690   9.6457
     9.7172   9.7857   9.8260   9.8515  10.1772  10.3398

          k = 0.0000 0.3608 0.0000 ( 21187 PWs)   bands (ev):

   -53.4643 -53.4594 -53.3888 -53.3847 -27.7116 -27.7016 -27.6359 -27.6286
   -27.6136 -27.6060 -27.5383 -27.5318 -27.4974 -27.4886 -27.4217 -27.4152
    -5.6664  -5.5403  -5.4893  -5.4576  -5.0644  -4.9670  -4.9057  -4.8574
     1.9617   2.1863   2.2376   2.3116   3.0409   3.2171   3.2773   3.3693
     3.4385   3.5109   3.5702   3.6802   4.5581   4.6192   4.6520   4.6829
     5.5147   5.7255   5.8165   5.8925   5.9610   5.9979   6.0258   6.0337
     6.3131   6.3730   6.4304   6.4724   9.3650   9.5423   9.5435   9.6019
     9.6682   9.6713   9.6993   9.9401  10.5077  10.6746

          k = 0.0000 0.4330 0.0000 ( 21140 PWs)   bands (ev):

   -53.4576 -53.4527 -53.3821 -53.3780 -27.7752 -27.7649 -27.6995 -27.6920
   -27.6004 -27.5929 -27.5251 -27.5187 -27.5123 -27.5034 -27.4366 -27.4301
    -5.3006  -5.1876  -5.1414  -5.1128  -4.8991  -4.8262  -4.7684  -4.7377
     1.7434   1.8912   1.9240   1.9717   2.7037   2.8676   2.9043   2.9754
     3.3102   3.4330   3.4873   3.5862   4.3368   4.3991   4.4321   4.4628
     5.3392   5.5458   5.6259   5.8194   6.1459   6.2272   6.2733   6.2974
     6.3298   6.4117   6.4639   6.5243   9.5378   9.5802   9.6246   9.6432
     9.6630   9.7738   9.8662  10.0684  10.8197  10.9675

          k = 0.0000 0.5052 0.0000 ( 21078 PWs)   bands (ev):

   -53.4531 -53.4482 -53.3776 -53.3735 -27.8173 -27.8068 -27.7416 -27.7340
   -27.5915 -27.5841 -27.5222 -27.5163 -27.5133 -27.5099 -27.4465 -27.4400
    -5.0251  -4.9284  -4.8920  -4.8594  -4.7771  -4.7264  -4.6760  -4.6516
     1.5239   1.6418   1.6625   1.7141   2.4668   2.6058   2.6406   2.6977
     3.1979   3.3311   3.3863   3.4693   4.1987   4.2618   4.2950   4.3255
     5.2428   5.4414   5.5168   5.6894   6.2995   6.3924   6.4445   6.4703
     6.5184   6.6031   6.6528   6.7109   9.5882   9.6166   9.6757   9.6907
     9.9130  10.0157  10.0745  10.1898  11.0170  11.1411

          k = 0.0000-0.5774 0.0000 ( 21006 PWs)   bands (ev):

   -53.4515 -53.4467 -53.3760 -53.3719 -27.8320 -27.8215 -27.7564 -27.7486
   -27.5884 -27.5811 -27.5257 -27.5168 -27.5132 -27.5068 -27.4500 -27.4434
    -4.9190  -4.8317  -4.8023  -4.7645  -4.7318  -4.6905  -4.6449  -4.6188
     1.4346   1.5461   1.5642   1.6173   2.3815   2.5112   2.5465   2.5996
     3.1473   3.2821   3.3374   3.4155   4.1519   4.2152   4.2484   4.2789
     5.2137   5.4080   5.4821   5.6456   6.3493   6.4468   6.5008   6.5287
     6.6363   6.7067   6.7509   6.7980   9.6174   9.6412   9.6989   9.7135
    10.0669  10.1255  10.1862  10.2241  11.0802  11.1909

          k = 0.0625 0.1083 0.0000 ( 21269 PWs)   bands (ev):

   -53.4882 -53.4832 -53.4127 -53.4085 -27.6605 -27.6525 -27.5853 -27.5785
   -27.4786 -27.4698 -27.4442 -27.4356 -27.4029 -27.3964 -27.3685 -27.3622
    -6.7298  -6.5873  -6.5338  -6.4926  -5.5569  -5.4026  -5.3370  -5.2393
     1.4833   1.8661   1.9593   2.2377   4.3585   4.4051   4.4205   4.4392
     4.4759   4.8222   4.9146   4.9589   4.9687   4.9922   5.0291   5.2221
     5.5440   5.5933   5.6248   5.6571   6.0743   6.2109   6.3213   6.6381
     6.9737   7.2627   7.3771   7.6841   9.8820   9.9160   9.9366   9.9734
    10.0084  10.0147  10.0641  10.1369  10.1513  10.1746

          k = 0.0625 0.1804 0.0000 ( 21194 PWs)   bands (ev):

   -53.4826 -53.4777 -53.4071 -53.4030 -27.6496 -27.6417 -27.5744 -27.5676
   -27.5324 -27.5233 -27.4580 -27.4567 -27.4500 -27.4494 -27.3823 -27.3759
    -6.5056  -6.3649  -6.3114  -6.2715  -5.4522  -5.3088  -5.2439  -5.1559
     1.7089   2.0897   2.1802   2.4476   3.9756   4.0282   4.0474   4.0882
     4.1238   4.4408   4.5450   4.7659   5.1257   5.1749   5.1860   5.2167
     5.2277   5.2461   5.2653   5.2920   6.1328   6.2893   6.4034   6.6749
     6.8907   7.0761   7.1564   7.3057   9.4926   9.5983   9.6896   9.8166
     9.8587   9.9225   9.9466   9.9824   9.9997  10.0551

          k = 0.0625 0.2526 0.0000 ( 21202 PWs)   bands (ev):

   -53.4753 -53.4704 -53.3998 -53.3957 -27.6353 -27.6275 -27.6019 -27.5925
   -27.5601 -27.5534 -27.5262 -27.5193 -27.4760 -27.4673 -27.4003 -27.3939
    -6.1940  -6.0570  -6.0039  -5.9663  -5.3069  -5.1793  -5.1156  -5.0416
     1.9460   2.3054   2.3863   2.6079   3.5899   3.6382   3.6795   3.7209
     3.8013   4.0113   4.0906   4.2429   4.8049   4.8543   4.8903   4.9225
     5.4000   5.4575   5.4850   5.5196   6.0351   6.1965   6.2995   6.5202
     6.6780   6.7588   6.8171   6.8653   9.2276   9.3875   9.5042   9.6681
     9.7764   9.8220   9.8752   9.8892   9.9820  10.1054

          k = 0.0625 0.3248 0.0000 ( 21194 PWs)   bands (ev):

   -53.4675 -53.4625 -53.3919 -53.3878 -27.6764 -27.6666 -27.6198 -27.6122
   -27.6007 -27.5935 -27.5446 -27.5380 -27.4955 -27.4867 -27.4198 -27.4133
    -5.8264  -5.6960  -5.6441  -5.6104  -5.1365  -5.0292  -4.9671  -4.9106
     2.0349   2.3122   2.3725   2.4867   3.2403   3.3672   3.4589   3.5152
     3.5802   3.5828   3.6720   3.7646   4.4995   4.5630   4.6039   4.6379
     5.6353   5.6995   5.7237   5.7630   5.8260   5.9796   6.0662   6.2542
     6.4428   6.4850   6.5418   6.5691   9.1899   9.3623   9.4581   9.5771
     9.7080   9.7646   9.7981   9.9289  10.2372  10.3947

          k = 0.0625 0.3969 0.0000 ( 21151 PWs)   bands (ev):

   -53.4601 -53.4553 -53.3846 -53.3805 -27.7444 -27.7342 -27.6687 -27.6613
   -27.6054 -27.5979 -27.5302 -27.5237 -27.5134 -27.5045 -27.4377 -27.4312
    -5.4482  -5.3288  -5.2799  -5.2505  -4.9632  -4.8795  -4.8199  -4.7820
     1.8933   2.0732   2.1156   2.1680   2.8696   3.0322   3.0694   3.1432
     3.3875   3.4973   3.5503   3.6546   4.2984   4.3681   4.4086   4.4419
     5.5588   5.7277   5.7818   5.8071   5.8454   5.8894   5.9128   6.0047
     6.4470   6.4856   6.5351   6.5612   9.3210   9.4608   9.5225   9.6037
     9.7501   9.8067   9.8521  10.0135  10.5781  10.7284

          k = 0.0625 0.4691 0.0000 ( 21105 PWs)   bands (ev):

   -53.4545 -53.4497 -53.3790 -53.3750 -27.7960 -27.7856 -27.7203 -27.7127
   -27.5944 -27.5870 -27.5270 -27.5192 -27.5181 -27.5128 -27.4514 -27.4448
    -5.1224  -5.0182  -4.9769  -4.9471  -4.8161  -4.7566  -4.7024  -4.6771
     1.6679   1.7979   1.8239   1.8729   2.5547   2.6896   2.7200   2.7781
     3.2710   3.4062   3.4604   3.5471   4.1875   4.2534   4.2875   4.3218
     5.3691   5.5411   5.6107   5.7590   5.9109   5.9836   6.0382   6.0691
     6.6188   6.6654   6.7109   6.7443   9.5085   9.5874   9.6295   9.6762
     9.8845   9.9551  10.0078  10.1340  10.8947  11.0224

          k = 0.0625 0.5413 0.0000 ( 21084 PWs)   bands (ev):

   -53.4515 -53.4467 -53.3760 -53.3719 -27.8237 -27.8132 -27.7480 -27.7404
   -27.5884 -27.5811 -27.5344 -27.5255 -27.5132 -27.5068 -27.4587 -27.4521
    -4.9254  -4.8362  -4.8056  -4.7688  -4.7292  -4.6870  -4.6408  -4.6149
     1.5134   1.6270   1.6455   1.6986   2.3761   2.4956   2.5272   2.5790
     3.1765   3.3165   3.3712   3.4489   4.1418   4.2014   4.2299   4.2671
     5.2647   5.4387   5.5093   5.6549   5.9959   6.0856   6.1427   6.1670
     6.7726   6.8286   6.8741   6.9112   9.6186   9.6455   9.6911   9.7155
    10.0603  10.1258  10.1800  10.2395  11.1221  11.2202

          k = 0.1250 0.2165 0.0000 ( 21179 PWs)   bands (ev):

   -53.4765 -53.4715 -53.4009 -53.3968 -27.6375 -27.6297 -27.5878 -27.5785
   -27.5623 -27.5556 -27.5122 -27.5053 -27.4769 -27.4682 -27.4012 -27.3948
    -6.2433  -6.1055  -6.0523  -6.0143  -5.3294  -5.1993  -5.1354  -5.0590
     1.9275   2.2963   2.3803   2.6180   3.6596   3.7074   3.7336   3.7804
     3.8914   4.1657   4.2521   4.4270   4.6729   4.7113   4.7546   4.7821
     5.3204   5.3774   5.4037   5.4396   6.2210   6.3589   6.4555   6.6483
     6.7442   6.8280   6.8921   6.9309   9.2149   9.3657   9.4690   9.6344
     9.7545   9.8226   9.8361   9.8680   9.9127   9.9803

          k = 0.1250 0.2887 0.0000 ( 21199 PWs)   bands (ev):

   -53.4692 -53.4642 -53.3936 -53.3895 -27.6515 -27.6418 -27.6232 -27.6155
   -27.5758 -27.5687 -27.5479 -27.5414 -27.5003 -27.4915 -27.4246 -27.4181
    -5.9105  -5.7782  -5.7259  -5.6911  -5.1738  -5.0614  -4.9989  -4.9379
     2.0805   2.3948   2.4620   2.6133   3.4068   3.4735   3.5498   3.5982
     3.6800   3.7842   3.8546   3.9156   4.2433   4.3214   4.3783   4.4688
     5.4258   5.4881   5.5185   5.5530   6.1503   6.2697   6.3467   6.4840
     6.5519   6.5692   6.6191   6.6448   9.0561   9.2342   9.3399   9.5067
     9.7581   9.8054   9.8360   9.8943   9.9916  10.1199

          k = 0.1250 0.3608 0.0000 ( 21195 PWs)   bands (ev):

   -53.4619 -53.4570 -53.3863 -53.3822 -27.7141 -27.7041 -27.6384 -27.6311
   -27.6088 -27.6013 -27.5336 -27.5271 -27.5241 -27.5152 -27.4484 -27.4418
    -5.5448  -5.4216  -5.3714  -5.3409  -5.0032  -4.9126  -4.8520  -4.8087
     2.0417   2.2601   2.3103   2.3794   3.0722   3.1976   3.2394   3.3033
     3.4846   3.5682   3.6222   3.7107   4.0487   4.1726   4.2360   4.3395
     5.3728   5.4387   5.4767   5.5067   5.9286   6.0384   6.0956   6.2084
     6.4970   6.5288   6.5841   6.6000   9.0923   9.2827   9.3911   9.5717
     9.8344   9.8751   9.9087   9.9893  10.2331  10.3786

          k = 0.1250 0.4330 0.0000 ( 21113 PWs)   bands (ev):

   -53.4557 -53.4508 -53.3801 -53.3761 -27.7665 -27.7562 -27.6908 -27.6833
   -27.5966 -27.5892 -27.5444 -27.5353 -27.5214 -27.5150 -27.4687 -27.4620
    -5.1989  -5.0891  -5.0446  -5.0159  -4.8426  -4.7760  -4.7194  -4.6914
     1.8741   2.0279   2.0642   2.1104   2.6618   2.7679   2.7823   2.8423
     3.3919   3.5328   3.5859   3.6650   4.0177   4.1405   4.1994   4.2756
     5.3157   5.4061   5.4537   5.4858   5.6572   5.7583   5.8153   5.9176
     6.6358   6.6687   6.7230   6.7407   9.2980   9.4750   9.5729   9.7358
     9.9444   9.9739  10.0207  10.0698  10.5468  10.6762

          k = 0.1250 0.5052 0.0000 ( 21081 PWs)   bands (ev):

   -53.4515 -53.4467 -53.3760 -53.3719 -27.8013 -27.7908 -27.7256 -27.7179
   -27.5885 -27.5811 -27.5579 -27.5489 -27.5132 -27.5069 -27.4822 -27.4756
    -4.9402  -4.8469  -4.8135  -4.7788  -4.7231  -4.6787  -4.6306  -4.6056
     1.7190   1.8424   1.8651   1.9158   2.3667   2.4600   2.4808   2.5330
     3.2668   3.4197   3.4734   3.5451   4.0616   4.1627   4.2100   4.2524
     5.3108   5.4253   5.4595   5.5119   5.5329   5.5574   5.5960   5.7075
     6.8226   6.8672   6.9187   6.9451   9.5129   9.6100   9.6634   9.7278
    10.0915  10.1494  10.1989  10.2710  10.8223  10.9247

          k = 0.1250 0.5774 0.0000 ( 21108 PWs)   bands (ev):

   -53.4501 -53.4452 -53.3745 -53.3705 -27.8134 -27.8029 -27.7377 -27.7301
   -27.5856 -27.5782 -27.5627 -27.5536 -27.5104 -27.5040 -27.4870 -27.4803
    -4.8408  -4.7571  -4.7319  -4.6915  -4.6777  -4.6436  -4.6001  -4.5728
     1.6581   1.7727   1.7898   1.8445   2.2615   2.3514   2.3752   2.4247
     3.2054   3.3586   3.4126   3.4834   4.1065   4.1796   4.2112   4.2532
     5.2692   5.4041   5.4395   5.4862   5.5050   5.5487   5.5653   5.6441
     6.9145   6.9681   7.0195   7.0512   9.5867   9.6131   9.6565   9.6844
    10.2045  10.2737  10.3275  10.3661  10.9295  11.0497

          k = 0.1875 0.3248 0.0000 ( 21195 PWs)   bands (ev):

   -53.4625 -53.4576 -53.3869 -53.3828 -27.7005 -27.6905 -27.6248 -27.6175
   -27.6100 -27.6024 -27.5348 -27.5309 -27.5283 -27.5219 -27.4552 -27.4486
    -5.5784  -5.4538  -5.4033  -5.3723  -5.0168  -4.9237  -4.8629  -4.8176
     2.1047   2.3422   2.3955   2.4763   3.2036   3.2823   3.3393   3.3926
     3.5267   3.5914   3.6598   3.7072   3.9126   4.0510   4.1283   4.2893
     5.1984   5.2649   5.3018   5.3336   6.0909   6.1849   6.2267   6.3176
     6.5002   6.5389   6.5975   6.6102   9.0050   9.2111   9.3327   9.5500
     9.8553   9.8879   9.9228   9.9701  10.0871  10.2222

          k = 0.1875 0.3969 0.0000 ( 21153 PWs)   bands (ev):

   -53.4563 -53.4514 -53.3807 -53.3767 -27.7426 -27.7325 -27.6669 -27.6595
   -27.5978 -27.5904 -27.5619 -27.5528 -27.5226 -27.5162 -27.4862 -27.4795
    -5.2408  -5.1281  -5.0821  -5.0535  -4.8558  -4.7851  -4.7275  -4.6974
     2.0294   2.2077   2.2527   2.3021   2.7571   2.8202   2.8285   2.8925
     3.5124   3.6457   3.7146   3.7624   3.9182   4.0380   4.1157   4.2634
     4.8822   4.9560   5.0035   5.0295   5.8580   5.9343   5.9801   6.0367
     6.6028   6.6435   6.7033   6.7199   9.1586   9.3803   9.5098   9.7847
     9.9691   9.9894  10.0391  10.0613  10.2724  10.4014

          k = 0.1875 0.4691 0.0000 ( 21101 PWs)   bands (ev):

   -53.4515 -53.4467 -53.3760 -53.3719 -27.7733 -27.7630 -27.6976 -27.6900
   -27.5885 -27.5869 -27.5811 -27.5777 -27.5133 -27.5112 -27.5069 -27.5045
    -4.9545  -4.8575  -4.8216  -4.7887  -4.7174  -4.6705  -4.6205  -4.5960
     1.9501   2.0957   2.1307   2.1744   2.3618   2.4261   2.4372   2.4925
     3.4289   3.5958   3.6462   3.6890   3.9746   4.1127   4.1789   4.2777
     4.6909   4.8054   4.8635   4.9130   5.5652   5.6394   5.7028   5.7483
     6.8074   6.8399   6.9000   6.9136   9.3721   9.5266   9.6047   9.7313
    10.1309  10.1844  10.2300  10.3056  10.4897  10.5735

          k = 0.1875 0.5413 0.0000 ( 21112 PWs)   bands (ev):

   -53.4490 -53.4441 -53.3734 -53.3694 -27.7894 -27.7790 -27.7137 -27.7061
   -27.6009 -27.5916 -27.5834 -27.5761 -27.5252 -27.5184 -27.5082 -27.5018
    -4.7831  -4.7016  -4.6800  -4.6399  -4.6300  -4.6053  -4.5630  -4.5350
     1.9118   2.0414   2.0624   2.1168   2.1492   2.2087   2.2328   2.2770
     3.2874   3.4527   3.5065   3.5642   4.0950   4.2054   4.2534   4.3038
     4.6435   4.7869   4.8465   4.9041   5.3682   5.4327   5.4934   5.5507
     6.9917   7.0328   7.0893   7.1118   9.4346   9.4851   9.5297   9.5645
    10.3216  10.4178  10.4726  10.5488  10.6157  10.6622

          k = 0.2500 0.4330 0.0000 ( 21125 PWs)   bands (ev):

   -53.4515 -53.4467 -53.3760 -53.3719 -27.7587 -27.7485 -27.6830 -27.6755
   -27.6019 -27.5926 -27.5885 -27.5811 -27.5262 -27.5194 -27.5133 -27.5069
    -4.9602  -4.8618  -4.8249  -4.7927  -4.7151  -4.6671  -4.6164  -4.5919
     2.0548   2.2150   2.2587   2.2947   2.3645   2.4136   2.4228   2.4767
     3.5919   3.6979   3.7830   3.8191   3.9881   4.0979   4.1734   4.3117
     4.3978   4.4443   4.4893   4.5126   5.6254   5.6824   5.7641   5.7714
     6.7908   6.8223   6.8849   6.8961   9.3125   9.4861   9.5737   9.7239
    10.1418  10.1911  10.2363  10.3122  10.3609  10.4454

          k = 0.2500 0.5052 0.0000 ( 21117 PWs)   bands (ev):

   -53.4483 -53.4435 -53.3728 -53.3688 -27.7635 -27.7532 -27.6878 -27.6803
   -27.6346 -27.6252 -27.5823 -27.5749 -27.5589 -27.5520 -27.5070 -27.5007
    -4.7549  -4.6737  -4.6534  -4.6135  -4.6026  -4.5825  -4.5406  -4.5124
     2.0345   2.1040   2.1200   2.1830   2.2107   2.3086   2.3444   2.3870
     3.4548   3.6194   3.6567   3.6865   4.0075   4.1110   4.1791   4.2259
     4.2379   4.2869   4.3410   4.4182   5.3583   5.4107   5.4912   5.5206
     7.0343   7.0619   7.1238   7.1349   9.2998   9.3699   9.4160   9.4626
    10.2997  10.3485  10.4205  10.4376  10.5646  10.5987

          k = 0.2500 0.5774 0.0000 ( 21116 PWs)   bands (ev):

   -53.4472 -53.4424 -53.3717 -53.3677 -27.7634 -27.7530 -27.6877 -27.6801
   -27.6479 -27.6385 -27.5801 -27.5728 -27.5722 -27.5653 -27.5048 -27.4985
    -4.6757  -4.6060  -4.5965  -4.5733  -4.5521  -4.5376  -4.5102  -4.4829
     1.9432   2.0091   2.0163   2.0798   2.2894   2.3766   2.3911   2.4479
     3.3068   3.4591   3.5107   3.5489   3.9516   4.1295   4.1713   4.2183
     4.3058   4.3507   4.4023   4.4410   5.2482   5.2757   5.3576   5.3865
     7.1611   7.1926   7.2529   7.2686   9.2261   9.2551   9.3008   9.3240
    10.3256  10.3912  10.4218  10.4764  10.7280  10.7534

          k = 0.3125 0.5413 0.0000 ( 21100 PWs)   bands (ev):

   -53.4466 -53.4418 -53.3711 -53.3671 -27.7423 -27.7320 -27.6764 -27.6669
   -27.6666 -27.6591 -27.6007 -27.5937 -27.5789 -27.5716 -27.5037 -27.4973
    -4.6369  -4.5740  -4.5673  -4.5520  -4.5325  -4.5039  -4.4889  -4.4637
     1.8785   1.9440   1.9453   2.0087   2.5015   2.6144   2.6401   2.6875
     3.3112   3.3530   3.4000   3.4609   3.7989   3.8672   3.8684   3.9252
     4.3443   4.4086   4.4660   4.4985   5.1548   5.1959   5.2816   5.3235
     7.2457   7.2698   7.3337   7.3426   9.1072   9.1387   9.1832   9.2070
    10.2734  10.2976  10.3312  10.3936  10.8282  10.8653

     the Fermi energy is     8.4100 ev

!    total energy              =   -1978.36742584 Ry
     total all-electron energy =    -38771.688271 Ry
     estimated scf accuracy    <          1.4E-10 Ry
     smearing contrib. (-TS)   =       0.00006483 Ry
     internal energy E=F+TS    =   -1978.36749067 Ry

     The total energy is F=E-TS. E is the sum of the following terms:
     one-electron contribution =   -1436.69895305 Ry
     hartree contribution      =     760.60022226 Ry
     xc contribution           =    -119.26320420 Ry
     ewald contribution        =      86.84898377 Ry
     one-center paw contrib.   =   -1269.85453945 Ry

     convergence has been achieved in  24 iterations

     Forces acting on atoms (cartesian axes, Ry/au):

     atom    1 type  2   force =     0.00000000    0.00000000   -0.00142958
     atom    2 type  1   force =     0.00000000    0.00000000    0.00090820
     atom    3 type  2   force =     0.00000000   -0.00000000    0.00404656
     atom    4 type  2   force =     0.00000000    0.00000000   -0.00645106
     atom    5 type  1   force =     0.00000000    0.00000000   -0.00285391
     atom    6 type  2   force =     0.00000000   -0.00000000    0.00209679
     atom    7 type  2   force =     0.00000000    0.00000000   -0.00235164
     atom    8 type  1   force =     0.00000000    0.00000000    0.00288319
     atom    9 type  2   force =     0.00000000    0.00000000    0.00674816
     atom   10 type  2   force =     0.00000000    0.00000000   -0.00231818
     atom   11 type  1   force =     0.00000000    0.00000000   -0.00110558
     atom   12 type  2   force =     0.00000000   -0.00000000   -0.00017296

     Total force =     0.011807     Total SCF correction =     0.000037
     Energy error            =      1.6E-04 Ry
     Gradient error          =      6.7E-03 Ry/Bohr

     number of scf cycles    =  21
     number of bfgs steps    =  20

     energy             old  =   -1978.3672646201 Ry
     energy             new  =   -1978.3674258379 Ry

     CASE: energy            _new < energy            _old

     new trust radius        =       0.0195870055 bohr
     new conv_thr            =       0.0000000002 Ry


ATOMIC_POSITIONS (crystal)
S                0.3333330000        0.6666670000       -0.1158861284
Mo              -0.0000000000       -0.0000000000       -0.0636261617
S                0.3333330000        0.6666670000       -0.0113225784
S                0.6666670000        0.3333330000        0.1069746687
Mo               0.3333330000        0.6666670000        0.1592649636
S                0.6666670000        0.3333330000        0.2113639374
S               -0.0000000000       -0.0000000000        0.3066876995
Mo               0.6666670000        0.3333330000        0.3588486608
S               -0.0000000000       -0.0000000000        0.4110652747
S                0.3333330000        0.6666670000        0.5314567153
Mo               0.0000000000        0.0000000000        0.5839011386
S                0.3333330000        0.6666670000        0.6362718100



     Writing config-only to output data dir ./tmp/relax/mos2_slab.save/ :
     XML data file
     NEW-OLD atomic charge density approx. for the potential

     total cpu time spent up to now is    75151.1 secs

     Self-consistent Calculation

     iteration #  1     ecut=    80.00 Ry     beta= 0.30
     Davidson diagonalization with overlap
     ethr =  1.00E-06,  avg # of iterations =  6.0

     Threshold (ethr) on eigenvalues was too large:
     Diagonalizing with lowered threshold

     Davidson diagonalization with overlap
     ethr =  5.25E-08,  avg # of iterations =  3.9

     total cpu time spent up to now is    75501.5 secs

     total energy              =   -1978.36757784 Ry
     estimated scf accuracy    <       0.00008128 Ry

     iteration #  2     ecut=    80.00 Ry     beta= 0.30
     Davidson diagonalization with overlap
     ethr =  7.82E-08,  avg # of iterations =  1.0

     total cpu time spent up to now is    75601.9 secs

     total energy              =   -1978.36756292 Ry
     estimated scf accuracy    <       0.00005162 Ry

     iteration #  3     ecut=    80.00 Ry     beta= 0.30
     Davidson diagonalization with overlap
     ethr =  4.96E-08,  avg # of iterations =  2.8

     total cpu time spent up to now is    75720.8 secs

     total energy              =   -1978.36756792 Ry
     estimated scf accuracy    <       0.00000217 Ry

     iteration #  4     ecut=    80.00 Ry     beta= 0.30
     Davidson diagonalization with overlap
     ethr =  2.09E-09,  avg # of iterations =  4.0

     total cpu time spent up to now is    75849.5 secs

     total energy              =   -1978.36756826 Ry
     estimated scf accuracy    <       0.00000105 Ry

     iteration #  5     ecut=    80.00 Ry     beta= 0.30
     Davidson diagonalization with overlap
     ethr =  1.00E-09,  avg # of iterations =  2.6

     total cpu time spent up to now is    75964.8 secs

     total energy              =   -1978.36756824 Ry
     estimated scf accuracy    <       0.00000056 Ry

     iteration #  6     ecut=    80.00 Ry     beta= 0.30
     Davidson diagonalization with overlap
     ethr =  5.39E-10,  avg # of iterations =  2.0

     total cpu time spent up to now is    76073.8 secs

     total energy              =   -1978.36756825 Ry
     estimated scf accuracy    <       0.00000015 Ry

     iteration #  7     ecut=    80.00 Ry     beta= 0.30
     Davidson diagonalization with overlap
     ethr =  1.47E-10,  avg # of iterations =  3.9

     total cpu time spent up to now is    76193.9 secs

     total energy              =   -1978.36756827 Ry
     estimated scf accuracy    <       0.00000004 Ry

     iteration #  8     ecut=    80.00 Ry     beta= 0.30
     Davidson diagonalization with overlap
     ethr =  3.50E-11,  avg # of iterations =  3.2

     total cpu time spent up to now is    76312.2 secs

     total energy              =   -1978.36756828 Ry
     estimated scf accuracy    <       0.00000003 Ry

     iteration #  9     ecut=    80.00 Ry     beta= 0.30
     Davidson diagonalization with overlap
     ethr =  2.66E-11,  avg # of iterations =  2.0

     total cpu time spent up to now is    76425.0 secs

     total energy              =   -1978.36756828 Ry
     estimated scf accuracy    <       0.00000002 Ry

     iteration # 10     ecut=    80.00 Ry     beta= 0.30
     Davidson diagonalization with overlap
     ethr =  2.00E-11,  avg # of iterations =  3.3

     total cpu time spent up to now is    76549.7 secs

     total energy              =   -1978.36756828 Ry
     estimated scf accuracy    <       0.00000003 Ry

     iteration # 11     ecut=    80.00 Ry     beta= 0.30
     Davidson diagonalization with overlap
     ethr =  2.00E-11,  avg # of iterations =  2.3

     total cpu time spent up to now is    76666.6 secs

     total energy              =   -1978.36756827 Ry
     estimated scf accuracy    <       0.00000001 Ry

     iteration # 12     ecut=    80.00 Ry     beta= 0.30
     Davidson diagonalization with overlap
     ethr =  1.22E-11,  avg # of iterations =  1.3

     total cpu time spent up to now is    76769.6 secs

     total energy              =   -1978.36756828 Ry
     estimated scf accuracy    <          9.8E-09 Ry

     iteration # 13     ecut=    80.00 Ry     beta= 0.30
     Davidson diagonalization with overlap
     ethr =  9.43E-12,  avg # of iterations =  2.0

     total cpu time spent up to now is    76884.8 secs

     total energy              =   -1978.36756827 Ry
     estimated scf accuracy    <          6.9E-09 Ry

     iteration # 14     ecut=    80.00 Ry     beta= 0.30
     Davidson diagonalization with overlap
     ethr =  6.68E-12,  avg # of iterations =  2.6

     total cpu time spent up to now is    76998.5 secs

     total energy              =   -1978.36756828 Ry
     estimated scf accuracy    <          2.8E-09 Ry

     iteration # 15     ecut=    80.00 Ry     beta= 0.30
     Davidson diagonalization with overlap
     ethr =  2.73E-12,  avg # of iterations =  2.1

     total cpu time spent up to now is    77111.3 secs

     total energy              =   -1978.36756827 Ry
     estimated scf accuracy    <          2.0E-09 Ry

     iteration # 16     ecut=    80.00 Ry     beta= 0.30
     Davidson diagonalization with overlap
     ethr =  1.92E-12,  avg # of iterations =  1.9

     total cpu time spent up to now is    77222.3 secs

     total energy              =   -1978.36756827 Ry
     estimated scf accuracy    <          1.7E-09 Ry

     iteration # 17     ecut=    80.00 Ry     beta= 0.30
     Davidson diagonalization with overlap
     ethr =  1.62E-12,  avg # of iterations =  2.0

     total cpu time spent up to now is    77343.3 secs

     total energy              =   -1978.36756827 Ry
     estimated scf accuracy    <          1.6E-09 Ry

     iteration # 18     ecut=    80.00 Ry     beta= 0.30
     Davidson diagonalization with overlap
     ethr =  1.54E-12,  avg # of iterations =  1.5

     total cpu time spent up to now is    77449.5 secs

     total energy              =   -1978.36756826 Ry
     estimated scf accuracy    <          1.2E-09 Ry

     iteration # 19     ecut=    80.00 Ry     beta= 0.30
     Davidson diagonalization with overlap
     ethr =  1.13E-12,  avg # of iterations =  2.0

     total cpu time spent up to now is    77561.8 secs

     total energy              =   -1978.36756826 Ry
     estimated scf accuracy    <          8.7E-10 Ry

     iteration # 20     ecut=    80.00 Ry     beta= 0.30
     Davidson diagonalization with overlap
     ethr =  8.36E-13,  avg # of iterations =  2.0

     total cpu time spent up to now is    77672.2 secs

     total energy              =   -1978.36756826 Ry
     estimated scf accuracy    <          6.4E-10 Ry

     iteration # 21     ecut=    80.00 Ry     beta= 0.30
     Davidson diagonalization with overlap
     ethr =  6.11E-13,  avg # of iterations =  2.4

     total cpu time spent up to now is    77785.8 secs

     total energy              =   -1978.36756826 Ry
     estimated scf accuracy    <          5.3E-10 Ry

     iteration # 22     ecut=    80.00 Ry     beta= 0.30
     Davidson diagonalization with overlap
     ethr =  5.11E-13,  avg # of iterations =  2.4

     total cpu time spent up to now is    77904.4 secs

     total energy              =   -1978.36756826 Ry
     estimated scf accuracy    <          2.5E-10 Ry

     iteration # 23     ecut=    80.00 Ry     beta= 0.30
     Davidson diagonalization with overlap
     ethr =  2.42E-13,  avg # of iterations =  1.6

     total cpu time spent up to now is    78010.5 secs

     total energy              =   -1978.36756826 Ry
     estimated scf accuracy    <          2.0E-10 Ry

     iteration # 24     ecut=    80.00 Ry     beta= 0.30
     Davidson diagonalization with overlap
     ethr =  1.91E-13,  avg # of iterations =  2.0

     total cpu time spent up to now is    78123.2 secs

     End of self-consistent calculation

          k = 0.0000 0.0000 0.0000 ( 21311 PWs)   bands (ev):

   -53.4918 -53.4873 -53.4178 -53.4139 -27.6687 -27.6612 -27.5950 -27.5889
   -27.4328 -27.4328 -27.4247 -27.4247 -27.3587 -27.3587 -27.3533 -27.3533
    -6.9062  -6.7650  -6.7166  -6.6724  -5.6372  -5.4767  -5.4121  -5.3070
     1.2871   1.6636   1.7572   2.0405   4.7296   4.7296   4.7766   4.7835
     4.7835   4.8048   4.8048   4.8334   4.8334   5.3321   5.6032   5.8535
     5.8535   5.9022   5.9023   5.9315   5.9316   5.9573   5.9573   6.2736
     6.9847   7.3516   7.5084   7.9777  10.1114  10.1114  10.1589  10.1589
    10.2065  10.2065  10.2325  10.2325  10.3549  10.3549

          k = 0.0000 0.0722 0.0000 ( 21283 PWs)   bands (ev):

   -53.4902 -53.4857 -53.4162 -53.4123 -27.6656 -27.6581 -27.5920 -27.5858
   -27.4484 -27.4403 -27.4363 -27.4282 -27.3743 -27.3689 -27.3622 -27.3568
    -6.8465  -6.7056  -6.6571  -6.6132  -5.6094  -5.4516  -5.3873  -5.2846
     1.3551   1.7320   1.8255   2.1078   4.5945   4.6335   4.6502   4.6705
     4.6996   4.7918   4.8460   4.8674   4.8961   5.1057   5.2859   5.5634
     5.7559   5.8056   5.8353   5.8607   5.9698   6.0631   6.1501   6.4897
     6.9873   7.3307   7.4723   7.8816  10.0489  10.0705  10.1249  10.1447
    10.1871  10.1919  10.2296  10.2524  10.2739  10.2760

          k = 0.0000 0.1443 0.0000 ( 21263 PWs)   bands (ev):

   -53.4857 -53.4813 -53.4118 -53.4079 -27.6569 -27.6495 -27.5832 -27.5771
   -27.4928 -27.4844 -27.4464 -27.4383 -27.4186 -27.4131 -27.3723 -27.3669
    -6.6723  -6.5324  -6.4839  -6.4408  -5.5283  -5.3786  -5.3151  -5.2195
     1.5440   1.9210   2.0131   2.2906   4.2450   4.2940   4.3112   4.3335
     4.3577   4.6910   4.8148   4.9708   5.0261   5.0476   5.0540   5.0766
     5.5040   5.5556   5.5862   5.6108   6.0394   6.1934   6.3148   6.6359
     6.9585   7.2210   7.3271   7.5827   9.7633   9.8366   9.8925   9.9300
     9.9882  10.0025  10.0604  10.0811  10.1286  10.2005

          k = 0.0000 0.2165 0.0000 ( 21233 PWs)   bands (ev):

   -53.4791 -53.4746 -53.4051 -53.4012 -27.6438 -27.6365 -27.5701 -27.5641
   -27.5586 -27.5498 -27.4844 -27.4787 -27.4615 -27.4533 -27.3874 -27.3819
    -6.3984  -6.2610  -6.2125  -6.1712  -5.4009  -5.2645  -5.2023  -5.1184
     1.7983   2.1678   2.2546   2.5113   3.8121   3.8619   3.8867   3.9230
     3.9739   4.2338   4.3232   4.5114   5.1681   5.2301   5.2411   5.2710
     5.2868   5.3013   5.3304   5.3530   5.9611   6.1457   6.2706   6.5527
     6.8142   6.9576   7.0279   7.1333   9.3861   9.5179   9.6411   9.8388
     9.8464   9.9111   9.9632   9.9816  10.0227  10.0819

          k = 0.0000 0.2887 0.0000 ( 21197 PWs)   bands (ev):

   -53.4712 -53.4668 -53.3972 -53.3934 -27.6353 -27.6283 -27.6261 -27.6211
   -27.5612 -27.5553 -27.5546 -27.5487 -27.4792 -27.4709 -27.4051 -27.3996
    -6.0503  -5.9178  -5.8696  -5.8318  -5.2398  -5.1213  -5.0610  -4.9927
     1.9923   2.3162   2.3858   2.5640   3.4164   3.4903   3.5633   3.5946
     3.6674   3.7748   3.8496   3.9811   4.8447   4.9041   4.9345   4.9594
     5.5713   5.6304   5.6586   5.6838   5.7503   5.9531   6.0646   6.3092
     6.5365   6.6033   6.6596   6.7066   9.2512   9.4279   9.5740   9.6488
     9.7185   9.7869   9.8268   9.8543  10.1785  10.3419

          k = 0.0000 0.3608 0.0000 ( 21187 PWs)   bands (ev):

   -53.4633 -53.4589 -53.3893 -53.3855 -27.7111 -27.7016 -27.6370 -27.6309
   -27.6128 -27.6057 -27.5391 -27.5332 -27.4968 -27.4885 -27.4227 -27.4172
    -5.6662  -5.5421  -5.4952  -5.4628  -5.0640  -4.9674  -4.9095  -4.8595
     1.9613   2.1824   2.2296   2.3060   3.0419   3.2149   3.2743   3.3667
     3.4359   3.5100   3.5657   3.6768   4.5557   4.6166   4.6476   4.6720
     5.5167   5.7260   5.8193   5.8902   5.9584   5.9930   6.0155   6.0348
     6.3137   6.3736   6.4294   6.4717   9.3670   9.5444   9.5453   9.6028
     9.6681   9.6757   9.6995   9.9423  10.5096  10.6766

          k = 0.0000 0.4330 0.0000 ( 21140 PWs)   bands (ev):

   -53.4566 -53.4522 -53.3826 -53.3788 -27.7748 -27.7649 -27.7006 -27.6944
   -27.5996 -27.5926 -27.5259 -27.5200 -27.5117 -27.5033 -27.4376 -27.4321
    -5.3005  -5.1895  -5.1461  -5.1192  -4.8994  -4.8269  -4.7725  -4.7404
     1.7427   1.8885   1.9196   1.9645   2.7049   2.8662   2.9018   2.9727
     3.3094   3.4317   3.4822   3.5829   4.3344   4.3965   4.4277   4.4519
     5.3416   5.5466   5.6287   5.8204   6.1445   6.2250   6.2675   6.2897
     6.3300   6.4119   6.4624   6.5232   9.5390   9.5805   9.6262   9.6419
     9.6621   9.7749   9.8691  10.0696  10.8218  10.9697

          k = 0.0000 0.5052 0.0000 ( 21078 PWs)   bands (ev):

   -53.4521 -53.4478 -53.3781 -53.3743 -27.8169 -27.8068 -27.7428 -27.7364
   -27.5907 -27.5838 -27.5216 -27.5171 -27.5132 -27.5112 -27.4475 -27.4420
    -5.0253  -4.9303  -4.8953  -4.8671  -4.7780  -4.7273  -4.6793  -4.6556
     1.5238   1.6399   1.6599   1.7070   2.4683   2.6050   2.6385   2.6950
     3.1973   3.3295   3.3805   3.4656   4.1963   4.2591   4.2904   4.3146
     5.2454   5.4424   5.5195   5.6903   6.2987   6.3905   6.4382   6.4647
     6.5186   6.6032   6.6516   6.7101   9.5886   9.6165   9.6740   9.6882
     9.9143  10.0163  10.0753  10.1900  11.0191  11.1432

          k = 0.0000-0.5774 0.0000 ( 21006 PWs)   bands (ev):

   -53.4505 -53.4462 -53.3766 -53.3727 -27.8317 -27.8215 -27.7575 -27.7511
   -27.5876 -27.5807 -27.5251 -27.5167 -27.5140 -27.5081 -27.4510 -27.4454
    -4.9194  -4.8336  -4.8052  -4.7726  -4.7330  -4.6914  -4.6477  -4.6236
     1.4348   1.5445   1.5620   1.6106   2.3831   2.5105   2.5446   2.5970
     3.1466   3.2804   3.3313   3.4117   4.1495   4.2125   4.2439   4.2680
     5.2163   5.4091   5.4847   5.6465   6.3488   6.4451   6.4944   6.5237
     6.6366   6.7069   6.7500   6.7973   9.6175   9.6409   9.6972   9.7102
    10.0682  10.1262  10.1857  10.2235  11.0823  11.1929

          k = 0.0625 0.1083 0.0000 ( 21269 PWs)   bands (ev):

   -53.4872 -53.4827 -53.4132 -53.4093 -27.6597 -27.6523 -27.5861 -27.5800
   -27.4780 -27.4696 -27.4436 -27.4355 -27.4038 -27.3983 -27.3695 -27.3641
    -6.7295  -6.5893  -6.5407  -6.4973  -5.5549  -5.4025  -5.3388  -5.2408
     1.4840   1.8613   1.9540   2.2337   4.3551   4.4036   4.4191   4.4346
     4.4632   4.8195   4.9110   4.9576   4.9654   4.9873   5.0156   5.2189
     5.5415   5.5908   5.6209   5.6463   6.0729   6.2083   6.3204   6.6390
     6.9755   7.2667   7.3825   7.6841   9.8844   9.9179   9.9380   9.9751
    10.0106  10.0156  10.0662  10.1398  10.1545  10.1767

          k = 0.0625 0.1804 0.0000 ( 21194 PWs)   bands (ev):

   -53.4816 -53.4772 -53.4077 -53.4038 -27.6488 -27.6414 -27.5752 -27.5691
   -27.5318 -27.5232 -27.4577 -27.4574 -27.4520 -27.4492 -27.3833 -27.3779
    -6.5053  -6.3669  -6.3182  -6.2761  -5.4505  -5.3088  -5.2461  -5.1575
     1.7096   2.0847   2.1744   2.4434   3.9727   4.0255   4.0442   4.0783
     4.1205   4.4381   4.5425   4.7625   5.1227   5.1716   5.1827   5.2116
     5.2253   5.2333   5.2621   5.2817   6.1324   6.2877   6.4038   6.6762
     6.8921   7.0790   7.1597   7.3067   9.4953   9.6009   9.6939   9.8188
     9.8603   9.9238   9.9491   9.9843  10.0011  10.0570

          k = 0.0625 0.2526 0.0000 ( 21202 PWs)   bands (ev):

   -53.4743 -53.4699 -53.4004 -53.3965 -27.6345 -27.6273 -27.6014 -27.5924
   -27.5609 -27.5549 -27.5273 -27.5215 -27.4754 -27.4672 -27.4013 -27.3958
    -6.1937  -6.0589  -6.0105  -5.9710  -5.3056  -5.1795  -5.1184  -5.0434
     1.9466   2.3001   2.3792   2.6031   3.5884   3.6362   3.6769   3.7129
     3.7976   4.0095   4.0867   4.2396   4.8027   4.8521   4.8855   4.9137
     5.3969   5.4545   5.4805   5.5075   6.0355   6.1959   6.3008   6.5215
     6.6788   6.7605   6.8184   6.8661   9.2302   9.3900   9.5089   9.6708
     9.7783   9.8238   9.8764   9.8917   9.9828  10.1080

          k = 0.0625 0.3248 0.0000 ( 21194 PWs)   bands (ev):

   -53.4664 -53.4621 -53.3925 -53.3886 -27.6759 -27.6665 -27.6190 -27.6119
   -27.6018 -27.5957 -27.5453 -27.5394 -27.4949 -27.4866 -27.4208 -27.4153
    -5.8260  -5.6979  -5.6502  -5.6153  -5.1358  -5.0296  -4.9706  -4.9126
     2.0347   2.3076   2.3640   2.4814   3.2409   3.3652   3.4541   3.5141
     3.5750   3.5812   3.6687   3.7611   4.4974   4.5608   4.5980   4.6308
     5.6333   5.6971   5.7202   5.7529   5.8266   5.9797   6.0681   6.2553
     6.4431   6.4855   6.5408   6.5681   9.1923   9.3643   9.4618   9.5793
     9.7091   9.7657   9.7993   9.9314  10.2385  10.3968

          k = 0.0625 0.3969 0.0000 ( 21151 PWs)   bands (ev):

   -53.4591 -53.4548 -53.3852 -53.3813 -27.7440 -27.7342 -27.6698 -27.6636
   -27.6046 -27.5976 -27.5310 -27.5251 -27.5128 -27.5044 -27.4387 -27.4331
    -5.4480  -5.3306  -5.2852  -5.2562  -4.9632  -4.8801  -4.8239  -4.7845
     1.8926   2.0699   2.1091   2.1616   2.8705   3.0304   3.0669   3.1396
     3.3863   3.4960   3.5456   3.6515   4.2963   4.3659   4.4029   4.4345
     5.5605   5.7279   5.7820   5.8073   5.8438   5.8868   5.9072   6.0045
     6.4464   6.4851   6.5324   6.5581   9.3230   9.4621   9.5244   9.6046
     9.7507   9.8072   9.8531  10.0150  10.5799  10.7303

          k = 0.0625 0.4691 0.0000 ( 21105 PWs)   bands (ev):

   -53.4535 -53.4492 -53.3796 -53.3757 -27.7956 -27.7856 -27.7214 -27.7151
   -27.5936 -27.5867 -27.5265 -27.5199 -27.5180 -27.5141 -27.4523 -27.4468
    -5.1224  -5.0201  -4.9807  -4.9543  -4.8166  -4.7574  -4.7062  -4.6805
     1.6675   1.7957   1.8207   1.8656   2.5557   2.6885   2.7177   2.7744
     3.2704   3.4046   3.4550   3.5436   4.1856   4.2511   4.2830   4.3130
     5.3712   5.5421   5.6129   5.7600   5.9107   5.9824   6.0336   6.0650
     6.6180   6.6648   6.7079   6.7411   9.5096   9.5879   9.6292   9.6757
     9.8849   9.9554  10.0081  10.1345  10.8969  11.0244

          k = 0.0625 0.5413 0.0000 ( 21084 PWs)   bands (ev):

   -53.4505 -53.4462 -53.3766 -53.3727 -27.8233 -27.8132 -27.7492 -27.7428
   -27.5876 -27.5807 -27.5339 -27.5254 -27.5140 -27.5082 -27.4597 -27.4541
    -4.9257  -4.8381  -4.8085  -4.7768  -4.7303  -4.6880  -4.6436  -4.6196
     1.5136   1.6253   1.6433   1.6918   2.3772   2.4947   2.5252   2.5755
     3.1759   3.3148   3.3652   3.4451   4.1400   4.1991   4.2262   4.2573
     5.2671   5.4398   5.5117   5.6558   5.9962   6.0845   6.1381   6.1633
     6.7721   6.8281   6.8714   6.9086   9.6188   9.6455   9.6899   9.7130
    10.0612  10.1264  10.1793  10.2391  11.1245  11.2223

          k = 0.1250 0.2165 0.0000 ( 21179 PWs)   bands (ev):

   -53.4754 -53.4710 -53.4015 -53.3976 -27.6367 -27.6294 -27.5873 -27.5784
   -27.5630 -27.5570 -27.5132 -27.5074 -27.4763 -27.4680 -27.4022 -27.3967
    -6.2429  -6.1074  -6.0589  -6.0190  -5.3281  -5.1994  -5.1380  -5.0607
     1.9281   2.2911   2.3735   2.6133   3.6575   3.7051   3.7308   3.7710
     3.8893   4.1636   4.2487   4.4234   4.6708   4.7091   4.7494   4.7743
     5.3174   5.3745   5.3993   5.4275   6.2212   6.3581   6.4563   6.6497
     6.7447   6.8299   6.8936   6.9320   9.2176   9.3683   9.4735   9.6367
     9.7567   9.8236   9.8376   9.8690   9.9143   9.9836

          k = 0.1250 0.2887 0.0000 ( 21199 PWs)   bands (ev):

   -53.4682 -53.4638 -53.3942 -53.3903 -27.6510 -27.6418 -27.6224 -27.6152
   -27.5769 -27.5709 -27.5487 -27.5428 -27.4997 -27.4913 -27.4256 -27.4201
    -5.9102  -5.7801  -5.7321  -5.6959  -5.1730  -5.0618  -5.0022  -4.9399
     2.0806   2.3898   2.4537   2.6081   3.4066   3.4718   3.5455   3.5950
     3.6754   3.7830   3.8492   3.9121   4.2409   4.3194   4.3718   4.4651
     5.4238   5.4858   5.5148   5.5432   6.1509   6.2696   6.3479   6.4854
     6.5524   6.5695   6.6187   6.6432   9.0587   9.2365   9.3442   9.5085
     9.7596   9.8063   9.8369   9.8964   9.9925  10.1229

          k = 0.1250 0.3608 0.0000 ( 21195 PWs)   bands (ev):

   -53.4609 -53.4565 -53.3869 -53.3831 -27.7137 -27.7041 -27.6395 -27.6334
   -27.6080 -27.6010 -27.5344 -27.5285 -27.5235 -27.5150 -27.4494 -27.4438
    -5.5446  -5.4234  -5.3770  -5.3463  -5.0030  -4.9131  -4.8559  -4.8110
     2.0411   2.2563   2.3022   2.3737   3.0724   3.1957   3.2373   3.2972
     3.4825   3.5665   3.6180   3.7080   4.0467   4.1709   4.2305   4.3360
     5.3720   5.4372   5.4738   5.4997   5.9299   6.0389   6.0971   6.2097
     6.4969   6.5281   6.5819   6.5956   9.0948   9.2845   9.3950   9.5730
     9.8350   9.8756   9.9084   9.9909  10.2342  10.3808

          k = 0.1250 0.4330 0.0000 ( 21113 PWs)   bands (ev):

   -53.4546 -53.4503 -53.3807 -53.3769 -27.7661 -27.7562 -27.6919 -27.6857
   -27.5958 -27.5889 -27.5438 -27.5352 -27.5222 -27.5163 -27.4697 -27.4641
    -5.1988  -5.0910  -5.0489  -5.0226  -4.8430  -4.7767  -4.7234  -4.6944
     1.8736   2.0253   2.0593   2.1036   2.6616   2.7663   2.7801   2.8359
     3.3917   3.5310   3.5814   3.6619   4.0161   4.1389   4.1939   4.2723
     5.3158   5.4049   5.4499   5.4813   5.6586   5.7593   5.8168   5.9185
     6.6352   6.6678   6.7203   6.7359   9.3000   9.4761   9.5758   9.7366
     9.9446   9.9741  10.0189  10.0694  10.5488  10.6782

          k = 0.1250 0.5052 0.0000 ( 21081 PWs)   bands (ev):

   -53.4505 -53.4462 -53.3766 -53.3727 -27.8009 -27.7908 -27.7267 -27.7204
   -27.5876 -27.5808 -27.5574 -27.5487 -27.5140 -27.5082 -27.4832 -27.4776
    -4.9405  -4.8488  -4.8165  -4.7867  -4.7242  -4.6796  -4.6336  -4.6100
     1.7191   1.8405   1.8625   1.9090   2.3666   2.4586   2.4785   2.5270
     3.2665   3.4179   3.4678   3.5415   4.0606   4.1612   4.2052   4.2481
     5.3124   5.4263   5.4588   5.5086   5.5314   5.5559   5.5978   5.7079
     6.8220   6.8665   6.9155   6.9415   9.5138   9.6102   9.6630   9.7272
    10.0919  10.1497  10.1978  10.2708  10.8258  10.9271

          k = 0.1250 0.5774 0.0000 ( 21108 PWs)   bands (ev):

   -53.4490 -53.4447 -53.3751 -53.3713 -27.8130 -27.8029 -27.7389 -27.7325
   -27.5848 -27.5779 -27.5621 -27.5535 -27.5111 -27.5053 -27.4880 -27.4824
    -4.8412  -4.7590  -4.7345  -4.6990  -4.6797  -4.6446  -4.6026  -4.5779
     1.6585   1.7711   1.7878   1.8380   2.2615   2.3500   2.3728   2.4188
     3.2049   3.3567   3.4064   3.4795   4.1057   4.1781   4.2082   4.2469
     5.2718   5.4048   5.4406   5.4854   5.5068   5.5438   5.5645   5.6431
     6.9140   6.9675   7.0162   7.0481   9.5868   9.6130   9.6552   9.6819
    10.2055  10.2743  10.3271  10.3658  10.9346  11.0520

          k = 0.1875 0.3248 0.0000 ( 21195 PWs)   bands (ev):

   -53.4615 -53.4571 -53.3875 -53.3837 -27.7000 -27.6905 -27.6259 -27.6198
   -27.6092 -27.6021 -27.5355 -27.5303 -27.5296 -27.5218 -27.4562 -27.4506
    -5.5781  -5.4557  -5.4090  -5.3776  -5.0165  -4.9242  -4.8667  -4.8198
     2.1043   2.3382   2.3869   2.4707   3.2034   3.2808   3.3373   3.3845
     3.5240   3.5898   3.6552   3.7053   3.9099   4.0500   4.1248   4.2859
     5.1977   5.2634   5.2990   5.3267   6.0923   6.1854   6.2282   6.3191
     6.5001   6.5382   6.5948   6.6060   9.0076   9.2130   9.3370   9.5514
     9.8561   9.8882   9.9228   9.9712  10.0879  10.2248

          k = 0.1875 0.3969 0.0000 ( 21153 PWs)   bands (ev):

   -53.4553 -53.4509 -53.3813 -53.3775 -27.7422 -27.7324 -27.6680 -27.6618
   -27.5970 -27.5901 -27.5613 -27.5527 -27.5234 -27.5175 -27.4872 -27.4815
    -5.2407  -5.1299  -5.0866  -5.0599  -4.8561  -4.7858  -4.7316  -4.7001
     2.0289   2.2047   2.2459   2.2961   2.7558   2.8181   2.8265   2.8838
     3.5134   3.6439   3.7108   3.7603   3.9155   4.0374   4.1129   4.2605
     4.8819   4.9548   5.0002   5.0243   5.8604   5.9356   5.9808   6.0378
     6.6023   6.6425   6.6994   6.7158   9.1611   9.3818   9.5141   9.7867
     9.9695   9.9892  10.0381  10.0584  10.2738  10.4037

          k = 0.1875 0.4691 0.0000 ( 21101 PWs)   bands (ev):

   -53.4505 -53.4462 -53.3766 -53.3727 -27.7729 -27.7630 -27.6987 -27.6924
   -27.5877 -27.5864 -27.5808 -27.5776 -27.5140 -27.5122 -27.5082 -27.5065
    -4.9546  -4.8594  -4.8247  -4.7963  -4.7184  -4.6713  -4.6238  -4.6001
     1.9502   2.0935   2.1268   2.1679   2.3605   2.4242   2.4347   2.4841
     3.4296   3.5940   3.6421   3.6855   3.9736   4.1119   4.1757   4.2756
     4.6914   4.8043   4.8585   4.9101   5.5675   5.6407   5.7039   5.7490
     6.8069   6.8391   6.8968   6.9091   9.3738   9.5269   9.6057   9.7311
    10.1311  10.1845  10.2283  10.3055  10.4925  10.5764

          k = 0.1875 0.5413 0.0000 ( 21112 PWs)   bands (ev):

   -53.4479 -53.4436 -53.3740 -53.3702 -27.7889 -27.7790 -27.7148 -27.7085
   -27.6004 -27.5916 -27.5826 -27.5758 -27.5262 -27.5205 -27.5089 -27.5032
    -4.7835  -4.7035  -4.6823  -4.6452  -4.6345  -4.6063  -4.5654  -4.5403
     1.9127   2.0397   2.0604   2.1104   2.1479   2.2068   2.2299   2.2690
     3.2873   3.4507   3.5006   3.5605   4.0952   4.2046   4.2507   4.3014
     4.6446   4.7859   4.8418   4.9017   5.3696   5.4342   5.4950   5.5513
     6.9912   7.0321   7.0858   7.1083   9.4346   9.4848   9.5275   9.5618
    10.3235  10.4186  10.4730  10.5500  10.6199  10.6649

          k = 0.2500 0.4330 0.0000 ( 21125 PWs)   bands (ev):

   -53.4505 -53.4462 -53.3766 -53.3727 -27.7583 -27.7484 -27.6841 -27.6779
   -27.6014 -27.5925 -27.5877 -27.5808 -27.5272 -27.5215 -27.5140 -27.5082
    -4.9603  -4.8637  -4.8282  -4.8003  -4.7161  -4.6679  -4.6198  -4.5959
     2.0548   2.2126   2.2538   2.2886   2.3625   2.4114   2.4202   2.4674
     3.5943   3.6969   3.7815   3.8144   3.9861   4.0977   4.1715   4.3095
     4.3968   4.4432   4.4870   4.5067   5.6285   5.6834   5.7652   5.7717
     6.7902   6.8214   6.8815   6.8917   9.3144   9.4866   9.5751   9.7240
    10.1421  10.1912  10.2345  10.3122  10.3632  10.4487

          k = 0.2500 0.5052 0.0000 ( 21117 PWs)   bands (ev):

   -53.4473 -53.4430 -53.3734 -53.3696 -27.7631 -27.7532 -27.6889 -27.6827
   -27.6341 -27.6251 -27.5814 -27.5746 -27.5599 -27.5541 -27.5078 -27.5020
    -4.7553  -4.6756  -4.6557  -4.6181  -4.6079  -4.5835  -4.5430  -4.5177
     2.0338   2.1017   2.1178   2.1736   2.2094   2.3069   2.3406   2.3817
     3.4555   3.6179   3.6548   3.6809   4.0086   4.1103   4.1779   4.2244
     4.2334   4.2847   4.3393   4.4166   5.3610   5.4118   5.4929   5.5204
     7.0339   7.0611   7.1211   7.1306   9.2998   9.3694   9.4133   9.4600
    10.3027  10.3511  10.4230  10.4404  10.5674  10.6015

          k = 0.2500 0.5774 0.0000 ( 21116 PWs)   bands (ev):

   -53.4462 -53.4419 -53.3723 -53.3684 -27.7630 -27.7530 -27.6888 -27.6825
   -27.6474 -27.6384 -27.5792 -27.5732 -27.5724 -27.5674 -27.5056 -27.4998
    -4.6762  -4.6078  -4.5983  -4.5755  -4.5531  -4.5458  -4.5123  -4.4885
     1.9420   2.0066   2.0141   2.0702   2.2892   2.3752   2.3894   2.4420
     3.3066   3.4574   3.5052   3.5451   3.9538   4.1281   4.1698   4.2145
     4.3044   4.3495   4.4004   4.4402   5.2505   5.2770   5.3596   5.3860
     7.1608   7.1920   7.2499   7.2652   9.2253   9.2540   9.2985   9.3183
    10.3296  10.3945  10.4244  10.4817  10.7301  10.7560

          k = 0.3125 0.5413 0.0000 ( 21100 PWs)   bands (ev):

   -53.4456 -53.4413 -53.3717 -53.3678 -27.7419 -27.7320 -27.6758 -27.6678
   -27.6668 -27.6615 -27.6017 -27.5959 -27.5780 -27.5713 -27.5044 -27.4986
    -4.6375  -4.5756  -4.5690  -4.5545  -4.5336  -4.5121  -4.4909  -4.4695
     1.8768   1.9412   1.9430   1.9987   2.5021   2.6132   2.6380   2.6821
     3.3114   3.3525   3.3987   3.4543   3.7991   3.8648   3.8672   3.9189
     4.3441   4.4088   4.4646   4.4977   5.1574   5.1971   5.2837   5.3224
     7.2456   7.2692   7.3315   7.3387   9.1060   9.1374   9.1804   9.2005
    10.2775  10.3010  10.3337  10.3997  10.8304  10.8682

     the Fermi energy is     8.4107 ev

!    total energy              =   -1978.36756827 Ry
     total all-electron energy =    -38771.688413 Ry
     estimated scf accuracy    <          1.5E-10 Ry
     smearing contrib. (-TS)   =       0.00006383 Ry
     internal energy E=F+TS    =   -1978.36763210 Ry

     The total energy is F=E-TS. E is the sum of the following terms:
     one-electron contribution =   -1443.06454272 Ry
     hartree contribution      =     763.78080420 Ry
     xc contribution           =    -119.26952357 Ry
     ewald contribution        =      90.04083755 Ry
     one-center paw contrib.   =   -1269.85520756 Ry

     convergence has been achieved in  24 iterations

     Forces acting on atoms (cartesian axes, Ry/au):

     atom    1 type  2   force =     0.00000000    0.00000000   -0.00291757
     atom    2 type  1   force =     0.00000000    0.00000000    0.00081948
     atom    3 type  2   force =     0.00000000    0.00000000    0.00561700
     atom    4 type  2   force =     0.00000000    0.00000000   -0.00665919
     atom    5 type  1   force =     0.00000000    0.00000000   -0.00349762
     atom    6 type  2   force =     0.00000000    0.00000000    0.00316803
     atom    7 type  2   force =     0.00000000   -0.00000000   -0.00307066
     atom    8 type  1   force =     0.00000000    0.00000000    0.00274892
     atom    9 type  2   force =     0.00000000    0.00000000    0.00738426
     atom   10 type  2   force =     0.00000000    0.00000000   -0.00268948
     atom   11 type  1   force =     0.00000000   -0.00000000   -0.00126790
     atom   12 type  2   force =     0.00000000    0.00000000    0.00036474

     Total force =     0.013705     Total SCF correction =     0.000045
     Energy error            =      1.4E-04 Ry
     Gradient error          =      7.4E-03 Ry/Bohr

     number of scf cycles    =  22
     number of bfgs steps    =  21

     energy             old  =   -1978.3674258379 Ry
     energy             new  =   -1978.3675682679 Ry

     CASE: energy            _new < energy            _old

     new trust radius        =       0.0293805082 bohr
     new conv_thr            =       0.0000000001 Ry


ATOMIC_POSITIONS (crystal)
S                0.3333330000        0.6666670000       -0.1153678786
Mo              -0.0000000000       -0.0000000000       -0.0631679996
S                0.3333330000        0.6666670000       -0.0109294554
S                0.6666670000        0.3333330000        0.1068988307
Mo               0.3333330000        0.6666670000        0.1591869120
S                0.6666670000        0.3333330000        0.2112508690
S               -0.0000000000       -0.0000000000        0.3068016619
Mo               0.6666670000        0.3333330000        0.3589443397
S               -0.0000000000       -0.0000000000        0.4111397728
S                0.3333330000        0.6666670000        0.5310098595
Mo               0.0000000000        0.0000000000        0.5834420410
S                0.3333330000        0.6666670000        0.6357910470



     Writing config-only to output data dir ./tmp/relax/mos2_slab.save/ :
     XML data file
     NEW-OLD atomic charge density approx. for the potential

     total cpu time spent up to now is    78178.4 secs

     Self-consistent Calculation

     iteration #  1     ecut=    80.00 Ry     beta= 0.30
     Davidson diagonalization with overlap
     ethr =  1.00E-06,  avg # of iterations =  6.0

     total cpu time spent up to now is    78434.0 secs

     total energy              =   -1978.36778461 Ry
     estimated scf accuracy    <       0.00018753 Ry

     iteration #  2     ecut=    80.00 Ry     beta= 0.30
     Davidson diagonalization with overlap
     ethr =  1.80E-07,  avg # of iterations =  1.0

     total cpu time spent up to now is    78534.2 secs

     total energy              =   -1978.36774988 Ry
     estimated scf accuracy    <       0.00012162 Ry

     iteration #  3     ecut=    80.00 Ry     beta= 0.30
     Davidson diagonalization with overlap
     ethr =  1.17E-07,  avg # of iterations =  2.9

     total cpu time spent up to now is    78653.7 secs

     total energy              =   -1978.36776176 Ry
     estimated scf accuracy    <       0.00000478 Ry

     iteration #  4     ecut=    80.00 Ry     beta= 0.30
     Davidson diagonalization with overlap
     ethr =  4.60E-09,  avg # of iterations =  4.2

     total cpu time spent up to now is    78780.7 secs

     total energy              =   -1978.36776232 Ry
     estimated scf accuracy    <       0.00000257 Ry

     iteration #  5     ecut=    80.00 Ry     beta= 0.30
     Davidson diagonalization with overlap
     ethr =  2.47E-09,  avg # of iterations =  2.1

     total cpu time spent up to now is    78895.8 secs

     total energy              =   -1978.36776231 Ry
     estimated scf accuracy    <       0.00000186 Ry

     iteration #  6     ecut=    80.00 Ry     beta= 0.30
     Davidson diagonalization with overlap
     ethr =  1.79E-09,  avg # of iterations =  1.5

     total cpu time spent up to now is    79000.5 secs

     total energy              =   -1978.36776232 Ry
     estimated scf accuracy    <       0.00000051 Ry

     iteration #  7     ecut=    80.00 Ry     beta= 0.30
     Davidson diagonalization with overlap
     ethr =  4.87E-10,  avg # of iterations =  3.2

     total cpu time spent up to now is    79116.4 secs

     total energy              =   -1978.36776234 Ry
     estimated scf accuracy    <       0.00000008 Ry

     iteration #  8     ecut=    80.00 Ry     beta= 0.30
     Davidson diagonalization with overlap
     ethr =  7.58E-11,  avg # of iterations =  4.1

     total cpu time spent up to now is    79234.5 secs

     total energy              =   -1978.36776235 Ry
     estimated scf accuracy    <       0.00000004 Ry

     iteration #  9     ecut=    80.00 Ry     beta= 0.30
     Davidson diagonalization with overlap
     ethr =  3.74E-11,  avg # of iterations =  2.0

     total cpu time spent up to now is    79351.4 secs

     total energy              =   -1978.36776234 Ry
     estimated scf accuracy    <       0.00000002 Ry

     iteration # 10     ecut=    80.00 Ry     beta= 0.30
     Davidson diagonalization with overlap
     ethr =  1.90E-11,  avg # of iterations =  1.2

     total cpu time spent up to now is    79453.6 secs

     total energy              =   -1978.36776236 Ry
     estimated scf accuracy    <       0.00000002 Ry

     iteration # 11     ecut=    80.00 Ry     beta= 0.30
     Davidson diagonalization with overlap
     ethr =  1.55E-11,  avg # of iterations =  2.1

     total cpu time spent up to now is    79573.6 secs

     total energy              =   -1978.36776235 Ry
     estimated scf accuracy    <       0.00000002 Ry

     iteration # 12     ecut=    80.00 Ry     beta= 0.30
     Davidson diagonalization with overlap
     ethr =  1.55E-11,  avg # of iterations =  2.2

     total cpu time spent up to now is    79688.6 secs

     total energy              =   -1978.36776234 Ry
     estimated scf accuracy    <       0.00000001 Ry

     iteration # 13     ecut=    80.00 Ry     beta= 0.30
     Davidson diagonalization with overlap
     ethr =  1.06E-11,  avg # of iterations =  2.1

     total cpu time spent up to now is    79802.4 secs

     total energy              =   -1978.36776234 Ry
     estimated scf accuracy    <          8.8E-09 Ry

     iteration # 14     ecut=    80.00 Ry     beta= 0.30
     Davidson diagonalization with overlap
     ethr =  8.44E-12,  avg # of iterations =  2.1

     total cpu time spent up to now is    79915.3 secs

     total energy              =   -1978.36776234 Ry
     estimated scf accuracy    <          3.9E-09 Ry

     iteration # 15     ecut=    80.00 Ry     beta= 0.30
     Davidson diagonalization with overlap
     ethr =  3.71E-12,  avg # of iterations =  1.9

     total cpu time spent up to now is    80025.6 secs

     total energy              =   -1978.36776234 Ry
     estimated scf accuracy    <          2.6E-09 Ry

     iteration # 16     ecut=    80.00 Ry     beta= 0.30
     Davidson diagonalization with overlap
     ethr =  2.48E-12,  avg # of iterations =  2.0

     total cpu time spent up to now is    80137.4 secs

     total energy              =   -1978.36776234 Ry
     estimated scf accuracy    <          1.7E-09 Ry

     iteration # 17     ecut=    80.00 Ry     beta= 0.30
     Davidson diagonalization with overlap
     ethr =  1.63E-12,  avg # of iterations =  2.7

     total cpu time spent up to now is    80260.1 secs

     total energy              =   -1978.36776234 Ry
     estimated scf accuracy    <          1.9E-09 Ry

     iteration # 18     ecut=    80.00 Ry     beta= 0.30
     Davidson diagonalization with overlap
     ethr =  1.63E-12,  avg # of iterations =  2.4

     total cpu time spent up to now is    80374.7 secs

     total energy              =   -1978.36776234 Ry
     estimated scf accuracy    <          7.3E-10 Ry

     iteration # 19     ecut=    80.00 Ry     beta= 0.30
     Davidson diagonalization with overlap
     ethr =  7.05E-13,  avg # of iterations =  1.0

     total cpu time spent up to now is    80475.5 secs

     total energy              =   -1978.36776234 Ry
     estimated scf accuracy    <          6.1E-10 Ry

     iteration # 20     ecut=    80.00 Ry     beta= 0.30
     Davidson diagonalization with overlap
     ethr =  5.84E-13,  avg # of iterations =  1.4

     total cpu time spent up to now is    80580.3 secs

     total energy              =   -1978.36776234 Ry
     estimated scf accuracy    <          5.1E-10 Ry

     iteration # 21     ecut=    80.00 Ry     beta= 0.30
     Davidson diagonalization with overlap
     ethr =  4.91E-13,  avg # of iterations =  1.2

     total cpu time spent up to now is    80682.4 secs

     total energy              =   -1978.36776234 Ry
     estimated scf accuracy    <          4.9E-10 Ry

     iteration # 22     ecut=    80.00 Ry     beta= 0.30
     Davidson diagonalization with overlap
     ethr =  4.75E-13,  avg # of iterations =  3.4

     total cpu time spent up to now is    80808.8 secs

     total energy              =   -1978.36776234 Ry
     estimated scf accuracy    <          8.8E-10 Ry

     iteration # 23     ecut=    80.00 Ry     beta= 0.30
     Davidson diagonalization with overlap
     ethr =  4.75E-13,  avg # of iterations =  3.4

     total cpu time spent up to now is    80935.5 secs

     End of self-consistent calculation

          k = 0.0000 0.0000 0.0000 ( 21311 PWs)   bands (ev):

   -53.4908 -53.4870 -53.4183 -53.4145 -27.6679 -27.6611 -27.5956 -27.5901
   -27.4321 -27.4321 -27.4247 -27.4247 -27.3594 -27.3594 -27.3548 -27.3548
    -6.9059  -6.7669  -6.7230  -6.6759  -5.6356  -5.4767  -5.4132  -5.3077
     1.2871   1.6584   1.7533   2.0382   4.7270   4.7270   4.7772   4.7806
     4.7806   4.8010   4.8010   4.8213   4.8213   5.3295   5.6090   5.8518
     5.8519   5.9000   5.9000   5.9285   5.9286   5.9477   5.9478   6.2766
     6.9862   7.3567   7.5168   7.9770  10.1132  10.1132  10.1592  10.1592
    10.2068  10.2068  10.2323  10.2323  10.3561  10.3562

          k = 0.0000 0.0722 0.0000 ( 21283 PWs)   bands (ev):

   -53.4892 -53.4854 -53.4167 -53.4129 -27.6648 -27.6580 -27.5926 -27.5870
   -27.4478 -27.4402 -27.4357 -27.4282 -27.3750 -27.3704 -27.3629 -27.3583
    -6.8462  -6.7075  -6.6635  -6.6166  -5.6079  -5.4516  -5.3885  -5.2854
     1.3551   1.7267   1.8214   2.1055   4.5920   4.6332   4.6477   4.6667
     4.6878   4.7893   4.8431   4.8635   4.8840   5.1027   5.2872   5.5616
     5.7543   5.8034   5.8323   5.8512   5.9679   6.0596   6.1480   6.4915
     6.9888   7.3356   7.4801   7.8813  10.0503  10.0709  10.1254  10.1446
    10.1905  10.1936  10.2316  10.2527  10.2753  10.2801

          k = 0.0000 0.1443 0.0000 ( 21263 PWs)   bands (ev):

   -53.4848 -53.4810 -53.4122 -53.4084 -27.6561 -27.6493 -27.5838 -27.5783
   -27.4921 -27.4844 -27.4457 -27.4383 -27.4194 -27.4147 -27.3730 -27.3684
    -6.6719  -6.5343  -6.4902  -6.4441  -5.5269  -5.3787  -5.3166  -5.2204
     1.5440   1.9156   2.0088   2.2883   4.2429   4.2918   4.3090   4.3292
     4.3482   4.6879   4.8141   4.9684   5.0233   5.0437   5.0520   5.0648
     5.5024   5.5534   5.5830   5.6014   6.0384   6.1908   6.3151   6.6378
     6.9597   7.2250   7.3327   7.5833   9.7654   9.8388   9.8952   9.9318
     9.9889  10.0046  10.0638  10.0825  10.1300  10.2027

          k = 0.0000 0.2165 0.0000 ( 21233 PWs)   bands (ev):

   -53.4781 -53.4744 -53.4056 -53.4018 -27.6430 -27.6363 -27.5707 -27.5652
   -27.5579 -27.5498 -27.4852 -27.4804 -27.4608 -27.4533 -27.3881 -27.3835
    -6.3980  -6.2629  -6.2186  -6.1745  -5.3998  -5.2647  -5.2043  -5.1194
     1.7984   2.1621   2.2495   2.5087   3.8106   3.8597   3.8844   3.9145
     3.9704   4.2315   4.3212   4.5093   5.1666   5.2276   5.2384   5.2673
     5.2776   5.2987   5.3270   5.3421   5.9609   6.1442   6.2723   6.5547
     6.8150   6.9600   7.0309   7.1344   9.3880   9.5203   9.6457   9.8416
     9.8491   9.9123   9.9640   9.9835  10.0240  10.0845

          k = 0.0000 0.2887 0.0000 ( 21197 PWs)   bands (ev):

   -53.4702 -53.4665 -53.3977 -53.3939 -27.6347 -27.6275 -27.6262 -27.6210
   -27.5620 -27.5570 -27.5552 -27.5497 -27.4785 -27.4709 -27.4058 -27.4011
    -6.0498  -5.9196  -5.8755  -5.8352  -5.2391  -5.1217  -5.0637  -4.9939
     1.9923   2.3106   2.3791   2.5607   3.4162   3.4881   3.5592   3.5914
     3.6627   3.7743   3.8470   3.9788   4.8431   4.9018   4.9310   4.9501
     5.5693   5.6279   5.6548   5.6735   5.7508   5.9525   6.0672   6.3110
     6.5372   6.6045   6.6604   6.7070   9.2527   9.4298   9.5791   9.6511
     9.7195   9.7880   9.8277   9.8573  10.1797  10.3443

          k = 0.0000 0.3608 0.0000 ( 21187 PWs)   bands (ev):

   -53.4623 -53.4586 -53.3898 -53.3860 -27.7106 -27.7017 -27.6378 -27.6328
   -27.6119 -27.6055 -27.5397 -27.5342 -27.4962 -27.4885 -27.4234 -27.4188
    -5.6658  -5.5439  -5.5006  -5.4667  -5.0637  -4.9679  -4.9128  -4.8610
     1.9608   2.1783   2.2225   2.3019   3.0425   3.2122   3.2712   3.3648
     3.4338   3.5095   3.5623   3.6745   4.5541   4.6143   4.6439   4.6627
     5.5178   5.7259   5.8221   5.8887   5.9561   5.9885   6.0071   6.0363
     6.3142   6.3743   6.4288   6.4712   9.3682   9.5461   9.5466   9.6034
     9.6680   9.6802   9.6998   9.9449  10.5110  10.6788

          k = 0.0000 0.4330 0.0000 ( 21140 PWs)   bands (ev):

   -53.4556 -53.4519 -53.3831 -53.3793 -27.7742 -27.7650 -27.7015 -27.6963
   -27.5987 -27.5924 -27.5265 -27.5211 -27.5111 -27.5033 -27.4383 -27.4336
    -5.3003  -5.1912  -5.1506  -5.1240  -4.8995  -4.8275  -4.7761  -4.7423
     1.7423   1.8859   1.9155   1.9587   2.7058   2.8646   2.8994   2.9706
     3.3087   3.4304   3.4779   3.5806   4.3328   4.3942   4.4240   4.4426
     5.3429   5.5467   5.6313   5.8218   6.1436   6.2231   6.2620   6.2839
     6.3300   6.4122   6.4613   6.5226   9.5399   9.5807   9.6272   9.6407
     9.6616   9.7754   9.8721  10.0713  10.8234  10.9718

          k = 0.0000 0.5052 0.0000 ( 21078 PWs)   bands (ev):

   -53.4511 -53.4475 -53.3786 -53.3748 -27.8164 -27.8069 -27.7436 -27.7384
   -27.5899 -27.5837 -27.5210 -27.5176 -27.5132 -27.5122 -27.4483 -27.4436
    -5.0253  -4.9321  -4.8981  -4.8736  -4.7785  -4.7281  -4.6824  -4.6587
     1.5238   1.6380   1.6577   1.7010   2.4695   2.6039   2.6364   2.6930
     3.1968   3.3280   3.3754   3.4630   4.1947   4.2568   4.2867   4.3053
     5.2469   5.4428   5.5220   5.6915   6.2983   6.3889   6.4323   6.4606
     6.5186   6.6032   6.6507   6.7097   9.5890   9.6163   9.6726   9.6863
     9.9151  10.0166  10.0762  10.1905  11.0206  11.1450

          k = 0.0000-0.5774 0.0000 ( 21006 PWs)   bands (ev):

   -53.4495 -53.4459 -53.3770 -53.3732 -27.8311 -27.8216 -27.7584 -27.7531
   -27.5868 -27.5806 -27.5245 -27.5167 -27.5145 -27.5091 -27.4517 -27.4470
    -4.9194  -4.8354  -4.8074  -4.7796  -4.7338  -4.6923  -4.6501  -4.6274
     1.4350   1.5429   1.5602   1.6049   2.3845   2.5096   2.5426   2.5950
     3.1461   3.2788   3.3258   3.4089   4.1479   4.2102   4.2401   4.2588
     5.2180   5.4096   5.4872   5.6477   6.3486   6.4436   6.4886   6.5201
     6.6367   6.7070   6.7493   6.7969   9.6178   9.6406   9.6958   9.7076
    10.0692  10.1268  10.1852  10.2232  11.0836  11.1945

          k = 0.0625 0.1083 0.0000 ( 21269 PWs)   bands (ev):

   -53.4862 -53.4824 -53.4137 -53.4099 -27.6589 -27.6522 -27.5867 -27.5811
   -27.4773 -27.4696 -27.4429 -27.4355 -27.4046 -27.3999 -27.3702 -27.3656
    -6.7292  -6.5912  -6.5471  -6.5007  -5.5535  -5.4026  -5.3402  -5.2417
     1.4840   1.8559   1.9498   2.2314   4.3528   4.4015   4.4175   4.4308
     4.4523   4.8163   4.9085   4.9573   4.9626   4.9836   5.0037   5.2170
     5.5399   5.5886   5.6180   5.6369   6.0716   6.2053   6.3200   6.6408
     6.9768   7.2711   7.3888   7.6844   9.8864   9.9196   9.9391   9.9766
    10.0122  10.0169  10.0685  10.1423  10.1570  10.1784

          k = 0.0625 0.1804 0.0000 ( 21194 PWs)   bands (ev):

   -53.4806 -53.4769 -53.4081 -53.4043 -27.6480 -27.6413 -27.5758 -27.5702
   -27.5312 -27.5232 -27.4584 -27.4567 -27.4537 -27.4492 -27.3840 -27.3794
    -6.5049  -6.3687  -6.3245  -6.2795  -5.4493  -5.3089  -5.2479  -5.1585
     1.7097   2.0790   2.1697   2.4409   3.9708   4.0230   4.0416   4.0689
     4.1177   4.4353   4.5411   4.7604   5.1206   5.1693   5.1799   5.2077
     5.2219   5.2233   5.2598   5.2727   6.1318   6.2856   6.4045   6.6780
     6.8930   7.0822   7.1637   7.3077   9.4973   9.6032   9.6979   9.8208
     9.8617   9.9250   9.9515   9.9860  10.0027  10.0588

          k = 0.0625 0.2526 0.0000 ( 21202 PWs)   bands (ev):

   -53.4734 -53.4696 -53.4008 -53.3971 -27.6337 -27.6271 -27.6008 -27.5924
   -27.5614 -27.5559 -27.5281 -27.5232 -27.4748 -27.4672 -27.4020 -27.3974
    -6.1933  -6.0607  -6.0165  -5.9744  -5.3048  -5.1798  -5.1208  -5.0446
     1.9467   2.2943   2.3733   2.6001   3.5873   3.6343   3.6746   3.7057
     3.7944   4.0079   4.0841   4.2373   4.8012   4.8502   4.8812   4.9065
     5.3949   5.4520   5.4769   5.4969   6.0355   6.1948   6.3023   6.5232
     6.6793   6.7621   6.8199   6.8670   9.2320   9.3921   9.5134   9.6732
     9.7799   9.8253   9.8774   9.8942   9.9838  10.1110

          k = 0.0625 0.3248 0.0000 ( 21194 PWs)   bands (ev):

   -53.4655 -53.4618 -53.3929 -53.3892 -27.6753 -27.6666 -27.6182 -27.6117
   -27.6026 -27.5976 -27.5459 -27.5405 -27.4942 -27.4865 -27.4215 -27.4168
    -5.8256  -5.6997  -5.6559  -5.6190  -5.1354  -5.0300  -4.9736  -4.9140
     2.0345   2.3027   2.3567   2.4777   3.2413   3.3628   3.4492   3.5131
     3.5695   3.5814   3.6668   3.7585   4.4958   4.5590   4.5926   4.6253
     5.6319   5.6950   5.7173   5.7442   5.8267   5.9793   6.0700   6.2567
     6.4435   6.4859   6.5400   6.5674   9.1939   9.3658   9.4654   9.5813
     9.7099   9.7667   9.8005   9.9340  10.2396  10.3991

          k = 0.0625 0.3969 0.0000 ( 21151 PWs)   bands (ev):

   -53.4582 -53.4545 -53.3856 -53.3819 -27.7434 -27.7343 -27.6707 -27.6656
   -27.6038 -27.5975 -27.5315 -27.5261 -27.5122 -27.5044 -27.4394 -27.4347
    -5.4477  -5.3324  -5.2902  -5.2605  -4.9631  -4.8807  -4.8275  -4.7862
     1.8922   2.0667   2.1032   2.1568   2.8710   3.0282   3.0645   3.1368
     3.3853   3.4947   3.5416   3.6493   4.2949   4.3641   4.3977   4.4288
     5.5615   5.7277   5.7821   5.8078   5.8424   5.8842   5.9031   6.0049
     6.4460   6.4847   6.5301   6.5557   9.3242   9.4628   9.5261   9.6057
     9.7510   9.8076   9.8542  10.0169  10.5813  10.7322

          k = 0.0625 0.4691 0.0000 ( 21105 PWs)   bands (ev):

   -53.4526 -53.4489 -53.3800 -53.3763 -27.7950 -27.7857 -27.7223 -27.7171
   -27.5928 -27.5865 -27.5258 -27.5205 -27.5180 -27.5151 -27.4531 -27.4484
    -5.1223  -5.0219  -4.9842  -4.9601  -4.8170  -4.7581  -4.7096  -4.6830
     1.6673   1.7935   1.8178   1.8596   2.5564   2.6873   2.7154   2.7715
     3.2700   3.4030   3.4503   3.5411   4.1844   4.2492   4.2791   4.3058
     5.3725   5.5424   5.6149   5.7611   5.9107   5.9812   6.0294   6.0620
     6.6175   6.6643   6.7053   6.7388   9.5103   9.5882   9.6290   9.6754
     9.8852   9.9556  10.0086  10.1353  10.8984  11.0262

          k = 0.0625 0.5413 0.0000 ( 21084 PWs)   bands (ev):

   -53.4495 -53.4459 -53.3770 -53.3732 -27.8228 -27.8133 -27.7501 -27.7448
   -27.5868 -27.5806 -27.5332 -27.5253 -27.5145 -27.5091 -27.4605 -27.4558
    -4.9257  -4.8399  -4.8108  -4.7837  -4.7310  -4.6888  -4.6461  -4.6233
     1.5138   1.6236   1.6414   1.6861   2.3782   2.4937   2.5231   2.5726
     3.1754   3.3130   3.3598   3.4423   4.1388   4.1971   4.2233   4.2487
     5.2685   5.4404   5.5140   5.6570   5.9965   6.0835   6.1338   6.1606
     6.7718   6.8277   6.8691   6.9066   9.6191   9.6454   9.6890   9.7109
    10.0619  10.1268  10.1788  10.2389  11.1262  11.2238

          k = 0.1250 0.2165 0.0000 ( 21179 PWs)   bands (ev):

   -53.4745 -53.4707 -53.4019 -53.3982 -27.6359 -27.6293 -27.5867 -27.5784
   -27.5636 -27.5581 -27.5140 -27.5091 -27.4756 -27.4680 -27.4029 -27.3983
    -6.2425  -6.1092  -6.0650  -6.0224  -5.3272  -5.1996  -5.1403  -5.0619
     1.9283   2.2852   2.3678   2.6104   3.6561   3.7030   3.7286   3.7625
     3.8871   4.1615   4.2465   4.4210   4.6694   4.7073   4.7446   4.7683
     5.3154   5.3720   5.3959   5.4169   6.2210   6.3567   6.4571   6.6513
     6.7451   6.8319   6.8955   6.9331   9.2196   9.3703   9.4779   9.6389
     9.7584   9.8242   9.8388   9.8698   9.9160   9.9873

          k = 0.1250 0.2887 0.0000 ( 21199 PWs)   bands (ev):

   -53.4672 -53.4635 -53.3946 -53.3909 -27.6504 -27.6418 -27.6215 -27.6151
   -27.5777 -27.5727 -27.5493 -27.5438 -27.4991 -27.4913 -27.4263 -27.4217
    -5.9098  -5.7819  -5.7379  -5.6995  -5.1724  -5.0621  -5.0051  -4.9412
     2.0806   2.3843   2.4465   2.6044   3.4066   3.4698   3.5411   3.5923
     3.6715   3.7823   3.8451   3.9096   4.2391   4.3177   4.3664   4.4625
     5.4226   5.4838   5.5118   5.5348   6.1512   6.2691   6.3492   6.4868
     6.5529   6.5698   6.6186   6.6420   9.0604   9.2381   9.3484   9.5104
     9.7606   9.8071   9.8378   9.8982   9.9936  10.1263

          k = 0.1250 0.3608 0.0000 ( 21195 PWs)   bands (ev):

   -53.4599 -53.4562 -53.3873 -53.3836 -27.7131 -27.7041 -27.6403 -27.6353
   -27.6072 -27.6008 -27.5349 -27.5295 -27.5229 -27.5150 -27.4501 -27.4454
    -5.5442  -5.4252  -5.3823  -5.3503  -5.0028  -4.9136  -4.8593  -4.8126
     2.0407   2.2524   2.2949   2.3696   3.0725   3.1935   3.2354   3.2920
     3.4808   3.5648   3.6143   3.7062   4.0449   4.1695   4.2261   4.3336
     5.3716   5.4358   5.4713   5.4937   5.9307   6.0391   6.0984   6.2112
     6.4969   6.5274   6.5800   6.5920   9.0962   9.2856   9.3988   9.5745
     9.8355   9.8760   9.9083   9.9926  10.2352  10.3831

          k = 0.1250 0.4330 0.0000 ( 21113 PWs)   bands (ev):

   -53.4537 -53.4500 -53.3811 -53.3774 -27.7655 -27.7563 -27.6928 -27.6877
   -27.5950 -27.5887 -27.5432 -27.5352 -27.5227 -27.5173 -27.4704 -27.4657
    -5.1986  -5.0927  -5.0530  -5.0278  -4.8433  -4.7774  -4.7270  -4.6965
     1.8733   2.0227   2.0547   2.0982   2.6616   2.7647   2.7781   2.8306
     3.3915   3.5290   3.5773   3.6598   4.0148   4.1374   4.1894   4.2700
     5.3159   5.4038   5.4464   5.4780   5.6594   5.7599   5.8181   5.9197
     6.6350   6.6670   6.7179   6.7320   9.3012   9.4767   9.5787   9.7377
     9.9447   9.9744  10.0174  10.0695  10.5503  10.6800

          k = 0.1250 0.5052 0.0000 ( 21081 PWs)   bands (ev):

   -53.4495 -53.4459 -53.3770 -53.3732 -27.8003 -27.7909 -27.7276 -27.7224
   -27.5868 -27.5806 -27.5567 -27.5487 -27.5146 -27.5092 -27.4840 -27.4792
    -4.9404  -4.8506  -4.8191  -4.7934  -4.7249  -4.6804  -4.6364  -4.6134
     1.7193   1.8386   1.8602   1.9032   2.3667   2.4573   2.4763   2.5219
     3.2663   3.4160   3.4628   3.5389   4.0597   4.1598   4.2009   4.2449
     5.3135   5.4269   5.4581   5.5051   5.5303   5.5549   5.5995   5.7086
     6.8217   6.8659   6.9126   6.9387   9.5143   9.6103   9.6627   9.7270
    10.0922  10.1498  10.1968  10.2708  10.8285  10.9288

          k = 0.1250 0.5774 0.0000 ( 21108 PWs)   bands (ev):

   -53.4481 -53.4444 -53.3755 -53.3718 -27.8125 -27.8030 -27.7397 -27.7345
   -27.5839 -27.5778 -27.5615 -27.5535 -27.5117 -27.5063 -27.4888 -27.4840
    -4.8413  -4.7608  -4.7365  -4.7059  -4.6808  -4.6455  -4.6049  -4.5820
     1.6590   1.7695   1.7861   1.8325   2.2616   2.3487   2.3706   2.4139
     3.2045   3.3547   3.4010   3.4767   4.1051   4.1767   4.2055   4.2417
     5.2736   5.4054   5.4412   5.4847   5.5083   5.5395   5.5641   5.6427
     6.9137   6.9669   7.0132   7.0458   9.5870   9.6129   9.6541   9.6798
    10.2062  10.2748  10.3267  10.3658  10.9384  11.0536

          k = 0.1875 0.3248 0.0000 ( 21195 PWs)   bands (ev):

   -53.4605 -53.4568 -53.3879 -53.3842 -27.6994 -27.6906 -27.6267 -27.6216
   -27.6084 -27.6020 -27.5361 -27.5307 -27.5297 -27.5218 -27.4569 -27.4522
    -5.5777  -5.4574  -5.4143  -5.3815  -5.0163  -4.9247  -4.8701  -4.8214
     2.1039   2.3340   2.3793   2.4667   3.2032   3.2793   3.3354   3.3772
     3.5219   3.5880   3.6510   3.7040   3.9075   4.0493   4.1225   4.2836
     5.1973   5.2620   5.2965   5.3208   6.0932   6.1856   6.2295   6.3207
     6.5002   6.5376   6.5924   6.6027   9.0091   9.2142   9.3413   9.5531
     9.8566   9.8885   9.9229   9.9722  10.0886  10.2277

          k = 0.1875 0.3969 0.0000 ( 21153 PWs)   bands (ev):

   -53.4543 -53.4506 -53.3817 -53.3780 -27.7416 -27.7325 -27.6689 -27.6638
   -27.5962 -27.5899 -27.5607 -27.5527 -27.5239 -27.5185 -27.4879 -27.4832
    -5.2404  -5.1317  -5.0910  -5.0648  -4.8563  -4.7865  -4.7353  -4.7021
     2.0285   2.2018   2.2397   2.2916   2.7549   2.8164   2.8247   2.8761
     3.5144   3.6417   3.7069   3.7586   3.9131   4.0370   4.1111   4.2584
     4.8818   4.9537   4.9971   5.0202   5.8622   5.9364   5.9814   6.0390
     6.6021   6.6417   6.6959   6.7127   9.1626   9.3824   9.5184   9.7891
     9.9700   9.9890  10.0374  10.0560  10.2749  10.4060

          k = 0.1875 0.4691 0.0000 ( 21101 PWs)   bands (ev):

   -53.4495 -53.4459 -53.3770 -53.3732 -27.7723 -27.7630 -27.6996 -27.6944
   -27.5868 -27.5857 -27.5806 -27.5776 -27.5146 -27.5130 -27.5092 -27.5082
    -4.9545  -4.8611  -4.8275  -4.8028  -4.7191  -4.6721  -4.6268  -4.6032
     1.9503   2.0914   2.1232   2.1627   2.3596   2.4224   2.4326   2.4768
     3.4301   3.5921   3.6382   3.6830   3.9724   4.1110   4.1732   4.2743
     4.6918   4.8031   4.8540   4.9081   5.5691   5.6417   5.7049   5.7498
     6.8067   6.8383   6.8939   6.9057   9.3747   9.5268   9.6068   9.7314
    10.1314  10.1844  10.2269  10.3056  10.4945  10.5788

          k = 0.1875 0.5413 0.0000 ( 21112 PWs)   bands (ev):

   -53.4469 -53.4433 -53.3744 -53.3707 -27.7884 -27.7791 -27.7157 -27.7105
   -27.5998 -27.5916 -27.5818 -27.5756 -27.5270 -27.5222 -27.5095 -27.5041
    -4.7835  -4.7053  -4.6842  -4.6513  -4.6367  -4.6072  -4.5675  -4.5445
     1.9134   2.0379   2.0585   2.1049   2.1471   2.2051   2.2275   2.2621
     3.2872   3.4487   3.4953   3.5579   4.0952   4.2037   4.2482   4.2997
     4.6454   4.7849   4.8376   4.9000   5.3705   5.4354   5.4964   5.5520
     6.9910   7.0315   7.0827   7.1056   9.4345   9.4845   9.5255   9.5598
    10.3248  10.4189  10.4732  10.5513  10.6231  10.6670

          k = 0.2500 0.4330 0.0000 ( 21125 PWs)   bands (ev):

   -53.4495 -53.4459 -53.3770 -53.3732 -27.7577 -27.7485 -27.6850 -27.6799
   -27.6007 -27.5926 -27.5868 -27.5806 -27.5280 -27.5232 -27.5146 -27.5092
    -4.9602  -4.8654  -4.8310  -4.8066  -4.7167  -4.6687  -4.6228  -4.5989
     2.0549   2.2103   2.2492   2.2840   2.3611   2.4095   2.4182   2.4591
     3.5964   3.6955   3.7797   3.8101   3.9841   4.0975   4.1704   4.3081
     4.3960   4.4422   4.4853   4.5017   5.6311   5.6839   5.7660   5.7723
     6.7901   6.8206   6.8783   6.8884   9.3155   9.4864   9.5766   9.7244
    10.1424  10.1911  10.2327  10.3123  10.3651  10.4517

          k = 0.2500 0.5052 0.0000 ( 21117 PWs)   bands (ev):

   -53.4463 -53.4427 -53.3738 -53.3701 -27.7625 -27.7533 -27.6898 -27.6846
   -27.6335 -27.6252 -27.5806 -27.5745 -27.5607 -27.5559 -27.5083 -27.5030
    -4.7553  -4.6774  -4.6574  -4.6237  -4.6106  -4.5844  -4.5451  -4.5219
     2.0336   2.1000   2.1157   2.1652   2.2084   2.3054   2.3371   2.3775
     3.4560   3.6163   3.6531   3.6763   4.0094   4.1095   4.1765   4.2224
     4.2297   4.2830   4.3383   4.4157   5.3631   5.4125   5.4944   5.5204
     7.0338   7.0604   7.1186   7.1272   9.2997   9.3689   9.4109   9.4580
    10.3048  10.3527  10.4246  10.4421  10.5700  10.6042

          k = 0.2500 0.5774 0.0000 ( 21116 PWs)   bands (ev):

   -53.4452 -53.4416 -53.3727 -53.3690 -27.7624 -27.7531 -27.6897 -27.6845
   -27.6468 -27.6384 -27.5784 -27.5740 -27.5723 -27.5692 -27.5061 -27.5008
    -4.6764  -4.6094  -4.5997  -4.5772  -4.5542  -4.5530  -4.5139  -4.4933
     1.9412   2.0047   2.0121   2.0618   2.2892   2.3739   2.3880   2.4369
     3.3064   3.4556   3.5003   3.5423   3.9555   4.1263   4.1683   4.2115
     4.3028   4.3486   4.3989   4.4399   5.2523   5.2777   5.3616   5.3856
     7.1608   7.1914   7.2473   7.2625   9.2248   9.2531   9.2966   9.3135
    10.3324  10.3967  10.4261  10.4861  10.7319  10.7584

          k = 0.3125 0.5413 0.0000 ( 21100 PWs)   bands (ev):

   -53.4446 -53.4410 -53.3721 -53.3684 -27.7414 -27.7321 -27.6752 -27.6686
   -27.6668 -27.6635 -27.6025 -27.5976 -27.5772 -27.5711 -27.5050 -27.4996
    -4.6376  -4.5769  -4.5705  -4.5564  -4.5346  -4.5194  -4.4924  -4.4745
     1.8757   1.9391   1.9409   1.9899   2.5027   2.6119   2.6361   2.6775
     3.3117   3.3520   3.3974   3.4484   3.7993   3.8628   3.8662   3.9132
     4.3438   4.4089   4.4634   4.4973   5.1597   5.1978   5.2858   5.3215
     7.2458   7.2686   7.3296   7.3356   9.1053   9.1363   9.1781   9.1950
    10.2802  10.3034  10.3354  10.4048  10.8322  10.8709

     the Fermi energy is     8.4112 ev

!    total energy              =   -1978.36776234 Ry
     total all-electron energy =    -38771.688607 Ry
     estimated scf accuracy    <          8.2E-11 Ry
     smearing contrib. (-TS)   =       0.00006334 Ry
     internal energy E=F+TS    =   -1978.36782569 Ry

     The total energy is F=E-TS. E is the sum of the following terms:
     one-electron contribution =   -1454.24164453 Ry
     hartree contribution      =     769.36787616 Ry
     xc contribution           =    -119.27513564 Ry
     ewald contribution        =      95.63684303 Ry
     one-center paw contrib.   =   -1269.85576470 Ry

     convergence has been achieved in  23 iterations

     Forces acting on atoms (cartesian axes, Ry/au):

     atom    1 type  2   force =     0.00000000    0.00000000   -0.00425528
     atom    2 type  1   force =     0.00000000    0.00000000    0.00074591
     atom    3 type  2   force =     0.00000000    0.00000000    0.00702047
     atom    4 type  2   force =     0.00000000    0.00000000   -0.00675824
     atom    5 type  1   force =     0.00000000    0.00000000   -0.00407609
     atom    6 type  2   force =     0.00000000   -0.00000000    0.00402612
     atom    7 type  2   force =     0.00000000    0.00000000   -0.00362011
     atom    8 type  1   force =     0.00000000    0.00000000    0.00265620
     atom    9 type  2   force =     0.00000000    0.00000000    0.00783900
     atom   10 type  2   force =     0.00000000    0.00000000   -0.00297077
     atom   11 type  1   force =     0.00000000    0.00000000   -0.00142074
     atom   12 type  2   force =     0.00000000    0.00000000    0.00081352

     Total force =     0.015478     Total SCF correction =     0.000036
     Energy error            =      1.9E-04 Ry
     Gradient error          =      7.8E-03 Ry/Bohr

     number of scf cycles    =  23
     number of bfgs steps    =  22

     energy             old  =   -1978.3675682679 Ry
     energy             new  =   -1978.3677623412 Ry

     CASE: energy            _new < energy            _old

     new trust radius        =       0.0440707623 bohr
     new conv_thr            =       0.0000000002 Ry


ATOMIC_POSITIONS (crystal)
S                0.3333330000        0.6666670000       -0.1145905038
Mo              -0.0000000000       -0.0000000000       -0.0624540331
S                0.3333330000        0.6666670000       -0.0102842079
S                0.6666670000        0.3333330000        0.1068166375
Mo               0.3333330000        0.6666670000        0.1591038564
S                0.6666670000        0.3333330000        0.2111332627
S               -0.0000000000       -0.0000000000        0.3069215899
Mo               0.6666670000        0.3333330000        0.3590471880
S               -0.0000000000       -0.0000000000        0.4112229353
S                0.3333330000        0.6666670000        0.5303043669
Mo               0.0000000000        0.0000000000        0.5827255702
S                0.3333330000        0.6666670000        0.6350533378



     Writing config-only to output data dir ./tmp/relax/mos2_slab.save/ :
     XML data file
     NEW-OLD atomic charge density approx. for the potential

     total cpu time spent up to now is    80991.2 secs

     Self-consistent Calculation

     iteration #  1     ecut=    80.00 Ry     beta= 0.30
     Davidson diagonalization with overlap
     ethr =  1.00E-06,  avg # of iterations =  7.1

     total cpu time spent up to now is    81268.7 secs

     total energy              =   -1978.36810275 Ry
     estimated scf accuracy    <       0.00051987 Ry

     iteration #  2     ecut=    80.00 Ry     beta= 0.30
     Davidson diagonalization with overlap
     ethr =  5.00E-07,  avg # of iterations =  1.0

     total cpu time spent up to now is    81369.4 secs

     total energy              =   -1978.36801141 Ry
     estimated scf accuracy    <       0.00032236 Ry

     iteration #  3     ecut=    80.00 Ry     beta= 0.30
     Davidson diagonalization with overlap
     ethr =  3.10E-07,  avg # of iterations =  3.1

     total cpu time spent up to now is    81489.1 secs

     total energy              =   -1978.36804365 Ry
     estimated scf accuracy    <       0.00001180 Ry

     iteration #  4     ecut=    80.00 Ry     beta= 0.30
     Davidson diagonalization with overlap
     ethr =  1.13E-08,  avg # of iterations =  3.4

     total cpu time spent up to now is    81614.7 secs

     total energy              =   -1978.36804521 Ry
     estimated scf accuracy    <       0.00000422 Ry

     iteration #  5     ecut=    80.00 Ry     beta= 0.30
     Davidson diagonalization with overlap
     ethr =  4.06E-09,  avg # of iterations =  2.3

     total cpu time spent up to now is    81735.8 secs

     total energy              =   -1978.36804544 Ry
     estimated scf accuracy    <       0.00000220 Ry

     iteration #  6     ecut=    80.00 Ry     beta= 0.30
     Davidson diagonalization with overlap
     ethr =  2.11E-09,  avg # of iterations =  2.0

     total cpu time spent up to now is    81845.0 secs

     total energy              =   -1978.36804546 Ry
     estimated scf accuracy    <       0.00000050 Ry

     iteration #  7     ecut=    80.00 Ry     beta= 0.30
     Davidson diagonalization with overlap
     ethr =  4.82E-10,  avg # of iterations =  4.3

     total cpu time spent up to now is    81966.4 secs

     total energy              =   -1978.36804555 Ry
     estimated scf accuracy    <       0.00000007 Ry

     iteration #  8     ecut=    80.00 Ry     beta= 0.30
     Davidson diagonalization with overlap
     ethr =  6.53E-11,  avg # of iterations =  3.6

     total cpu time spent up to now is    82086.7 secs

     total energy              =   -1978.36804555 Ry
     estimated scf accuracy    <       0.00000007 Ry

     iteration #  9     ecut=    80.00 Ry     beta= 0.30
     Davidson diagonalization with overlap
     ethr =  6.32E-11,  avg # of iterations =  2.0

     total cpu time spent up to now is    82201.4 secs

     total energy              =   -1978.36804556 Ry
     estimated scf accuracy    <       0.00000003 Ry

     iteration # 10     ecut=    80.00 Ry     beta= 0.30
     Davidson diagonalization with overlap
     ethr =  2.78E-11,  avg # of iterations =  1.2

     total cpu time spent up to now is    82303.8 secs

     total energy              =   -1978.36804557 Ry
     estimated scf accuracy    <       0.00000003 Ry

     iteration # 11     ecut=    80.00 Ry     beta= 0.30
     Davidson diagonalization with overlap
     ethr =  2.44E-11,  avg # of iterations =  2.0

     total cpu time spent up to now is    82415.5 secs

     total energy              =   -1978.36804556 Ry
     estimated scf accuracy    <       0.00000003 Ry

     iteration # 12     ecut=    80.00 Ry     beta= 0.30
     Davidson diagonalization with overlap
     ethr =  2.44E-11,  avg # of iterations =  2.6

     total cpu time spent up to now is    82537.0 secs

     total energy              =   -1978.36804557 Ry
     estimated scf accuracy    <       0.00000002 Ry

     iteration # 13     ecut=    80.00 Ry     beta= 0.30
     Davidson diagonalization with overlap
     ethr =  1.70E-11,  avg # of iterations =  2.2

     total cpu time spent up to now is    82655.6 secs

     total energy              =   -1978.36804557 Ry
     estimated scf accuracy    <          9.2E-09 Ry

     iteration # 14     ecut=    80.00 Ry     beta= 0.30
     Davidson diagonalization with overlap
     ethr =  8.84E-12,  avg # of iterations =  1.5

     total cpu time spent up to now is    82761.4 secs

     total energy              =   -1978.36804557 Ry
     estimated scf accuracy    <          4.4E-09 Ry

     iteration # 15     ecut=    80.00 Ry     beta= 0.30
     Davidson diagonalization with overlap
     ethr =  4.24E-12,  avg # of iterations =  2.3

     total cpu time spent up to now is    82876.3 secs

     total energy              =   -1978.36804557 Ry
     estimated scf accuracy    <          4.9E-09 Ry

     iteration # 16     ecut=    80.00 Ry     beta= 0.30
     Davidson diagonalization with overlap
     ethr =  4.24E-12,  avg # of iterations =  3.6

     total cpu time spent up to now is    83009.6 secs

     total energy              =   -1978.36804558 Ry
     estimated scf accuracy    <          6.6E-09 Ry

     iteration # 17     ecut=    80.00 Ry     beta= 0.30
     Davidson diagonalization with overlap
     ethr =  4.24E-12,  avg # of iterations =  2.4

     total cpu time spent up to now is    83125.5 secs

     total energy              =   -1978.36804558 Ry
     estimated scf accuracy    <          1.8E-09 Ry

     iteration # 18     ecut=    80.00 Ry     beta= 0.30
     Davidson diagonalization with overlap
     ethr =  1.78E-12,  avg # of iterations =  1.9

     total cpu time spent up to now is    83234.7 secs

     total energy              =   -1978.36804558 Ry
     estimated scf accuracy    <          1.4E-09 Ry

     iteration # 19     ecut=    80.00 Ry     beta= 0.30
     Davidson diagonalization with overlap
     ethr =  1.39E-12,  avg # of iterations =  2.2

     total cpu time spent up to now is    83348.0 secs

     total energy              =   -1978.36804558 Ry
     estimated scf accuracy    <          1.1E-09 Ry

     iteration # 20     ecut=    80.00 Ry     beta= 0.30
     Davidson diagonalization with overlap
     ethr =  1.08E-12,  avg # of iterations =  1.0

     total cpu time spent up to now is    83448.4 secs

     total energy              =   -1978.36804558 Ry
     estimated scf accuracy    <          9.2E-10 Ry

     iteration # 21     ecut=    80.00 Ry     beta= 0.30
     Davidson diagonalization with overlap
     ethr =  8.87E-13,  avg # of iterations =  2.0

     total cpu time spent up to now is    83560.6 secs

     total energy              =   -1978.36804558 Ry
     estimated scf accuracy    <          7.5E-10 Ry

     iteration # 22     ecut=    80.00 Ry     beta= 0.30
     Davidson diagonalization with overlap
     ethr =  7.23E-13,  avg # of iterations =  1.0

     total cpu time spent up to now is    83661.2 secs

     total energy              =   -1978.36804558 Ry
     estimated scf accuracy    <          5.2E-10 Ry

     iteration # 23     ecut=    80.00 Ry     beta= 0.30
     Davidson diagonalization with overlap
     ethr =  5.01E-13,  avg # of iterations =  2.0

     total cpu time spent up to now is    83772.4 secs

     total energy              =   -1978.36804558 Ry
     estimated scf accuracy    <          2.6E-10 Ry

     iteration # 24     ecut=    80.00 Ry     beta= 0.30
     Davidson diagonalization with overlap
     ethr =  2.50E-13,  avg # of iterations =  2.3

     total cpu time spent up to now is    83888.3 secs

     End of self-consistent calculation

          k = 0.0000 0.0000 0.0000 ( 21311 PWs)   bands (ev):

   -53.4897 -53.4871 -53.4186 -53.4147 -27.6670 -27.6613 -27.5962 -27.5909
   -27.4313 -27.4313 -27.4250 -27.4250 -27.3600 -27.3600 -27.3560 -27.3560
    -6.9055  -6.7692  -6.7300  -6.6788  -5.6343  -5.4771  -5.4142  -5.3081
     1.2864   1.6514   1.7497   2.0370   4.7249   4.7249   4.7761   4.7775
     4.7776   4.7973   4.7973   4.8088   4.8088   5.3249   5.6166   5.8505
     5.8505   5.8976   5.8976   5.9256   5.9257   5.9381   5.9381   6.2818
     6.9873   7.3632   7.5283   7.9769  10.1151  10.1151  10.1591  10.1591
    10.2070  10.2071  10.2323  10.2323  10.3572  10.3572

          k = 0.0000 0.0722 0.0000 ( 21283 PWs)   bands (ev):

   -53.4881 -53.4855 -53.4170 -53.4131 -27.6639 -27.6582 -27.5931 -27.5878
   -27.4469 -27.4405 -27.4348 -27.4285 -27.3756 -27.3717 -27.3635 -27.3596
    -6.8458  -6.7098  -6.6704  -6.6195  -5.6067  -5.4521  -5.3897  -5.2858
     1.3545   1.7197   1.8177   2.1042   4.5899   4.6315   4.6450   4.6631
     4.6757   4.7872   4.8401   4.8599   4.8716   5.0981   5.2896   5.5605
     5.7529   5.8010   5.8292   5.8417   5.9660   6.0554   6.1464   6.4949
     6.9898   7.3419   7.4906   7.8814  10.0518  10.0710  10.1258  10.1448
    10.1940  10.1951  10.2337  10.2525  10.2766  10.2847

          k = 0.0000 0.1443 0.0000 ( 21263 PWs)   bands (ev):

   -53.4837 -53.4811 -53.4126 -53.4086 -27.6552 -27.6496 -27.5844 -27.5791
   -27.4913 -27.4847 -27.4449 -27.4386 -27.4200 -27.4160 -27.3736 -27.3697
    -6.6715  -6.5366  -6.4970  -6.4470  -5.5259  -5.3792  -5.3181  -5.2209
     1.5435   1.9083   2.0047   2.2869   4.2410   4.2889   4.3064   4.3234
     4.3397   4.6838   4.8144   4.9663   5.0203   5.0400   5.0508   5.0527
     5.5010   5.5509   5.5797   5.5921   6.0371   6.1873   6.3158   6.6409
     6.9607   7.2302   7.3404   7.5842   9.7675   9.8411   9.8981   9.9335
     9.9900  10.0071  10.0670  10.0848  10.1310  10.2049

          k = 0.0000 0.2165 0.0000 ( 21233 PWs)   bands (ev):

   -53.4770 -53.4744 -53.4059 -53.4020 -27.6421 -27.6366 -27.5712 -27.5660
   -27.5571 -27.5502 -27.4858 -27.4818 -27.4600 -27.4536 -27.3887 -27.3847
    -6.3975  -6.2652  -6.2253  -6.1774  -5.3990  -5.2652  -5.2063  -5.1201
     1.7980   2.1546   2.2446   2.5070   3.8092   3.8571   3.8821   3.9054
     3.9665   4.2285   4.3200   4.5077   5.1653   5.2249   5.2359   5.2627
     5.2691   5.2959   5.3226   5.3322   5.9603   6.1418   6.2746   6.5576
     6.8156   6.9630   7.0348   7.1357   9.3896   9.5226   9.6513   9.8443
     9.8525   9.9131   9.9650   9.9854  10.0258  10.0879

          k = 0.0000 0.2887 0.0000 ( 21197 PWs)   bands (ev):

   -53.4691 -53.4666 -53.3980 -53.3941 -27.6339 -27.6265 -27.6265 -27.6212
   -27.5627 -27.5585 -27.5557 -27.5505 -27.4777 -27.4712 -27.4064 -27.4024
    -6.0493  -5.9218  -5.8819  -5.8382  -5.2386  -5.1223  -5.0663  -4.9948
     1.9920   2.3033   2.3725   2.5581   3.4158   3.4854   3.5542   3.5883
     3.6580   3.7739   3.8453   3.9768   4.8417   4.8993   4.9271   4.9410
     5.5676   5.6252   5.6503   5.6637   5.7507   5.9511   6.0705   6.3136
     6.5378   6.6058   6.6616   6.7077   9.2539   9.4315   9.5853   9.6533
     9.7201   9.7890   9.8290   9.8614  10.1809  10.3472

          k = 0.0000 0.3608 0.0000 ( 21187 PWs)   bands (ev):

   -53.4612 -53.4587 -53.3901 -53.3862 -27.7099 -27.7021 -27.6385 -27.6344
   -27.6110 -27.6057 -27.5402 -27.5350 -27.4953 -27.4888 -27.4241 -27.4201
    -5.6653  -5.5461  -5.5067  -5.4699  -5.0636  -4.9687  -4.9161  -4.8622
     1.9603   2.1731   2.2152   2.2985   3.0429   3.2083   3.2673   3.3632
     3.4316   3.5094   3.5596   3.6724   4.5528   4.6118   4.6398   4.6538
     5.5181   5.7250   5.8254   5.8875   5.9536   5.9829   5.9997   6.0385
     6.3145   6.3749   6.4285   6.4709   9.3690   9.5474   9.5477   9.6037
     9.6679   9.6856   9.7005   9.9484  10.5124  10.6813

          k = 0.0000 0.4330 0.0000 ( 21140 PWs)   bands (ev):

   -53.4545 -53.4520 -53.3834 -53.3795 -27.7735 -27.7654 -27.7022 -27.6980
   -27.5978 -27.5926 -27.5270 -27.5218 -27.5103 -27.5036 -27.4390 -27.4350
    -5.2999  -5.1934  -5.1558  -5.1282  -4.8997  -4.8284  -4.7799  -4.7439
     1.7419   1.8827   1.9107   1.9536   2.7065   2.8621   2.8965   2.9690
     3.3080   3.4287   3.4736   3.5787   4.3314   4.3916   4.4197   4.4338
     5.3437   5.5461   5.6344   5.8238   6.1428   6.2209   6.2555   6.2791
     6.3299   6.4123   6.4604   6.5223   9.5409   9.5806   9.6277   9.6395
     9.6614   9.7756   9.8758  10.0737  10.8247  10.9740

          k = 0.0000 0.5052 0.0000 ( 21078 PWs)   bands (ev):

   -53.4500 -53.4475 -53.3789 -53.3750 -27.8157 -27.8074 -27.7444 -27.7402
   -27.5889 -27.5839 -27.5202 -27.5181 -27.5135 -27.5129 -27.4489 -27.4449
    -5.0250  -4.9342  -4.9014  -4.8798  -4.7790  -4.7291  -4.6857  -4.6613
     1.5239   1.6357   1.6551   1.6953   2.4707   2.6023   2.6338   2.6913
     3.1962   3.3259   3.3702   3.4607   4.1934   4.2543   4.2824   4.2966
     5.2479   5.4425   5.5248   5.6934   6.2980   6.3869   6.4258   6.4572
     6.5184   6.6030   6.6498   6.7097   9.5896   9.6158   9.6710   9.6848
     9.9157  10.0166  10.0774  10.1915  11.0216  11.1467

          k = 0.0000-0.5774 0.0000 ( 21006 PWs)   bands (ev):

   -53.4484 -53.4459 -53.3773 -53.3734 -27.8305 -27.8220 -27.7591 -27.7549
   -27.5858 -27.5808 -27.5237 -27.5170 -27.5150 -27.5098 -27.4524 -27.4484
    -4.9192  -4.8375  -4.8099  -4.7866  -4.7344  -4.6934  -4.6529  -4.6308
     1.4353   1.5408   1.5581   1.5994   2.3858   2.5081   2.5402   2.5933
     3.1455   3.2767   3.3203   3.4064   4.1465   4.2077   4.2357   4.2500
     5.2190   5.4094   5.4899   5.6494   6.3484   6.4417   6.4822   6.5171
     6.6366   6.7068   6.7485   6.7969   9.6181   9.6400   9.6943   9.7053
    10.0700  10.1272  10.1848  10.2231  11.0845  11.1958

          k = 0.0625 0.1083 0.0000 ( 21269 PWs)   bands (ev):

   -53.4851 -53.4825 -53.4140 -53.4101 -27.6580 -27.6524 -27.5872 -27.5819
   -27.4765 -27.4699 -27.4421 -27.4358 -27.4052 -27.4012 -27.3708 -27.3668
    -6.7287  -6.5935  -6.5539  -6.5036  -5.5524  -5.4031  -5.3416  -5.2422
     1.4835   1.8488   1.9459   2.2300   4.3508   4.3988   4.4152   4.4268
     4.4414   4.8120   4.9064   4.9576   4.9600   4.9803   4.9914   5.2158
     5.5386   5.5862   5.6152   5.6273   6.0701   6.2014   6.3199   6.6438
     6.9778   7.2767   7.3974   7.6850   9.8884   9.9215   9.9399   9.9781
    10.0139  10.0188  10.0715  10.1450  10.1594  10.1800

          k = 0.0625 0.1804 0.0000 ( 21194 PWs)   bands (ev):

   -53.4795 -53.4770 -53.4085 -53.4045 -27.6471 -27.6415 -27.5763 -27.5710
   -27.5304 -27.5235 -27.4591 -27.4559 -27.4550 -27.4495 -27.3846 -27.3806
    -6.5044  -6.3710  -6.3312  -6.2824  -5.4484  -5.3095  -5.2497  -5.1591
     1.7093   2.0716   2.1652   2.4394   3.9692   4.0202   4.0391   4.0590
     4.1144   4.4317   4.5408   4.7589   5.1189   5.1672   5.1769   5.2040
     5.2101   5.2210   5.2573   5.2641   6.1308   6.2826   6.4055   6.6807
     6.8938   7.0862   7.1690   7.3089   9.4993   9.6055   9.7025   9.8229
     9.8634   9.9262   9.9542   9.9875  10.0049  10.0609

          k = 0.0625 0.2526 0.0000 ( 21202 PWs)   bands (ev):

   -53.4723 -53.4697 -53.4012 -53.3972 -27.6328 -27.6273 -27.6000 -27.5928
   -27.5620 -27.5567 -27.5287 -27.5246 -27.4739 -27.4675 -27.4027 -27.3987
    -6.1928  -6.0630  -6.0230  -5.9773  -5.3041  -5.1804  -5.1231  -5.0454
     1.9464   2.2867   2.3675   2.5979   3.5862   3.6320   3.6719   3.6983
     3.7907   4.0060   4.0823   4.2355   4.8000   4.8480   4.8763   4.9000
     5.3932   5.4492   5.4731   5.4865   6.0351   6.1929   6.3043   6.5256
     6.6798   6.7640   6.8220   6.8681   9.2335   9.3940   9.5187   9.6760
     9.7812   9.8267   9.8785   9.8971   9.9850  10.1149

          k = 0.0625 0.3248 0.0000 ( 21194 PWs)   bands (ev):

   -53.4644 -53.4618 -53.3933 -53.3893 -27.6746 -27.6670 -27.6172 -27.6119
   -27.6033 -27.5991 -27.5464 -27.5412 -27.4934 -27.4869 -27.4221 -27.4181
    -5.8251  -5.7019  -5.6622  -5.6220  -5.1351  -5.0307  -4.9766  -4.9150
     2.0341   2.2963   2.3493   2.4746   3.2416   3.3593   3.4432   3.5118
     3.5639   3.5826   3.6661   3.7560   4.4945   4.5569   4.5866   4.6205
     5.6307   5.6927   5.7142   5.7356   5.8264   5.9782   6.0724   6.2588
     6.4438   6.4862   6.5395   6.5670   9.1950   9.3670   9.4694   9.5837
     9.7104   9.7678   9.8022   9.9374  10.2408  10.4019

          k = 0.0625 0.3969 0.0000 ( 21151 PWs)   bands (ev):

   -53.4570 -53.4546 -53.3860 -53.3820 -27.7427 -27.7347 -27.6714 -27.6672
   -27.6028 -27.5977 -27.5320 -27.5268 -27.5113 -27.5047 -27.4401 -27.4360
    -5.4472  -5.3346  -5.2959  -5.2642  -4.9632  -4.8815  -4.8311  -4.7875
     1.8917   2.0627   2.0967   2.1527   2.8714   3.0252   3.0616   3.1344
     3.3842   3.4931   3.5377   3.6476   4.2936   4.3620   4.3919   4.4238
     5.5620   5.7268   5.7821   5.8086   5.8408   5.8807   5.9000   6.0060
     6.4457   6.4842   6.5277   6.5537   9.3250   9.4633   9.5281   9.6072
     9.7511   9.8080   9.8558  10.0196  10.5826  10.7344

          k = 0.0625 0.4691 0.0000 ( 21105 PWs)   bands (ev):

   -53.4514 -53.4490 -53.3804 -53.3764 -27.7944 -27.7861 -27.7230 -27.7188
   -27.5918 -27.5867 -27.5250 -27.5210 -27.5183 -27.5158 -27.4537 -27.4497
    -5.1219  -5.0240  -4.9884  -4.9653  -4.8174  -4.7591  -4.7133  -4.6851
     1.6672   1.7908   1.8143   1.8540   2.5571   2.6854   2.7127   2.7690
     3.2695   3.4008   3.4455   3.5390   4.1833   4.2470   4.2746   4.2990
     5.3733   5.5421   5.6172   5.7628   5.9109   5.9797   6.0248   6.0595
     6.6170   6.6637   6.7025   6.7367   9.5107   9.5883   9.6288   9.6754
     9.8853   9.9555  10.0094  10.1367  10.8998  11.0279

          k = 0.0625 0.5413 0.0000 ( 21084 PWs)   bands (ev):

   -53.4484 -53.4459 -53.3773 -53.3734 -27.8221 -27.8138 -27.7508 -27.7466
   -27.5858 -27.5808 -27.5324 -27.5257 -27.5150 -27.5098 -27.4611 -27.4571
    -4.9255  -4.8420  -4.8133  -4.7906  -4.7317  -4.6899  -4.6490  -4.6266
     1.5141   1.6215   1.6392   1.6805   2.3792   2.4921   2.5205   2.5700
     3.1748   3.3108   3.3543   3.4399   4.1379   4.1947   4.2204   4.2401
     5.2694   5.4404   5.5165   5.6587   5.9969   6.0821   6.1292   6.1583
     6.7713   6.8271   6.8667   6.9050   9.6194   9.6451   9.6881   9.7090
    10.0624  10.1270  10.1784  10.2391  11.1276  11.2249

          k = 0.1250 0.2165 0.0000 ( 21179 PWs)   bands (ev):

   -53.4734 -53.4708 -53.4023 -53.3984 -27.6349 -27.6295 -27.5859 -27.5788
   -27.5641 -27.5589 -27.5146 -27.5105 -27.4748 -27.4683 -27.4035 -27.3995
    -6.2420  -6.1115  -6.0715  -6.0253  -5.3265  -5.2002  -5.1426  -5.0627
     1.9279   2.2775   2.3623   2.6084   3.6548   3.7005   3.7262   3.7539
     3.8842   4.1588   4.2453   4.4190   4.6683   4.7053   4.7392   4.7630
     5.3138   5.3692   5.3925   5.4062   6.2204   6.3546   6.4582   6.6533
     6.7457   6.8343   6.8981   6.9343   9.2213   9.3722   9.4828   9.6416
     9.7601   9.8244   9.8399   9.8709   9.9181   9.9922

          k = 0.1250 0.2887 0.0000 ( 21199 PWs)   bands (ev):

   -53.4661 -53.4635 -53.3950 -53.3911 -27.6497 -27.6422 -27.6206 -27.6153
   -27.5784 -27.5743 -27.5498 -27.5446 -27.4982 -27.4917 -27.4270 -27.4229
    -5.9092  -5.7841  -5.7442  -5.7025  -5.1720  -5.0628  -5.0079  -4.9422
     2.0802   2.3772   2.4393   2.6015   3.4067   3.4669   3.5356   3.5898
     3.6674   3.7819   3.8418   3.9073   4.2373   4.3156   4.3613   4.4605
     5.4216   5.4815   5.5086   5.5264   6.1510   6.2680   6.3507   6.4886
     6.5536   6.5699   6.6186   6.6411   9.0617   9.2394   9.3532   9.5126
     9.7615   9.8078   9.8388   9.9001   9.9951  10.1308

          k = 0.1250 0.3608 0.0000 ( 21195 PWs)   bands (ev):

   -53.4588 -53.4563 -53.3877 -53.3838 -27.7124 -27.7045 -27.6411 -27.6369
   -27.6062 -27.6010 -27.5354 -27.5302 -27.5221 -27.5154 -27.4508 -27.4468
    -5.5437  -5.4273  -5.3882  -5.3537  -5.0028  -4.9144  -4.8628  -4.8138
     2.0402   2.2475   2.2874   2.3660   3.0724   3.1907   3.2330   3.2870
     3.4790   3.5626   3.6107   3.7049   4.0429   4.1678   4.2222   4.3317
     5.3713   5.4341   5.4686   5.4881   5.9311   6.0388   6.1000   6.2131
     6.4972   6.5264   6.5781   6.5887   9.0971   9.2862   9.4033   9.5764
     9.8358   9.8764   9.9083   9.9949  10.2361  10.3859

          k = 0.1250 0.4330 0.0000 ( 21113 PWs)   bands (ev):

   -53.4526 -53.4501 -53.3815 -53.3776 -27.7648 -27.7567 -27.6935 -27.6893
   -27.5940 -27.5889 -27.5424 -27.5356 -27.5232 -27.5180 -27.4711 -27.4670
    -5.1982  -5.0949  -5.0578  -5.0323  -4.8436  -4.7783  -4.7308  -4.6983
     1.8731   2.0195   2.0495   2.0936   2.6615   2.7626   2.7758   2.8254
     3.3913   3.5263   3.5730   3.6581   4.0131   4.1356   4.1851   4.2681
     5.3161   5.4023   5.4424   5.4751   5.6600   5.7601   5.8196   5.9212
     6.6350   6.6659   6.7154   6.7285   9.3018   9.4766   9.5822   9.7393
     9.9447   9.9746  10.0160  10.0700  10.5515  10.6819

          k = 0.1250 0.5052 0.0000 ( 21081 PWs)   bands (ev):

   -53.4484 -53.4460 -53.3773 -53.3734 -27.7996 -27.7914 -27.7283 -27.7241
   -27.5858 -27.5808 -27.5559 -27.5491 -27.5150 -27.5098 -27.4846 -27.4806
    -4.9402  -4.8527  -4.8219  -4.8000  -4.7255  -4.6815  -4.6396  -4.6163
     1.7195   1.8363   1.8575   1.8977   2.3668   2.4555   2.4738   2.5169
     3.2659   3.4134   3.4575   3.5367   4.0588   4.1581   4.1964   4.2422
     5.3145   5.4272   5.4571   5.5009   5.5293   5.5541   5.6015   5.7097
     6.8214   6.8651   6.9096   6.9362   9.5145   9.6100   9.6625   9.7271
    10.0923  10.1498  10.1959  10.2713  10.8309  10.9301

          k = 0.1250 0.5774 0.0000 ( 21108 PWs)   bands (ev):

   -53.4470 -53.4445 -53.3759 -53.3720 -27.8118 -27.8035 -27.7405 -27.7363
   -27.5830 -27.5780 -27.5607 -27.5538 -27.5122 -27.5070 -27.4894 -27.4854
    -4.8411  -4.7629  -4.7386  -4.7130  -4.6818  -4.6467  -4.6074  -4.5857
     1.6595   1.7674   1.7841   1.8270   2.2618   2.3469   2.3681   2.4090
     3.2040   3.3521   3.3953   3.4744   4.1046   4.1749   4.2025   4.2367
     5.2750   5.4059   5.4412   5.4836   5.5099   5.5350   5.5641   5.6428
     6.9133   6.9662   7.0101   7.0438   9.5871   9.6125   9.6530   9.6780
    10.2067  10.2751  10.3263  10.3660  10.9419  11.0544

          k = 0.1875 0.3248 0.0000 ( 21195 PWs)   bands (ev):

   -53.4594 -53.4569 -53.3883 -53.3844 -27.6987 -27.6909 -27.6274 -27.6232
   -27.6074 -27.6022 -27.5366 -27.5314 -27.5289 -27.5222 -27.4576 -27.4536
    -5.5772  -5.4596  -5.4203  -5.3848  -5.0162  -4.9255  -4.8735  -4.8226
     2.1034   2.3287   2.3715   2.4632   3.2028   3.2775   3.3332   3.3696
     3.5197   3.5858   3.6467   3.7031   3.9049   4.0486   4.1211   4.2818
     5.1971   5.2603   5.2939   5.3152   6.0938   6.1854   6.2309   6.3228
     6.5005   6.5366   6.5897   6.5999   9.0101   9.2147   9.3463   9.5554
     9.8569   9.8888   9.9229   9.9734  10.0896  10.2314

          k = 0.1875 0.3969 0.0000 ( 21153 PWs)   bands (ev):

   -53.4532 -53.4507 -53.3821 -53.3782 -27.7409 -27.7329 -27.6696 -27.6654
   -27.5952 -27.5901 -27.5599 -27.5530 -27.5244 -27.5192 -27.4886 -27.4845
    -5.2400  -5.1338  -5.0961  -5.0690  -4.8566  -4.7874  -4.7391  -4.7037
     2.0282   2.1981   2.2329   2.2878   2.7540   2.8147   2.8226   2.8682
     3.5154   3.6385   3.7020   3.7572   3.9105   4.0368   4.1103   4.2568
     4.8818   4.9522   4.9935   5.0167   5.8638   5.9368   5.9819   6.0404
     6.6021   6.6406   6.6922   6.7101   9.1633   9.3822   9.5235   9.7923
     9.9706   9.9884  10.0367  10.0538  10.2758  10.4086

          k = 0.1875 0.4691 0.0000 ( 21101 PWs)   bands (ev):

   -53.4484 -53.4460 -53.3773 -53.3734 -27.7716 -27.7635 -27.7003 -27.6961
   -27.5859 -27.5850 -27.5808 -27.5780 -27.5151 -27.5137 -27.5099 -27.5096
    -4.9542  -4.8633  -4.8306  -4.8090  -4.7197  -4.6731  -4.6301  -4.6058
     1.9505   2.0887   2.1189   2.1580   2.3589   2.4203   2.4305   2.4693
     3.4304   3.5895   3.6339   3.6808   3.9709   4.1098   4.1710   4.2734
     4.6922   4.8016   4.8493   4.9066   5.5705   5.6423   5.7059   5.7508
     6.8067   6.8372   6.8908   6.9027   9.3751   9.5261   9.6081   9.7322
    10.1315  10.1842  10.2254  10.3062  10.4964  10.5811

          k = 0.1875 0.5413 0.0000 ( 21112 PWs)   bands (ev):

   -53.4458 -53.4434 -53.3748 -53.3708 -27.7877 -27.7795 -27.7164 -27.7122
   -27.5990 -27.5919 -27.5808 -27.5758 -27.5277 -27.5236 -27.5100 -27.5048
    -4.7834  -4.7074  -4.6859  -4.6582  -4.6382  -4.6084  -4.5698  -4.5484
     1.9144   2.0356   2.0563   2.0996   2.1465   2.2030   2.2249   2.2553
     3.2870   3.4461   3.4898   3.5557   4.0950   4.2023   4.2455   4.2985
     4.6461   4.7834   4.8332   4.8988   5.3712   5.4363   5.4979   5.5531
     6.9908   7.0307   7.0795   7.1033   9.4344   9.4840   9.5235   9.5580
    10.3257  10.4185  10.4732  10.5529  10.6263  10.6688

          k = 0.2500 0.4330 0.0000 ( 21125 PWs)   bands (ev):

   -53.4484 -53.4460 -53.3773 -53.3734 -27.7570 -27.7489 -27.6857 -27.6815
   -27.6000 -27.5929 -27.5859 -27.5808 -27.5287 -27.5246 -27.5151 -27.5099
    -4.9599  -4.8676  -4.8342  -4.8126  -4.7174  -4.6697  -4.6262  -4.6015
     2.0551   2.2073   2.2438   2.2800   2.3600   2.4073   2.4163   2.4507
     3.5985   3.6933   3.7771   3.8056   3.9819   4.0973   4.1700   4.3070
     4.3953   4.4409   4.4835   4.4968   5.6337   5.6838   5.7663   5.7737
     6.7901   6.8194   6.8748   6.8856   9.3161   9.4855   9.5784   9.7255
    10.1427  10.1906  10.2308  10.3128  10.3667  10.4549

          k = 0.2500 0.5052 0.0000 ( 21117 PWs)   bands (ev):

   -53.4452 -53.4428 -53.3742 -53.3702 -27.7618 -27.7537 -27.6905 -27.6863
   -27.6327 -27.6255 -27.5796 -27.5746 -27.5614 -27.5573 -27.5088 -27.5036
    -4.7552  -4.6795  -4.6591  -4.6304  -4.6124  -4.5856  -4.5474  -4.5259
     2.0335   2.0983   2.1134   2.1565   2.2074   2.3034   2.3331   2.3738
     3.4564   3.6142   3.6509   3.6719   4.0102   4.1083   4.1746   4.2194
     4.2262   4.2815   4.3381   4.4152   5.3653   5.4126   5.4961   5.5206
     7.0339   7.0594   7.1158   7.1242   9.2996   9.3681   9.4084   9.4564
    10.3066  10.3537  10.4256  10.4432  10.5730  10.6074

          k = 0.2500 0.5774 0.0000 ( 21116 PWs)   bands (ev):

   -53.4441 -53.4417 -53.3730 -53.3691 -27.7617 -27.7535 -27.6904 -27.6862
   -27.6460 -27.6388 -27.5774 -27.5747 -27.5725 -27.5706 -27.5066 -27.5014
    -4.6763  -4.6113  -4.6011  -4.5787  -4.5605  -4.5555  -4.5158  -4.4979
     1.9407   2.0029   2.0098   2.0530   2.2892   2.3721   2.3864   2.4319
     3.3060   3.4533   3.4950   3.5399   3.9571   4.1238   4.1663   4.2090
     4.3005   4.3475   4.3976   4.4400   5.2543   5.2780   5.3638   5.3853
     7.1609   7.1906   7.2445   7.2602   9.2246   9.2519   9.2947   9.3088
    10.3347  10.3986  10.4272  10.4903  10.7335  10.7613

          k = 0.3125 0.5413 0.0000 ( 21100 PWs)   bands (ev):

   -53.4435 -53.4411 -53.3724 -53.3685 -27.7407 -27.7325 -27.6745 -27.6694
   -27.6672 -27.6652 -27.6032 -27.5991 -27.5762 -27.5713 -27.5054 -27.5003
    -4.6376  -4.5783  -4.5721  -4.5581  -4.5360  -4.5269  -4.4939  -4.4794
     1.8749   1.9370   1.9385   1.9808   2.5034   2.6102   2.6338   2.6731
     3.3119   3.3514   3.3958   3.4422   3.7996   3.8608   3.8648   3.9072
     4.3432   4.4086   4.4622   4.4971   5.1620   5.1979   5.2884   5.3205
     7.2461   7.2678   7.3276   7.3328   9.1048   9.1349   9.1757   9.1897
    10.2824  10.3056  10.3365  10.4100  10.8339  10.8739

     the Fermi energy is     8.4117 ev

!    total energy              =   -1978.36804557 Ry
     total all-electron energy =    -38771.688890 Ry
     estimated scf accuracy    <          1.0E-10 Ry
     smearing contrib. (-TS)   =       0.00006319 Ry
     internal energy E=F+TS    =   -1978.36810876 Ry

     The total energy is F=E-TS. E is the sum of the following terms:
     one-electron contribution =   -1472.14867851 Ry
     hartree contribution      =     778.32005848 Ry
     xc contribution           =    -119.28119880 Ry
     ewald contribution        =     104.59803766 Ry
     one-center paw contrib.   =   -1269.85632759 Ry

     convergence has been achieved in  24 iterations

     Forces acting on atoms (cartesian axes, Ry/au):

     atom    1 type  2   force =     0.00000000    0.00000000   -0.00567346
     atom    2 type  1   force =     0.00000000    0.00000000    0.00063718
     atom    3 type  2   force =     0.00000000    0.00000000    0.00849733
     atom    4 type  2   force =     0.00000000    0.00000000   -0.00681767
     atom    5 type  1   force =     0.00000000    0.00000000   -0.00465250
     atom    6 type  2   force =     0.00000000    0.00000000    0.00487898
     atom    7 type  2   force =     0.00000000    0.00000000   -0.00414673
     atom    8 type  1   force =     0.00000000    0.00000000    0.00256994
     atom    9 type  2   force =     0.00000000    0.00000000    0.00825250
     atom   10 type  2   force =     0.00000000    0.00000000   -0.00321787
     atom   11 type  1   force =     0.00000000    0.00000000   -0.00157762
     atom   12 type  2   force =     0.00000000    0.00000000    0.00124992

     Total force =     0.017408     Total SCF correction =     0.000047
     Energy error            =      2.8E-04 Ry
     Gradient error          =      8.5E-03 Ry/Bohr

     number of scf cycles    =  24
     number of bfgs steps    =  23

     energy             old  =   -1978.3677623412 Ry
     energy             new  =   -1978.3680455706 Ry

     CASE: energy            _new < energy            _old

     new trust radius        =       0.0661061435 bohr
     new conv_thr            =       0.0000000003 Ry


ATOMIC_POSITIONS (crystal)
S                0.3333330000        0.6666670000       -0.1134244417
Mo              -0.0000000000       -0.0000000000       -0.0613608086
S                0.3333330000        0.6666670000       -0.0092687541
S                0.6666670000        0.3333330000        0.1067008612
Mo               0.3333330000        0.6666670000        0.1589887039
S                0.6666670000        0.3333330000        0.2109813176
S               -0.0000000000       -0.0000000000        0.3070784095
Mo               0.6666670000        0.3333330000        0.3591874514
S               -0.0000000000       -0.0000000000        0.4113428073
S                0.3333330000        0.6666670000        0.5292159219
Mo               0.0000000000        0.0000000000        0.5816265636
S                0.3333330000        0.6666670000        0.6339319679



     Writing config-only to output data dir ./tmp/relax/mos2_slab.save/ :
     XML data file
     NEW-OLD atomic charge density approx. for the potential

     total cpu time spent up to now is    83943.5 secs

     Self-consistent Calculation

     iteration #  1     ecut=    80.00 Ry     beta= 0.30
     Davidson diagonalization with overlap
     ethr =  1.00E-06,  avg # of iterations =  7.2

     total cpu time spent up to now is    84252.1 secs

     total energy              =   -1978.36861964 Ry
     estimated scf accuracy    <       0.00121604 Ry

     iteration #  2     ecut=    80.00 Ry     beta= 0.30
     Davidson diagonalization with overlap
     ethr =  1.17E-06,  avg # of iterations =  1.0

     total cpu time spent up to now is    84352.6 secs

     total energy              =   -1978.36839744 Ry
     estimated scf accuracy    <       0.00075480 Ry

     iteration #  3     ecut=    80.00 Ry     beta= 0.30
     Davidson diagonalization with overlap
     ethr =  7.26E-07,  avg # of iterations =  3.1

     total cpu time spent up to now is    84472.7 secs

     total energy              =   -1978.36847097 Ry
     estimated scf accuracy    <       0.00002935 Ry

     iteration #  4     ecut=    80.00 Ry     beta= 0.30
     Davidson diagonalization with overlap
     ethr =  2.82E-08,  avg # of iterations =  3.3

     total cpu time spent up to now is    84598.7 secs

     total energy              =   -1978.36847538 Ry
     estimated scf accuracy    <       0.00001050 Ry

     iteration #  5     ecut=    80.00 Ry     beta= 0.30
     Davidson diagonalization with overlap
     ethr =  1.01E-08,  avg # of iterations =  2.3

     total cpu time spent up to now is    84717.6 secs

     total energy              =   -1978.36847595 Ry
     estimated scf accuracy    <       0.00000371 Ry

     iteration #  6     ecut=    80.00 Ry     beta= 0.30
     Davidson diagonalization with overlap
     ethr =  3.56E-09,  avg # of iterations =  2.6

     total cpu time spent up to now is    84828.9 secs

     total energy              =   -1978.36847606 Ry
     estimated scf accuracy    <       0.00000088 Ry

     iteration #  7     ecut=    80.00 Ry     beta= 0.30
     Davidson diagonalization with overlap
     ethr =  8.46E-10,  avg # of iterations =  4.4

     total cpu time spent up to now is    84951.8 secs

     total energy              =   -1978.36847621 Ry
     estimated scf accuracy    <       0.00000015 Ry

     iteration #  8     ecut=    80.00 Ry     beta= 0.30
     Davidson diagonalization with overlap
     ethr =  1.47E-10,  avg # of iterations =  3.8

     total cpu time spent up to now is    85082.4 secs

     total energy              =   -1978.36847624 Ry
     estimated scf accuracy    <       0.00000023 Ry

     iteration #  9     ecut=    80.00 Ry     beta= 0.30
     Davidson diagonalization with overlap
     ethr =  1.47E-10,  avg # of iterations =  1.8

     total cpu time spent up to now is    85191.8 secs

     total energy              =   -1978.36847624 Ry
     estimated scf accuracy    <       0.00000011 Ry

     iteration # 10     ecut=    80.00 Ry     beta= 0.30
     Davidson diagonalization with overlap
     ethr =  1.02E-10,  avg # of iterations =  1.5

     total cpu time spent up to now is    85297.0 secs

     total energy              =   -1978.36847623 Ry
     estimated scf accuracy    <       0.00000006 Ry

     iteration # 11     ecut=    80.00 Ry     beta= 0.30
     Davidson diagonalization with overlap
     ethr =  5.66E-11,  avg # of iterations =  1.7

     total cpu time spent up to now is    85404.4 secs

     total energy              =   -1978.36847621 Ry
     estimated scf accuracy    <       0.00000005 Ry

     iteration # 12     ecut=    80.00 Ry     beta= 0.30
     Davidson diagonalization with overlap
     ethr =  4.75E-11,  avg # of iterations =  2.9

     total cpu time spent up to now is    85522.3 secs

     total energy              =   -1978.36847623 Ry
     estimated scf accuracy    <       0.00000003 Ry

     iteration # 13     ecut=    80.00 Ry     beta= 0.30
     Davidson diagonalization with overlap
     ethr =  2.71E-11,  avg # of iterations =  2.0

     total cpu time spent up to now is    85633.5 secs

     total energy              =   -1978.36847624 Ry
     estimated scf accuracy    <       0.00000002 Ry

     iteration # 14     ecut=    80.00 Ry     beta= 0.30
     Davidson diagonalization with overlap
     ethr =  1.72E-11,  avg # of iterations =  2.1

     total cpu time spent up to now is    85748.2 secs

     total energy              =   -1978.36847625 Ry
     estimated scf accuracy    <       0.00000001 Ry

     iteration # 15     ecut=    80.00 Ry     beta= 0.30
     Davidson diagonalization with overlap
     ethr =  1.03E-11,  avg # of iterations =  2.0

     total cpu time spent up to now is    85859.4 secs

     total energy              =   -1978.36847624 Ry
     estimated scf accuracy    <          8.7E-09 Ry

     iteration # 16     ecut=    80.00 Ry     beta= 0.30
     Davidson diagonalization with overlap
     ethr =  8.33E-12,  avg # of iterations =  2.2

     total cpu time spent up to now is    85980.1 secs

     total energy              =   -1978.36847623 Ry
     estimated scf accuracy    <          5.3E-09 Ry

     iteration # 17     ecut=    80.00 Ry     beta= 0.30
     Davidson diagonalization with overlap
     ethr =  5.11E-12,  avg # of iterations =  1.0

     total cpu time spent up to now is    86080.6 secs

     total energy              =   -1978.36847624 Ry
     estimated scf accuracy    <          4.1E-09 Ry

     iteration # 18     ecut=    80.00 Ry     beta= 0.30
     Davidson diagonalization with overlap
     ethr =  3.98E-12,  avg # of iterations =  2.2

     total cpu time spent up to now is    86195.8 secs

     total energy              =   -1978.36847625 Ry
     estimated scf accuracy    <          3.1E-09 Ry

     iteration # 19     ecut=    80.00 Ry     beta= 0.30
     Davidson diagonalization with overlap
     ethr =  3.02E-12,  avg # of iterations =  1.2

     total cpu time spent up to now is    86298.8 secs

     total energy              =   -1978.36847625 Ry
     estimated scf accuracy    <          2.5E-09 Ry

     iteration # 20     ecut=    80.00 Ry     beta= 0.30
     Davidson diagonalization with overlap
     ethr =  2.43E-12,  avg # of iterations =  1.0

     total cpu time spent up to now is    86399.1 secs

     total energy              =   -1978.36847624 Ry
     estimated scf accuracy    <          1.9E-09 Ry

     iteration # 21     ecut=    80.00 Ry     beta= 0.30
     Davidson diagonalization with overlap
     ethr =  1.85E-12,  avg # of iterations =  2.0

     total cpu time spent up to now is    86511.5 secs

     total energy              =   -1978.36847624 Ry
     estimated scf accuracy    <          1.5E-09 Ry

     iteration # 22     ecut=    80.00 Ry     beta= 0.30
     Davidson diagonalization with overlap
     ethr =  1.39E-12,  avg # of iterations =  1.5

     total cpu time spent up to now is    86617.4 secs

     total energy              =   -1978.36847624 Ry
     estimated scf accuracy    <          8.3E-10 Ry

     iteration # 23     ecut=    80.00 Ry     beta= 0.30
     Davidson diagonalization with overlap
     ethr =  7.95E-13,  avg # of iterations =  2.1

     total cpu time spent up to now is    86739.2 secs

     End of self-consistent calculation

          k = 0.0000 0.0000 0.0000 ( 21311 PWs)   bands (ev):

   -53.4883 -53.4874 -53.4191 -53.4145 -27.6658 -27.6618 -27.5968 -27.5914
   -27.4301 -27.4301 -27.4255 -27.4255 -27.3607 -27.3607 -27.3570 -27.3570
    -6.9048  -6.7724  -6.7379  -6.6815  -5.6332  -5.4781  -5.4152  -5.3082
     1.2851   1.6414   1.7467   2.0368   4.7230   4.7230   4.7728   4.7741
     4.7741   4.7928   4.7928   4.7955   4.7955   5.3169   5.6275   5.8494
     5.8494   5.8947   5.8948   5.9218   5.9219   5.9281   5.9281   6.2902
     6.9881   7.3723   7.5449   7.9767  10.1172  10.1173  10.1586  10.1587
    10.2070  10.2070  10.2328  10.2328  10.3581  10.3581

          k = 0.0000 0.0722 0.0000 ( 21283 PWs)   bands (ev):

   -53.4867 -53.4858 -53.4175 -53.4129 -27.6627 -27.6587 -27.5938 -27.5884
   -27.4458 -27.4411 -27.4337 -27.4291 -27.3764 -27.3726 -27.3643 -27.3605
    -6.8451  -6.7129  -6.6783  -6.6222  -5.6056  -5.4531  -5.3908  -5.2859
     1.3532   1.7096   1.8146   2.1040   4.5881   4.6278   4.6416   4.6587
     4.6628   4.7853   4.8366   4.8553   4.8585   5.0909   5.2939   5.5600
     5.7518   5.7982   5.8251   5.8321   5.9638   6.0499   6.1455   6.5004
     6.9906   7.3507   7.5058   7.8815  10.0536  10.0708  10.1262  10.1456
    10.1965  10.1981  10.2360  10.2515  10.2780  10.2904

          k = 0.0000 0.1443 0.0000 ( 21263 PWs)   bands (ev):

   -53.4823 -53.4814 -53.4131 -53.4084 -27.6539 -27.6501 -27.5850 -27.5796
   -27.4902 -27.4853 -27.4438 -27.4391 -27.4208 -27.4170 -27.3744 -27.3706
    -6.6707  -6.5397  -6.5048  -6.4497  -5.5249  -5.3801  -5.3196  -5.2212
     1.5423   1.8979   2.0011   2.2866   4.2394   4.2851   4.3028   4.3153
     4.3321   4.6778   4.8163   4.9646   5.0168   5.0352   5.0400   5.0502
     5.4999   5.5481   5.5747   5.5834   6.0353   6.1822   6.3173   6.6457
     6.9614   7.2373   7.3515   7.5851   9.7697   9.8439   9.9014   9.9356
     9.9918  10.0107  10.0704  10.0884  10.1317  10.2070

          k = 0.0000 0.2165 0.0000 ( 21233 PWs)   bands (ev):

   -53.4756 -53.4747 -53.4064 -53.4017 -27.6408 -27.6371 -27.5719 -27.5665
   -27.5561 -27.5508 -27.4866 -27.4829 -27.4589 -27.4541 -27.3894 -27.3857
    -6.3966  -6.2682  -6.2329  -6.1801  -5.3983  -5.2662  -5.2083  -5.1205
     1.7972   2.1438   2.2399   2.5062   3.8079   3.8537   3.8796   3.8952
     3.9618   4.2244   4.3203   4.5066   5.1644   5.2218   5.2334   5.2544
     5.2633   5.2928   5.3134   5.3258   5.9589   6.1379   6.2779   6.5621
     6.8161   6.9670   7.0405   7.1373   9.3913   9.5252   9.6584   9.8472
     9.8569   9.9138   9.9662   9.9873  10.0283  10.0928

          k = 0.0000 0.2887 0.0000 ( 21197 PWs)   bands (ev):

   -53.4677 -53.4669 -53.3985 -53.3938 -27.6329 -27.6272 -27.6253 -27.6217
   -27.5635 -27.5598 -27.5563 -27.5509 -27.4766 -27.4718 -27.4072 -27.4034
    -6.0484  -5.9248  -5.8894  -5.8409  -5.2383  -5.1233  -5.0691  -4.9955
     1.9915   2.2930   2.3658   2.5561   3.4153   3.4815   3.5475   3.5851
     3.6527   3.7741   3.8449   3.9748   4.8407   4.8964   4.9214   4.9325
     5.5662   5.6221   5.6432   5.6553   5.7499   5.9484   6.0749   6.3175
     6.5382   6.6075   6.6634   6.7087   9.2547   9.4330   9.5934   9.6557
     9.7205   9.7901   9.8308   9.8670  10.1823  10.3514

          k = 0.0000 0.3608 0.0000 ( 21187 PWs)   bands (ev):

   -53.4598 -53.4590 -53.3906 -53.3859 -27.7088 -27.7027 -27.6394 -27.6358
   -27.6097 -27.6062 -27.5408 -27.5354 -27.4942 -27.4894 -27.4248 -27.4211
    -5.6644  -5.5490  -5.5140  -5.4729  -5.0636  -4.9697  -4.9197  -4.8631
     1.9599   2.1657   2.2073   2.2954   3.0432   3.2024   3.2622   3.3621
     3.4290   3.5098   3.5575   3.6702   4.5517   4.6089   4.6337   4.6458
     5.5177   5.7229   5.8298   5.8864   5.9508   5.9750   5.9935   6.0418
     6.3148   6.3758   6.4286   6.4708   9.3693   9.5479   9.5495   9.6038
     9.6677   9.6928   9.7016   9.9535  10.5138  10.6846

          k = 0.0000 0.4330 0.0000 ( 21140 PWs)   bands (ev):

   -53.4531 -53.4523 -53.3839 -53.3792 -27.7725 -27.7661 -27.7031 -27.6995
   -27.5965 -27.5931 -27.5276 -27.5221 -27.5091 -27.5042 -27.4397 -27.4360
    -5.2990  -5.1962  -5.1623  -5.1320  -4.9001  -4.8296  -4.7842  -4.7453
     1.7418   1.8782   1.9048   1.9489   2.7073   2.8583   2.8929   2.9677
     3.3072   3.4264   3.4692   3.5769   4.3304   4.3887   4.4133   4.4260
     5.3436   5.5443   5.6382   5.8268   6.1422   6.2184   6.2474   6.2748
     6.3295   6.4125   6.4598   6.5223   9.5420   9.5804   9.6278   9.6381
     9.6615   9.7753   9.8806  10.0773  10.8259  10.9766

          k = 0.0000 0.5052 0.0000 ( 21078 PWs)   bands (ev):

   -53.4486 -53.4478 -53.3794 -53.3747 -27.8147 -27.8080 -27.7453 -27.7417
   -27.5876 -27.5843 -27.5191 -27.5187 -27.5141 -27.5133 -27.4497 -27.4459
    -5.0243  -4.9369  -4.9060  -4.8856  -4.7796  -4.7304  -4.6898  -4.6636
     1.5242   1.6325   1.6518   1.6895   2.4721   2.5997   2.6304   2.6899
     3.1957   3.3232   3.3646   3.4585   4.1923   4.2514   4.2758   4.2889
     5.2482   5.4411   5.5283   5.6960   6.2978   6.3846   6.4182   6.4540
     6.5178   6.6026   6.6491   6.7100   9.5903   9.6152   9.6691   9.6835
     9.9159  10.0162  10.0790  10.1932  11.0224  11.1484

          k = 0.0000-0.5774 0.0000 ( 21006 PWs)   bands (ev):

   -53.4470 -53.4462 -53.3778 -53.3731 -27.8295 -27.8227 -27.7600 -27.7565
   -27.5845 -27.5812 -27.5226 -27.5176 -27.5156 -27.5101 -27.4531 -27.4494
    -4.9186  -4.8402  -4.8129  -4.7939  -4.7351  -4.6948  -4.6564  -4.6339
     1.4359   1.5380   1.5553   1.5936   2.3875   2.5058   2.5369   2.5919
     3.1448   3.2738   3.3142   3.4040   4.1455   4.2048   4.2291   4.2423
     5.2193   5.4082   5.4932   5.6519   6.3485   6.4395   6.4749   6.5142
     6.6361   6.7064   6.7477   6.7972   9.6188   9.6391   9.6924   9.7032
    10.0708  10.1274  10.1844  10.2233  11.0851  11.1969

          k = 0.0625 0.1083 0.0000 ( 21269 PWs)   bands (ev):

   -53.4837 -53.4828 -53.4145 -53.4099 -27.6568 -27.6529 -27.5878 -27.5825
   -27.4754 -27.4705 -27.4410 -27.4363 -27.4060 -27.4022 -27.3716 -27.3678
    -6.7280  -6.5966  -6.5618  -6.5063  -5.5514  -5.4041  -5.3429  -5.2424
     1.4823   1.8384   1.9425   2.2298   4.3491   4.3950   4.4113   4.4220
     4.4304   4.8056   4.9046   4.9557   4.9604   4.9763   4.9786   5.2154
     5.5376   5.5833   5.6118   5.6172   6.0681   6.1961   6.3205   6.6485
     6.9786   7.2847   7.4099   7.6856   9.8906   9.9238   9.9405   9.9797
    10.0159  10.0214  10.0756  10.1482  10.1618  10.1816

          k = 0.0625 0.1804 0.0000 ( 21194 PWs)   bands (ev):

   -53.4781 -53.4773 -53.4089 -53.4043 -27.6458 -27.6420 -27.5769 -27.5715
   -27.5293 -27.5241 -27.4598 -27.4561 -27.4548 -27.4501 -27.3854 -27.3816
    -6.5036  -6.3740  -6.3389  -6.2851  -5.4476  -5.3104  -5.2515  -5.1595
     1.7083   2.0609   2.1610   2.4389   3.9678   4.0166   4.0361   4.0479
     4.1101   4.4266   4.5419   4.7580   5.1175   5.1650   5.1734   5.1966
     5.2006   5.2184   5.2513   5.2579   6.1292   6.2782   6.4072   6.6847
     6.8945   7.0918   7.1766   7.3103   9.5014   9.6082   9.7083   9.8254
     9.8656   9.9274   9.9576   9.9893  10.0080  10.0634

          k = 0.0625 0.2526 0.0000 ( 21202 PWs)   bands (ev):

   -53.4708 -53.4700 -53.4016 -53.3970 -27.6315 -27.6278 -27.5990 -27.5934
   -27.5626 -27.5572 -27.5295 -27.5259 -27.4728 -27.4680 -27.4034 -27.3997
    -6.1919  -6.0659  -6.0306  -5.9800  -5.3037  -5.1814  -5.1256  -5.0459
     1.9458   2.2758   2.3616   2.5965   3.5852   3.6291   3.6683   3.6905
     3.7863   4.0036   4.0818   4.2338   4.7989   4.8456   4.8701   4.8938
     5.3917   5.4461   5.4673   5.4767   6.0340   6.1898   6.3070   6.5292
     6.6802   6.7665   6.8249   6.8696   9.2347   9.3959   9.5254   9.6795
     9.7826   9.8282   9.8797   9.9007   9.9868  10.1206

          k = 0.0625 0.3248 0.0000 ( 21194 PWs)   bands (ev):

   -53.4629 -53.4621 -53.3937 -53.3891 -27.6735 -27.6676 -27.6160 -27.6124
   -27.6041 -27.6005 -27.5470 -27.5416 -27.4923 -27.4874 -27.4229 -27.4192
    -5.8242  -5.7048  -5.6695  -5.6248  -5.1349  -5.0318  -4.9799  -4.9158
     2.0337   2.2872   2.3415   2.4720   3.2417   3.3542   3.4353   3.5101
     3.5579   3.5854   3.6669   3.7530   4.4932   4.5545   4.5795   4.6160
     5.6297   5.6900   5.7100   5.7269   5.8255   5.9762   6.0757   6.2619
     6.4442   6.4866   6.5392   6.5668   9.1956   9.3679   9.4743   9.5869
     9.7107   9.7690   9.8045   9.9422  10.2421  10.4059

          k = 0.0625 0.3969 0.0000 ( 21151 PWs)   bands (ev):

   -53.4556 -53.4549 -53.3864 -53.3818 -27.7417 -27.7354 -27.6722 -27.6687
   -27.6016 -27.5981 -27.5326 -27.5272 -27.5102 -27.5053 -27.4408 -27.4371
    -5.4463  -5.3374  -5.3029  -5.2674  -4.9634  -4.8826  -4.8351  -4.7886
     1.8913   2.0570   2.0894   2.1490   2.8718   3.0206   3.0581   3.1323
     3.3829   3.4909   3.5339   3.6461   4.2923   4.3595   4.3849   4.4191
     5.5618   5.7249   5.7822   5.8097   5.8389   5.8759   5.8980   6.0080
     6.4455   6.4836   6.5251   6.5518   9.3254   9.4633   9.5304   9.6091
     9.7509   9.8084   9.8581  10.0234  10.5838  10.7372

          k = 0.0625 0.4691 0.0000 ( 21105 PWs)   bands (ev):

   -53.4500 -53.4493 -53.3808 -53.3762 -27.7934 -27.7868 -27.7239 -27.7204
   -27.5905 -27.5872 -27.5239 -27.5216 -27.5189 -27.5161 -27.4545 -27.4508
    -5.1211  -5.0268  -4.9941  -4.9700  -4.8180  -4.7603  -4.7176  -4.6869
     1.6673   1.7872   1.8099   1.8486   2.5580   2.6826   2.7091   2.7666
     3.2689   3.3978   3.4403   3.5371   4.1823   4.2444   4.2687   4.2926
     5.3735   5.5409   5.6200   5.7652   5.9113   5.9778   6.0194   6.0573
     6.6164   6.6629   6.6995   6.7349   9.5110   9.5882   9.6286   9.6757
     9.8852   9.9553  10.0108  10.1388  10.9010  11.0297

          k = 0.0625 0.5413 0.0000 ( 21084 PWs)   bands (ev):

   -53.4470 -53.4463 -53.3778 -53.3731 -27.8212 -27.8144 -27.7517 -27.7482
   -27.5845 -27.5812 -27.5313 -27.5263 -27.5156 -27.5102 -27.4619 -27.4582
    -4.9249  -4.8447  -4.8166  -4.7976  -4.7324  -4.6913  -4.6526  -4.6296
     1.5147   1.6186   1.6364   1.6747   2.3804   2.4897   2.5172   2.5676
     3.1742   3.3077   3.3483   3.4377   4.1373   4.1919   4.2169   4.2309
     5.2698   5.4395   5.5195   5.6610   5.9976   6.0803   6.1237   6.1562
     6.7708   6.8263   6.8640   6.9036   9.6197   9.6446   9.6871   9.7072
    10.0627  10.1271  10.1780  10.2397  11.1288  11.2258

          k = 0.1250 0.2165 0.0000 ( 21179 PWs)   bands (ev):

   -53.4720 -53.4711 -53.4028 -53.3981 -27.6337 -27.6300 -27.5848 -27.5794
   -27.5648 -27.5594 -27.5154 -27.5117 -27.4737 -27.4689 -27.4043 -27.4005
    -6.2411  -6.1145  -6.0791  -6.0279  -5.3260  -5.2012  -5.1449  -5.0632
     1.9273   2.2665   2.3568   2.6072   3.6536   3.6974   3.7234   3.7444
     3.8802   4.1553   4.2455   4.4173   4.6673   4.7030   4.7325   4.7582
     5.3124   5.3661   5.3877   5.3955   6.2193   6.3514   6.4597   6.6560
     6.7463   6.8375   6.9018   6.9359   9.2228   9.3740   9.4890   9.6450
     9.7620   9.8241   9.8409   9.8723   9.9209   9.9994

          k = 0.1250 0.2887 0.0000 ( 21199 PWs)   bands (ev):

   -53.4647 -53.4638 -53.3955 -53.3908 -27.6486 -27.6428 -27.6194 -27.6158
   -27.5792 -27.5756 -27.5504 -27.5450 -27.4971 -27.4922 -27.4277 -27.4240
    -5.9083  -5.7870  -5.7516  -5.7052  -5.1718  -5.0639  -5.0110  -4.9430
     2.0798   2.3671   2.4319   2.5991   3.4067   3.4629   3.5284   3.5874
     3.6628   3.7819   3.8392   3.9048   4.2354   4.3130   4.3564   4.4586
     5.4209   5.4788   5.5042   5.5181   6.1504   6.2661   6.3527   6.4911
     6.5547   6.5700   6.6188   6.6405   9.0625   9.2404   9.3592   9.5156
     9.7623   9.8084   9.8401   9.9023   9.9972  10.1375

          k = 0.1250 0.3608 0.0000 ( 21195 PWs)   bands (ev):

   -53.4574 -53.4566 -53.3881 -53.3835 -27.7113 -27.7052 -27.6419 -27.6383
   -27.6050 -27.6015 -27.5360 -27.5306 -27.5210 -27.5160 -27.4515 -27.4478
    -5.5428  -5.4302  -5.3953  -5.3567  -5.0029  -4.9155  -4.8666  -4.8149
     2.0399   2.2405   2.2793   2.3628   3.0722   3.1866   3.2298   3.2819
     3.4768   3.5596   3.6070   3.7041   4.0403   4.1656   4.2190   4.3299
     5.3712   5.4320   5.4648   5.4825   5.9312   6.0380   6.1020   6.2158
     6.4978   6.5250   6.5758   6.5855   9.0974   9.2861   9.4091   9.5791
     9.8359   9.8768   9.9085   9.9981  10.2371  10.3899

          k = 0.1250 0.4330 0.0000 ( 21113 PWs)   bands (ev):

   -53.4511 -53.4504 -53.3819 -53.3773 -27.7638 -27.7574 -27.6944 -27.6908
   -27.5927 -27.5894 -27.5413 -27.5362 -27.5238 -27.5184 -27.4718 -27.4681
    -5.1974  -5.0977  -5.0641  -5.0363  -4.8441  -4.7794  -4.7351  -4.6998
     1.8730   2.0151   2.0431   2.0893   2.6614   2.7598   2.7729   2.8201
     3.3910   3.5224   3.5681   3.6567   4.0109   4.1332   4.1810   4.2665
     5.3164   5.4003   5.4375   5.4726   5.6601   5.7599   5.8215   5.9234
     6.6352   6.6645   6.7124   6.7251   9.3018   9.4758   9.5867   9.7416
     9.9446   9.9749  10.0147  10.0712  10.5527  10.6841

          k = 0.1250 0.5052 0.0000 ( 21081 PWs)   bands (ev):

   -53.4470 -53.4463 -53.3778 -53.3731 -27.7986 -27.7920 -27.7292 -27.7256
   -27.5846 -27.5813 -27.5548 -27.5497 -27.5156 -27.5102 -27.4854 -27.4817
    -4.9395  -4.8554  -4.8256  -4.8065  -4.7263  -4.6828  -4.6434  -4.6189
     1.7201   1.8331   1.8540   1.8922   2.3671   2.4531   2.4706   2.5118
     3.2656   3.4098   3.4518   3.5347   4.0575   4.1558   4.1914   4.2397
     5.3155   5.4272   5.4558   5.4957   5.5281   5.5532   5.6039   5.7115
     6.8211   6.8641   6.9061   6.9338   9.5143   9.6094   9.6626   9.7276
    10.0923  10.1496  10.1952  10.2723  10.8334  10.9310

          k = 0.1250 0.5774 0.0000 ( 21108 PWs)   bands (ev):

   -53.4455 -53.4448 -53.3763 -53.3717 -27.8108 -27.8041 -27.7414 -27.7378
   -27.5817 -27.5784 -27.5596 -27.5544 -27.5128 -27.5073 -27.4902 -27.4865
    -4.8405  -4.7656  -4.7410  -4.7207  -4.6827  -4.6481  -4.6107  -4.5892
     1.6604   1.7646   1.7815   1.8214   2.2622   2.3445   2.3649   2.4041
     3.2035   3.3485   3.3892   3.4722   4.1042   4.1726   4.1989   4.2318
     5.2763   5.4064   5.4404   5.4822   5.5115   5.5301   5.5645   5.6433
     6.9130   6.9653   7.0067   7.0419   9.5872   9.6120   9.6517   9.6763
    10.2069  10.2752  10.3259  10.3666  10.9456  11.0545

          k = 0.1875 0.3248 0.0000 ( 21195 PWs)   bands (ev):

   -53.4580 -53.4572 -53.3888 -53.3841 -27.6977 -27.6916 -27.6282 -27.6246
   -27.6062 -27.6027 -27.5372 -27.5318 -27.5278 -27.5227 -27.4584 -27.4546
    -5.5763  -5.4625  -5.4274  -5.3878  -5.0163  -4.9265  -4.8772  -4.8236
     2.1030   2.3210   2.3632   2.4601   3.2023   3.2749   3.3304   3.3611
     3.5171   3.5827   3.6417   3.7025   3.9017   4.0479   4.1211   4.2800
     5.1971   5.2582   5.2903   5.3096   6.0942   6.1847   6.2325   6.3254
     6.5010   6.5353   6.5863   6.5973   9.0103   9.2146   9.3528   9.5586
     9.8571   9.8889   9.9231   9.9751  10.0908  10.2367

          k = 0.1875 0.3969 0.0000 ( 21153 PWs)   bands (ev):

   -53.4518 -53.4510 -53.3825 -53.3779 -27.7399 -27.7336 -27.6705 -27.6669
   -27.5940 -27.5906 -27.5588 -27.5536 -27.5250 -27.5196 -27.4894 -27.4857
    -5.2391  -5.1366  -5.1026  -5.0727  -4.8570  -4.7885  -4.7433  -4.7051
     2.0281   2.1929   2.2251   2.2843   2.7532   2.8127   2.8199   2.8596
     3.5168   3.6337   3.6954   3.7559   3.9073   4.0367   4.1107   4.2552
     4.8819   4.9504   4.9890   5.0134   5.8655   5.9368   5.9823   6.0423
     6.6023   6.6392   6.6879   6.7076   9.1633   9.3808   9.5301   9.7970
     9.9715   9.9876  10.0359  10.0517  10.2766  10.4120

          k = 0.1875 0.4691 0.0000 ( 21101 PWs)   bands (ev):

   -53.4470 -53.4463 -53.3778 -53.3732 -27.7706 -27.7641 -27.7012 -27.6976
   -27.5846 -27.5839 -27.5813 -27.5786 -27.5157 -27.5144 -27.5108 -27.5102
    -4.9535  -4.8660  -4.8349  -4.8149  -4.7205  -4.6744  -4.6342  -4.6082
     1.9511   2.0850   2.1134   2.1537   2.3584   2.4177   2.4281   2.4613
     3.4309   3.5858   3.6286   3.6789   3.9686   4.1080   4.1694   4.2729
     4.6927   4.7994   4.8439   4.9053   5.5719   5.6426   5.7068   5.7523
     6.8070   6.8358   6.8870   6.8998   9.3750   9.5246   9.6101   9.7336
    10.1316  10.1836  10.2238  10.3073  10.4983  10.5838

          k = 0.1875 0.5413 0.0000 ( 21112 PWs)   bands (ev):

   -53.4444 -53.4437 -53.3752 -53.3706 -27.7867 -27.7802 -27.7173 -27.7137
   -27.5979 -27.5925 -27.5795 -27.5763 -27.5285 -27.5248 -27.5106 -27.5051
    -4.7828  -4.7101  -4.6880  -4.6659  -4.6395  -4.6099  -4.5729  -4.5521
     1.9159   2.0323   2.0534   2.0941   2.1462   2.2004   2.2215   2.2481
     3.2867   3.4423   3.4837   3.5536   4.0945   4.2003   4.2424   4.2976
     4.6468   4.7812   4.8283   4.8978   5.3714   5.4372   5.4995   5.5546
     6.9908   7.0297   7.0759   7.1011   9.4342   9.4834   9.5211   9.5565
    10.3265  10.4174  10.4729  10.5551  10.6295  10.6705

          k = 0.2500 0.4330 0.0000 ( 21125 PWs)   bands (ev):

   -53.4470 -53.4463 -53.3778 -53.3732 -27.7560 -27.7496 -27.6866 -27.6830
   -27.5989 -27.5935 -27.5846 -27.5813 -27.5295 -27.5258 -27.5157 -27.5102
    -4.9591  -4.8703  -4.8388  -4.8183  -4.7181  -4.6709  -4.6303  -4.6037
     2.0556   2.2033   2.2372   2.2765   2.3590   2.4047   2.4143   2.4413
     3.6013   3.6899   3.7729   3.8007   3.9791   4.0970   4.1706   4.3061
     4.3945   4.4393   4.4813   4.4919   5.6369   5.6828   5.7656   5.7762
     6.7904   6.8180   6.8707   6.8830   9.3160   9.4836   9.5809   9.7272
    10.1430  10.1897  10.2285  10.3137  10.3683  10.4589

          k = 0.2500 0.5052 0.0000 ( 21117 PWs)   bands (ev):

   -53.4438 -53.4431 -53.3746 -53.3700 -27.7608 -27.7544 -27.6914 -27.6878
   -27.6316 -27.6261 -27.5783 -27.5751 -27.5622 -27.5585 -27.5094 -27.5040
    -4.7545  -4.6821  -4.6610  -4.6381  -4.6139  -4.5870  -4.5504  -4.5296
     2.0339   2.0965   2.1106   2.1468   2.2063   2.3007   2.3281   2.3705
     3.4567   3.6112   3.6478   3.6677   4.0111   4.1064   4.1719   4.2152
     4.2224   4.2801   4.3386   4.4150   5.3677   5.4123   5.4976   5.5211
     7.0344   7.0580   7.1125   7.1215   9.2992   9.3670   9.4057   9.4549
    10.3082  10.3540  10.4259  10.4434  10.5768  10.6116

          k = 0.2500 0.5774 0.0000 ( 21116 PWs)   bands (ev):

   -53.4427 -53.4420 -53.3735 -53.3689 -27.7607 -27.7542 -27.6913 -27.6877
   -27.6449 -27.6394 -27.5761 -27.5755 -27.5729 -27.5718 -27.5072 -27.5018
    -4.6757  -4.6137  -4.6026  -4.5803  -4.5685  -4.5571  -4.5183  -4.5024
     1.9405   2.0010   2.0069   2.0433   2.2893   2.3696   2.3843   2.4267
     3.3055   3.4501   3.4890   3.5377   3.9590   4.1198   4.1634   4.2070
     4.2971   4.3463   4.3966   4.4407   5.2565   5.2778   5.3664   5.3850
     7.1612   7.1896   7.2413   7.2579   9.2245   9.2504   9.2924   9.3040
    10.3366  10.4001  10.4276  10.4944  10.7353  10.7651

          k = 0.3125 0.5413 0.0000 ( 21100 PWs)   bands (ev):

   -53.4421 -53.4414 -53.3729 -53.3683 -27.7397 -27.7332 -27.6734 -27.6702
   -27.6678 -27.6667 -27.6040 -27.6003 -27.5750 -27.5717 -27.5060 -27.5006
    -4.6370  -4.5802  -4.5738  -4.5597  -4.5378  -4.5352  -4.4961  -4.4844
     1.8743   1.9349   1.9356   1.9707   2.5043   2.6078   2.6308   2.6687
     3.3123   3.3506   3.3937   3.4351   3.8001   3.8582   3.8631   3.9003
     4.3420   4.4082   4.4608   4.4974   5.1647   5.1976   5.2917   5.3191
     7.2468   7.2665   7.3251   7.3302   9.1045   9.1332   9.1727   9.1844
    10.2842  10.3077  10.3368  10.4154  10.8357  10.8777

     the Fermi energy is     8.4118 ev

!    total energy              =   -1978.36847624 Ry
     total all-electron energy =    -38771.689321 Ry
     estimated scf accuracy    <          2.3E-10 Ry
     smearing contrib. (-TS)   =       0.00006323 Ry
     internal energy E=F+TS    =   -1978.36853947 Ry

     The total energy is F=E-TS. E is the sum of the following terms:
     one-electron contribution =   -1500.06637795 Ry
     hartree contribution      =     792.27776450 Ry
     xc contribution           =    -119.28832650 Ry
     ewald contribution        =     118.56534664 Ry
     one-center paw contrib.   =   -1269.85694616 Ry

     convergence has been achieved in  23 iterations

     Forces acting on atoms (cartesian axes, Ry/au):

     atom    1 type  2   force =     0.00000000    0.00000000   -0.00731366
     atom    2 type  1   force =     0.00000000    0.00000000    0.00056985
     atom    3 type  2   force =     0.00000000    0.00000000    0.01015096
     atom    4 type  2   force =     0.00000000   -0.00000000   -0.00682392
     atom    5 type  1   force =     0.00000000    0.00000000   -0.00527982
     atom    6 type  2   force =     0.00000000    0.00000000    0.00581782
     atom    7 type  2   force =     0.00000000    0.00000000   -0.00470661
     atom    8 type  1   force =     0.00000000    0.00000000    0.00245696
     atom    9 type  2   force =     0.00000000    0.00000000    0.00865900
     atom   10 type  2   force =     0.00000000    0.00000000   -0.00344094
     atom   11 type  1   force =     0.00000000   -0.00000000   -0.00180037
     atom   12 type  2   force =     0.00000000    0.00000000    0.00171073

     Total force =     0.019655     Total SCF correction =     0.000045
     Energy error            =      4.3E-04 Ry
     Gradient error          =      1.0E-02 Ry/Bohr

     number of scf cycles    =  25
     number of bfgs steps    =  24

     energy             old  =   -1978.3680455706 Ry
     energy             new  =   -1978.3684762427 Ry

     CASE: energy            _new < energy            _old

     new trust radius        =       0.0991592152 bohr
     new conv_thr            =       0.0000000004 Ry


ATOMIC_POSITIONS (crystal)
S                0.3333330000        0.6666670000       -0.1116753484
Mo              -0.0000000000       -0.0000000000       -0.0596945533
S                0.3333330000        0.6666670000       -0.0076929712
S                0.6666670000        0.3333330000        0.1065731941
Mo               0.3333330000        0.6666670000        0.1588630952
S                0.6666670000        0.3333330000        0.2108141997
S               -0.0000000000       -0.0000000000        0.3072539344
Mo               0.6666670000        0.3333330000        0.3593451455
S               -0.0000000000       -0.0000000000        0.4114789018
S                0.3333330000        0.6666670000        0.5275522351
Mo               0.0000000000        0.0000000000        0.5799504598
S                0.3333330000        0.6666670000        0.6322317072



     Writing config-only to output data dir ./tmp/relax/mos2_slab.save/ :
     XML data file
     NEW-OLD atomic charge density approx. for the potential

     total cpu time spent up to now is    86794.6 secs

     Self-consistent Calculation

     iteration #  1     ecut=    80.00 Ry     beta= 0.30
     Davidson diagonalization with overlap
     ethr =  1.00E-06,  avg # of iterations =  8.6

     total cpu time spent up to now is    87134.0 secs

     total energy              =   -1978.36944943 Ry
     estimated scf accuracy    <       0.00284449 Ry

     iteration #  2     ecut=    80.00 Ry     beta= 0.30
     Davidson diagonalization with overlap
     ethr =  2.74E-06,  avg # of iterations =  1.0

     total cpu time spent up to now is    87234.3 secs

     total energy              =   -1978.36891140 Ry
     estimated scf accuracy    <       0.00174233 Ry

     iteration #  3     ecut=    80.00 Ry     beta= 0.30
     Davidson diagonalization with overlap
     ethr =  1.68E-06,  avg # of iterations =  3.0

     total cpu time spent up to now is    87353.7 secs

     total energy              =   -1978.36907311 Ry
     estimated scf accuracy    <       0.00006481 Ry

     iteration #  4     ecut=    80.00 Ry     beta= 0.30
     Davidson diagonalization with overlap
     ethr =  6.23E-08,  avg # of iterations =  3.5

     total cpu time spent up to now is    87485.6 secs

     total energy              =   -1978.36908686 Ry
     estimated scf accuracy    <       0.00002151 Ry

     iteration #  5     ecut=    80.00 Ry     beta= 0.30
     Davidson diagonalization with overlap
     ethr =  2.07E-08,  avg # of iterations =  2.4

     total cpu time spent up to now is    87599.3 secs

     total energy              =   -1978.36908740 Ry
     estimated scf accuracy    <       0.00000634 Ry

     iteration #  6     ecut=    80.00 Ry     beta= 0.30
     Davidson diagonalization with overlap
     ethr =  6.10E-09,  avg # of iterations =  3.5

     total cpu time spent up to now is    87717.8 secs

     total energy              =   -1978.36908793 Ry
     estimated scf accuracy    <       0.00000105 Ry

     iteration #  7     ecut=    80.00 Ry     beta= 0.30
     Davidson diagonalization with overlap
     ethr =  1.01E-09,  avg # of iterations =  4.6

     total cpu time spent up to now is    87844.9 secs

     total energy              =   -1978.36908816 Ry
     estimated scf accuracy    <       0.00000028 Ry

     iteration #  8     ecut=    80.00 Ry     beta= 0.30
     Davidson diagonalization with overlap
     ethr =  2.71E-10,  avg # of iterations =  2.9

     total cpu time spent up to now is    87954.3 secs

     total energy              =   -1978.36908816 Ry
     estimated scf accuracy    <       0.00000023 Ry

     iteration #  9     ecut=    80.00 Ry     beta= 0.30
     Davidson diagonalization with overlap
     ethr =  2.25E-10,  avg # of iterations =  2.0

     total cpu time spent up to now is    88066.0 secs

     total energy              =   -1978.36908821 Ry
     estimated scf accuracy    <       0.00000014 Ry

     iteration # 10     ecut=    80.00 Ry     beta= 0.30
     Davidson diagonalization with overlap
     ethr =  1.35E-10,  avg # of iterations =  1.4

     total cpu time spent up to now is    88170.1 secs

     total energy              =   -1978.36908824 Ry
     estimated scf accuracy    <       0.00000012 Ry

     iteration # 11     ecut=    80.00 Ry     beta= 0.30
     Davidson diagonalization with overlap
     ethr =  1.13E-10,  avg # of iterations =  1.4

     total cpu time spent up to now is    88275.2 secs

     total energy              =   -1978.36908826 Ry
     estimated scf accuracy    <       0.00000010 Ry

     iteration # 12     ecut=    80.00 Ry     beta= 0.30
     Davidson diagonalization with overlap
     ethr =  9.26E-11,  avg # of iterations =  2.7

     total cpu time spent up to now is    88394.2 secs

     total energy              =   -1978.36908828 Ry
     estimated scf accuracy    <       0.00000007 Ry

     iteration # 13     ecut=    80.00 Ry     beta= 0.30
     Davidson diagonalization with overlap
     ethr =  6.47E-11,  avg # of iterations =  2.0

     total cpu time spent up to now is    88507.1 secs

     total energy              =   -1978.36908828 Ry
     estimated scf accuracy    <       0.00000006 Ry

     iteration # 14     ecut=    80.00 Ry     beta= 0.30
     Davidson diagonalization with overlap
     ethr =  6.03E-11,  avg # of iterations =  1.0

     total cpu time spent up to now is    88607.4 secs

     total energy              =   -1978.36908828 Ry
     estimated scf accuracy    <       0.00000005 Ry

     iteration # 15     ecut=    80.00 Ry     beta= 0.30
     Davidson diagonalization with overlap
     ethr =  5.06E-11,  avg # of iterations =  2.0

     total cpu time spent up to now is    88719.8 secs

     total energy              =   -1978.36908829 Ry
     estimated scf accuracy    <       0.00000002 Ry

     iteration # 16     ecut=    80.00 Ry     beta= 0.30
     Davidson diagonalization with overlap
     ethr =  1.56E-11,  avg # of iterations =  2.0

     total cpu time spent up to now is    88831.9 secs

     total energy              =   -1978.36908829 Ry
     estimated scf accuracy    <       0.00000001 Ry

     iteration # 17     ecut=    80.00 Ry     beta= 0.30
     Davidson diagonalization with overlap
     ethr =  1.15E-11,  avg # of iterations =  2.1

     total cpu time spent up to now is    88946.1 secs

     total energy              =   -1978.36908830 Ry
     estimated scf accuracy    <          8.6E-09 Ry

     iteration # 18     ecut=    80.00 Ry     beta= 0.30
     Davidson diagonalization with overlap
     ethr =  8.30E-12,  avg # of iterations =  1.0

     total cpu time spent up to now is    89046.7 secs

     total energy              =   -1978.36908829 Ry
     estimated scf accuracy    <          7.8E-09 Ry

     iteration # 19     ecut=    80.00 Ry     beta= 0.30
     Davidson diagonalization with overlap
     ethr =  7.49E-12,  avg # of iterations =  2.0

     total cpu time spent up to now is    89159.6 secs

     total energy              =   -1978.36908830 Ry
     estimated scf accuracy    <          5.4E-09 Ry

     iteration # 20     ecut=    80.00 Ry     beta= 0.30
     Davidson diagonalization with overlap
     ethr =  5.15E-12,  avg # of iterations =  1.8

     total cpu time spent up to now is    89268.6 secs

     total energy              =   -1978.36908831 Ry
     estimated scf accuracy    <          4.0E-09 Ry

     iteration # 21     ecut=    80.00 Ry     beta= 0.30
     Davidson diagonalization with overlap
     ethr =  3.80E-12,  avg # of iterations =  2.0

     total cpu time spent up to now is    89384.5 secs

     total energy              =   -1978.36908831 Ry
     estimated scf accuracy    <          2.4E-09 Ry

     iteration # 22     ecut=    80.00 Ry     beta= 0.30
     Davidson diagonalization with overlap
     ethr =  2.33E-12,  avg # of iterations =  1.2

     total cpu time spent up to now is    89487.2 secs

     total energy              =   -1978.36908830 Ry
     estimated scf accuracy    <          1.5E-09 Ry

     iteration # 23     ecut=    80.00 Ry     beta= 0.30
     Davidson diagonalization with overlap
     ethr =  1.49E-12,  avg # of iterations =  2.0

     total cpu time spent up to now is    89600.3 secs

     total energy              =   -1978.36908830 Ry
     estimated scf accuracy    <          9.3E-10 Ry

     iteration # 24     ecut=    80.00 Ry     beta= 0.30
     Davidson diagonalization with overlap
     ethr =  8.95E-13,  avg # of iterations =  2.4

     total cpu time spent up to now is    89719.7 secs

     total energy              =   -1978.36908830 Ry
     estimated scf accuracy    <          6.2E-10 Ry

     iteration # 25     ecut=    80.00 Ry     beta= 0.30
     Davidson diagonalization with overlap
     ethr =  5.97E-13,  avg # of iterations =  1.6

     total cpu time spent up to now is    89825.7 secs

     End of self-consistent calculation

          k = 0.0000 0.0000 0.0000 ( 21311 PWs)   bands (ev):

   -53.4883 -53.4865 -53.4194 -53.4135 -27.6642 -27.6630 -27.5974 -27.5914
   -27.4286 -27.4286 -27.4268 -27.4267 -27.3613 -27.3613 -27.3574 -27.3574
    -6.9045  -6.7772  -6.7468  -6.6837  -5.6332  -5.4801  -5.4159  -5.3071
     1.2813   1.6265   1.7448   2.0388   4.7211   4.7211   4.7654   4.7696
     4.7696   4.7791   4.7791   4.7897   4.7897   5.3040   5.6433   5.8484
     5.8484   5.8910   5.8910   5.9136   5.9137   5.9213   5.9214   6.3043
     6.9884   7.3857   7.5696   7.9786  10.1194  10.1194  10.1576  10.1576
    10.2066  10.2066  10.2340  10.2340  10.3587  10.3587

          k = 0.0000 0.0722 0.0000 ( 21283 PWs)   bands (ev):

   -53.4868 -53.4849 -53.4178 -53.4119 -27.6611 -27.6599 -27.5943 -27.5883
   -27.4443 -27.4423 -27.4322 -27.4303 -27.3770 -27.3731 -27.3649 -27.3609
    -6.8447  -6.7177  -6.6872  -6.6244  -5.6056  -5.4550  -5.3916  -5.2849
     1.3495   1.6946   1.8125   2.1060   4.5863   4.6207   4.6369   4.6468
     4.6558   4.7835   4.8322   4.8420   4.8524   5.0800   5.3010   5.5608
     5.7508   5.7944   5.8165   5.8257   5.9611   6.0428   6.1457   6.5098
     6.9910   7.3637   7.5284   7.8834  10.0553  10.0703  10.1263  10.1471
    10.1978  10.2026  10.2389  10.2492  10.2792  10.2966

          k = 0.0000 0.1443 0.0000 ( 21263 PWs)   bands (ev):

   -53.4823 -53.4805 -53.4134 -53.4075 -27.6524 -27.6512 -27.5855 -27.5795
   -27.4887 -27.4865 -27.4423 -27.4403 -27.4214 -27.4176 -27.3750 -27.3710
    -6.6703  -6.5444  -6.5136  -6.4519  -5.5251  -5.3821  -5.3208  -5.2203
     1.5389   1.8824   1.9984   2.2885   4.2378   4.2791   4.2963   4.3066
     4.3244   4.6691   4.8207   4.9629   5.0124   5.0230   5.0330   5.0511
     5.4989   5.5444   5.5655   5.5776   6.0325   6.1750   6.3200   6.6533
     6.9619   7.2478   7.3676   7.5873   9.7723   9.8474   9.9049   9.9381
     9.9946  10.0158  10.0737  10.0944  10.1319  10.2083

          k = 0.0000 0.2165 0.0000 ( 21233 PWs)   bands (ev):

   -53.4757 -53.4738 -53.4067 -53.4008 -27.6392 -27.6382 -27.5724 -27.5663
   -27.5546 -27.5520 -27.4873 -27.4836 -27.4574 -27.4554 -27.3901 -27.3861
    -6.3961  -6.2728  -6.2416  -6.1822  -5.3986  -5.2681  -5.2103  -5.1199
     1.7942   2.1278   2.2356   2.5075   3.8064   3.8486   3.8765   3.8839
     3.9554   4.2187   4.3228   4.5066   5.1635   5.2176   5.2305   5.2431
     5.2593   5.2887   5.2998   5.3223   5.9564   6.1320   6.2826   6.5690
     6.8164   6.9726   7.0485   7.1398   9.3931   9.5283   9.6678   9.8498
     9.8631   9.9140   9.9680   9.9889  10.0322  10.1000

          k = 0.0000 0.2887 0.0000 ( 21197 PWs)   bands (ev):

   -53.4678 -53.4659 -53.3988 -53.3929 -27.6315 -27.6285 -27.6237 -27.6228
   -27.5642 -27.5606 -27.5568 -27.5508 -27.4751 -27.4730 -27.4078 -27.4039
    -6.0478  -5.9292  -5.8980  -5.8431  -5.2388  -5.1252  -5.0719  -4.9953
     1.9893   2.2777   2.3589   2.5554   3.4139   3.4756   3.5386   3.5816
     3.6468   3.7747   3.8468   3.9732   4.8397   4.8926   4.9121   4.9264
     5.5647   5.6181   5.6318   5.6495   5.7476   5.9439   6.0810   6.3237
     6.5385   6.6095   6.6662   6.7105   9.2551   9.4345   9.6043   9.6578
     9.7205   9.7909   9.8339   9.8754  10.1840  10.3575

          k = 0.0000 0.3608 0.0000 ( 21187 PWs)   bands (ev):

   -53.4599 -53.4580 -53.3909 -53.3850 -27.7074 -27.7040 -27.6401 -27.6367
   -27.6081 -27.6074 -27.5413 -27.5351 -27.4928 -27.4906 -27.4254 -27.4216
    -5.6636  -5.5532  -5.5225  -5.4753  -5.0644  -4.9715  -4.9235  -4.8634
     1.9584   2.1546   2.1990   2.2930   3.0424   3.1933   3.2551   3.3614
     3.4259   3.5110   3.5568   3.6685   4.5507   4.6051   4.6240   4.6400
     5.5158   5.7190   5.8357   5.8853   5.9470   5.9644   5.9886   6.0471
     6.3149   6.3769   6.4295   6.4712   9.3688   9.5478   9.5510   9.6035
     9.6673   9.7025   9.7038   9.9612  10.5154  10.6892

          k = 0.0000 0.4330 0.0000 ( 21140 PWs)   bands (ev):

   -53.4532 -53.4513 -53.3842 -53.3782 -27.7712 -27.7674 -27.7038 -27.7005
   -27.5949 -27.5942 -27.5281 -27.5219 -27.5077 -27.5054 -27.4404 -27.4365
    -5.2982  -5.2003  -5.1705  -5.1351  -4.9011  -4.8313  -4.7888  -4.7461
     1.7410   1.8714   1.8977   1.9449   2.7074   2.8523   2.8883   2.9669
     3.3059   3.4228   3.4650   3.5758   4.3293   4.3849   4.4034   4.4203
     5.3422   5.5407   5.6434   5.8317   6.1415   6.2148   6.2377   6.2712
     6.3286   6.4127   6.4597   6.5229   9.5430   9.5798   9.6270   9.6365
     9.6623   9.7742   9.8872  10.0829  10.8270  10.9799

          k = 0.0000 0.5052 0.0000 ( 21078 PWs)   bands (ev):

   -53.4488 -53.4468 -53.3797 -53.3737 -27.8134 -27.8094 -27.7460 -27.7428
   -27.5860 -27.5854 -27.5192 -27.5176 -27.5153 -27.5130 -27.4503 -27.4465
    -5.0235  -4.9409  -4.9125  -4.8906  -4.7807  -4.7322  -4.6946  -4.6654
     1.5242   1.6278   1.6471   1.6840   2.4730   2.5954   2.6257   2.6889
     3.1945   3.3189   3.3589   3.4568   4.1912   4.2475   4.2658   4.2833
     5.2470   5.4380   5.5329   5.7005   6.2974   6.3812   6.4095   6.4513
     6.5166   6.6018   6.6487   6.7110   9.5910   9.6141   9.6670   9.6827
     9.9155  10.0152  10.0814  10.1961  11.0227  11.1503

          k = 0.0000-0.5774 0.0000 ( 21006 PWs)   bands (ev):

   -53.4472 -53.4452 -53.3781 -53.3721 -27.8281 -27.8241 -27.7608 -27.7576
   -27.5829 -27.5824 -27.5211 -27.5188 -27.5161 -27.5098 -27.4538 -27.4500
    -4.9179  -4.8441  -4.8175  -4.8008  -4.7361  -4.6968  -4.6609  -4.6364
     1.4362   1.5338   1.5514   1.5880   2.3889   2.5017   2.5322   2.5909
     3.1436   3.2694   3.3080   3.4021   4.1444   4.2009   4.2191   4.2367
     5.2183   5.4054   5.4976   5.6562   6.3482   6.4362   6.4666   6.5118
     6.6351   6.7056   6.7469   6.7982   9.6194   9.6377   9.6904   9.7016
    10.0712  10.1275  10.1840  10.2242  11.0850  11.1978

          k = 0.0625 0.1083 0.0000 ( 21269 PWs)   bands (ev):

   -53.4838 -53.4819 -53.4148 -53.4089 -27.6552 -27.6540 -27.5884 -27.5824
   -27.4739 -27.4717 -27.4395 -27.4375 -27.4066 -27.4027 -27.3722 -27.3682
    -6.7276  -6.6013  -6.5706  -6.5085  -5.5515  -5.4060  -5.3440  -5.2415
     1.4787   1.8231   1.9399   2.2317   4.3474   4.3889   4.4038   4.4168
     4.4197   4.7962   4.9029   4.9514   4.9614   4.9645   4.9752   5.2165
     5.5368   5.5796   5.6038   5.6105   6.0654   6.1888   6.3222   6.6560
     6.9792   7.2963   7.4281   7.6876   9.8933   9.9267   9.9406   9.9816
    10.0184  10.0249  10.0814  10.1523  10.1637  10.1838

          k = 0.0625 0.1804 0.0000 ( 21194 PWs)   bands (ev):

   -53.4782 -53.4763 -53.4092 -53.4033 -27.6443 -27.6432 -27.5774 -27.5714
   -27.5278 -27.5254 -27.4605 -27.4567 -27.4533 -27.4513 -27.3860 -27.3820
    -6.5031  -6.3787  -6.3476  -6.2872  -5.4478  -5.3123  -5.2532  -5.1588
     1.7052   2.0450   2.1574   2.4405   3.9663   4.0116   4.0313   4.0371
     4.1035   4.4193   4.5455   4.7584   5.1162   5.1627   5.1691   5.1821
     5.1967   5.2149   5.2410   5.2552   6.1267   6.2717   6.4098   6.6909
     6.8950   7.0998   7.1876   7.3125   9.5037   9.6113   9.7154   9.8280
     9.8686   9.9288   9.9619   9.9916  10.0128  10.0669

          k = 0.0625 0.2526 0.0000 ( 21202 PWs)   bands (ev):

   -53.4710 -53.4691 -53.4020 -53.3960 -27.6299 -27.6290 -27.5975 -27.5947
   -27.5631 -27.5570 -27.5302 -27.5266 -27.4713 -27.4693 -27.4040 -27.4001
    -6.1913  -6.0705  -6.0392  -5.9822  -5.3041  -5.1832  -5.1281  -5.0456
     1.9432   2.2598   2.3559   2.5968   3.5836   3.6246   3.6629   3.6827
     3.7803   4.0003   4.0834   4.2330   4.7979   4.8423   4.8623   4.8883
     5.3903   5.4420   5.4565   5.4703   6.0319   6.1849   6.3109   6.5346
     6.6806   6.7698   6.8292   6.8719   9.2358   9.3978   9.5341   9.6841
     9.7837   9.8298   9.8814   9.9054   9.9894  10.1291

          k = 0.0625 0.3248 0.0000 ( 21194 PWs)   bands (ev):

   -53.4631 -53.4612 -53.3941 -53.3881 -27.6721 -27.6689 -27.6144 -27.6136
   -27.6048 -27.6013 -27.5475 -27.5414 -27.4908 -27.4887 -27.4235 -27.4196
    -5.8235  -5.7091  -5.6781  -5.6272  -5.1356  -5.0335  -4.9833  -4.9159
     2.0319   2.2738   2.3336   2.4701   3.2408   3.3462   3.4246   3.5074
     3.5512   3.5904   3.6702   3.7498   4.4916   4.5512   4.5715   4.6120
     5.6286   5.6864   5.7032   5.7195   5.8236   5.9727   6.0802   6.2669
     6.4444   6.4871   6.5393   6.5672   9.1957   9.3683   9.4805   9.5911
     9.7107   9.7705   9.8077   9.9492  10.2436  10.4117

          k = 0.0625 0.3969 0.0000 ( 21151 PWs)   bands (ev):

   -53.4558 -53.4538 -53.3867 -53.3808 -27.7403 -27.7367 -27.6730 -27.6696
   -27.6000 -27.5993 -27.5331 -27.5269 -27.5088 -27.5065 -27.4414 -27.4376
    -5.4456  -5.3416  -5.3112  -5.2701  -4.9643  -4.8843  -4.8394  -4.7892
     1.8903   2.0483   2.0812   2.1459   2.8712   3.0136   3.0533   3.1306
     3.3812   3.4876   3.5304   3.6454   4.2907   4.3561   4.3769   4.4150
     5.5606   5.7214   5.7822   5.8109   5.8364   5.8699   5.8975   6.0118
     6.4450   6.4827   6.5226   6.5502   9.3251   9.4628   9.5332   9.6120
     9.7504   9.8090   9.8616  10.0295  10.5851  10.7408

          k = 0.0625 0.4691 0.0000 ( 21105 PWs)   bands (ev):

   -53.4502 -53.4482 -53.3811 -53.3752 -27.7920 -27.7881 -27.7247 -27.7214
   -27.5889 -27.5883 -27.5224 -27.5221 -27.5201 -27.5159 -27.4551 -27.4513
    -5.1203  -5.0308  -5.0016  -4.9739  -4.8190  -4.7620  -4.7225  -4.6881
     1.6670   1.7817   1.8040   1.8438   2.5582   2.6781   2.7045   2.7646
     3.2678   3.3931   3.4350   3.5359   4.1813   4.2408   4.2611   4.2870
     5.3725   5.5383   5.6236   5.7692   5.9115   5.9750   6.0132   6.0557
     6.6156   6.6617   6.6964   6.7334   9.5107   9.5877   9.6285   9.6766
     9.8847   9.9547  10.0130  10.1426  10.9020  11.0317

          k = 0.0625 0.5413 0.0000 ( 21084 PWs)   bands (ev):

   -53.4472 -53.4452 -53.3781 -53.3721 -27.8198 -27.8158 -27.7525 -27.7493
   -27.5829 -27.5824 -27.5298 -27.5275 -27.5161 -27.5099 -27.4625 -27.4587
    -4.9241  -4.8486  -4.8216  -4.8042  -4.7335  -4.6932  -4.6572  -4.6319
     1.5150   1.6143   1.6323   1.6692   2.3813   2.4858   2.5125   2.5655
     3.1730   3.3028   3.3421   3.4360   4.1368   4.1880   4.2119   4.2220
     5.2689   5.4373   5.5234   5.6651   5.9980   6.0775   6.1173   6.1546
     6.7700   6.8251   6.8612   6.9026   9.6199   9.6437   9.6860   9.7057
    10.0626  10.1269  10.1778  10.2411  11.1297  11.2262

          k = 0.1250 0.2165 0.0000 ( 21179 PWs)   bands (ev):

   -53.4721 -53.4702 -53.4031 -53.3972 -27.6321 -27.6311 -27.5834 -27.5807
   -27.5653 -27.5592 -27.5161 -27.5124 -27.4722 -27.4701 -27.4049 -27.4010
    -6.2406  -6.1190  -6.0878  -6.0301  -5.3264  -5.2031  -5.1472  -5.0628
     1.9246   2.2503   2.3515   2.6079   3.6523   3.6930   3.7194   3.7345
     3.8741   4.1504   4.2481   4.4163   4.6665   4.6999   4.7246   4.7540
     5.3110   5.3619   5.3777   5.3884   6.2172   6.3464   6.4620   6.6599
     6.7473   6.8419   6.9073   6.9381   9.2242   9.3760   9.4969   9.6496
     9.7639   9.8231   9.8421   9.8743   9.9247  10.0100

          k = 0.1250 0.2887 0.0000 ( 21199 PWs)   bands (ev):

   -53.4648 -53.4629 -53.3958 -53.3898 -27.6472 -27.6441 -27.6178 -27.6169
   -27.5799 -27.5764 -27.5509 -27.5448 -27.4957 -27.4935 -27.4283 -27.4245
    -5.9076  -5.7914  -5.7602  -5.7075  -5.1724  -5.0656  -5.0141  -4.9429
     2.0778   2.3523   2.4244   2.5976   3.4064   3.4565   3.5185   3.5849
     3.6572   3.7825   3.8382   3.9023   4.2329   4.3092   4.3524   4.4576
     5.4201   5.4752   5.4972   5.5112   6.1490   6.2632   6.3555   6.4945
     6.5561   6.5699   6.6195   6.6404   9.0628   9.2410   9.3670   9.5199
     9.7629   9.8090   9.8416   9.9046  10.0005  10.1475

          k = 0.1250 0.3608 0.0000 ( 21195 PWs)   bands (ev):

   -53.4575 -53.4556 -53.3885 -53.3825 -27.7100 -27.7065 -27.6426 -27.6392
   -27.6034 -27.6026 -27.5365 -27.5304 -27.5195 -27.5172 -27.4522 -27.4484
    -5.5420  -5.4344  -5.4037  -5.3593  -5.0038  -4.9172  -4.8707  -4.8152
     2.0385   2.2298   2.2708   2.3602   3.0711   3.1804   3.2251   3.2770
     3.4741   3.5552   3.6032   3.7042   4.0368   4.1625   4.2169   4.3289
     5.3710   5.4291   5.4596   5.4777   5.9305   6.0363   6.1046   6.2198
     6.4985   6.5229   6.5730   6.5828   9.0968   9.2853   9.4166   9.5832
     9.8357   9.8772   9.9091  10.0029  10.2383  10.3954

          k = 0.1250 0.4330 0.0000 ( 21113 PWs)   bands (ev):

   -53.4513 -53.4494 -53.3822 -53.3763 -27.7625 -27.7588 -27.6951 -27.6919
   -27.5911 -27.5905 -27.5398 -27.5374 -27.5243 -27.5181 -27.4725 -27.4687
    -5.1966  -5.1018  -5.0720  -5.0397  -4.8451  -4.7811  -4.7399  -4.7007
     1.8724   2.0083   2.0355   2.0857   2.6608   2.7556   2.7689   2.8147
     3.3901   3.5163   3.5627   3.6560   4.0077   4.1297   4.1776   4.2655
     5.3164   5.3973   5.4316   5.4707   5.6596   5.7590   5.8239   5.9269
     6.6355   6.6624   6.7089   6.7221   9.3007   9.4739   9.5927   9.7451
     9.9442   9.9753  10.0136  10.0735  10.5537  10.6868

          k = 0.1250 0.5052 0.0000 ( 21081 PWs)   bands (ev):

   -53.4472 -53.4452 -53.3781 -53.3722 -27.7973 -27.7934 -27.7300 -27.7267
   -27.5829 -27.5824 -27.5534 -27.5509 -27.5161 -27.5099 -27.4861 -27.4823
    -4.9387  -4.8594  -4.8313  -4.8122  -4.7274  -4.6846  -4.6481  -4.6210
     1.7204   1.8283   1.8491   1.8871   2.3671   2.4494   2.4663   2.5067
     3.2644   3.4042   3.4456   3.5334   4.0555   4.1524   4.1861   4.2376
     5.3158   5.4262   5.4539   5.4894   5.5266   5.5523   5.6071   5.7146
     6.8208   6.8626   6.9023   6.9318   9.5134   9.6082   9.6629   9.7288
    10.0919  10.1491  10.1946  10.2743  10.8356  10.9313

          k = 0.1250 0.5774 0.0000 ( 21108 PWs)   bands (ev):

   -53.4457 -53.4437 -53.3766 -53.3707 -27.8095 -27.8055 -27.7421 -27.7389
   -27.5801 -27.5795 -27.5582 -27.5557 -27.5132 -27.5070 -27.4908 -27.4871
    -4.8398  -4.7695  -4.7445  -4.7285  -4.6838  -4.6502  -4.6149  -4.5921
     1.6611   1.7603   1.7778   1.8158   2.2624   2.3409   2.3604   2.3992
     3.2022   3.3429   3.3827   3.4706   4.1034   4.1692   4.1942   4.2272
     5.2765   5.4066   5.4383   5.4801   5.5132   5.5247   5.5659   5.6452
     6.9123   6.9639   7.0030   7.0404   9.5871   9.6111   9.6503   9.6749
    10.2067  10.2749  10.3254  10.3678  10.9489  11.0535

          k = 0.1875 0.3248 0.0000 ( 21195 PWs)   bands (ev):

   -53.4581 -53.4562 -53.3891 -53.3831 -27.6963 -27.6929 -27.6290 -27.6255
   -27.6046 -27.6038 -27.5377 -27.5315 -27.5263 -27.5240 -27.4590 -27.4552
    -5.5755  -5.4667  -5.4359  -5.3903  -5.0171  -4.9283  -4.8812  -4.8239
     2.1016   2.3095   2.3547   2.4576   3.2009   3.2707   3.3262   3.3518
     3.5139   3.5783   3.6361   3.7021   3.8975   4.0472   4.1233   4.2791
     5.1970   5.2552   5.2854   5.3046   6.0941   6.1834   6.2346   6.3290
     6.5016   6.5333   6.5824   6.5953   9.0096   9.2135   9.3614   9.5634
     9.8569   9.8888   9.9234   9.9772  10.0928  10.2445

          k = 0.1875 0.3969 0.0000 ( 21153 PWs)   bands (ev):

   -53.4519 -53.4500 -53.3829 -53.3769 -27.7385 -27.7349 -27.6712 -27.6679
   -27.5923 -27.5917 -27.5573 -27.5549 -27.5255 -27.5193 -27.4900 -27.4863
    -5.2383  -5.1407  -5.1106  -5.0758  -4.8581  -4.7902  -4.7479  -4.7059
     2.0272   2.1849   2.2166   2.2814   2.7521   2.8100   2.8162   2.8501
     3.5181   3.6263   3.6862   3.7546   3.9032   4.0367   4.1133   4.2546
     4.8819   4.9476   4.9834   5.0108   5.8670   5.9360   5.9827   6.0451
     6.6025   6.6372   6.6831   6.7054   9.1619   9.3779   9.5387   9.8041
     9.9726   9.9861  10.0351  10.0500  10.2772  10.4166

          k = 0.1875 0.4691 0.0000 ( 21101 PWs)   bands (ev):

   -53.4472 -53.4452 -53.3781 -53.3722 -27.7693 -27.7655 -27.7019 -27.6987
   -27.5830 -27.5824 -27.5824 -27.5798 -27.5161 -27.5151 -27.5114 -27.5099
    -4.9526  -4.8700  -4.8412  -4.8199  -4.7217  -4.6761  -4.6389  -4.6099
     1.9512   2.0793   2.1065   2.1500   2.3577   2.4139   2.4248   2.4527
     3.4305   3.5798   3.6224   3.6773   3.9650   4.1052   4.1687   4.2732
     4.6928   4.7960   4.8379   4.9047   5.5728   5.6425   5.7076   5.7549
     6.8074   6.8337   6.8829   6.8973   9.3738   9.5218   9.6129   9.7361
    10.1314  10.1826  10.2222  10.3094  10.4999  10.5868

          k = 0.1875 0.5413 0.0000 ( 21112 PWs)   bands (ev):

   -53.4446 -53.4426 -53.3755 -53.3696 -27.7854 -27.7815 -27.7180 -27.7148
   -27.5965 -27.5938 -27.5779 -27.5774 -27.5291 -27.5254 -27.5111 -27.5048
    -4.7820  -4.7139  -4.6908  -4.6742  -4.6409  -4.6120  -4.5770  -4.5553
     1.9173   2.0273   2.0490   2.0887   2.1460   2.1967   2.2171   2.2409
     3.2855   3.4364   3.4772   3.5521   4.0931   4.1970   4.2389   4.2975
     4.6468   4.7777   4.8229   4.8976   5.3710   5.4379   5.5013   5.5572
     6.9907   7.0282   7.0719   7.0992   9.4337   9.4823   9.5185   9.5553
    10.3265  10.4152  10.4723  10.5583  10.6323  10.6724

          k = 0.2500 0.4330 0.0000 ( 21125 PWs)   bands (ev):

   -53.4472 -53.4452 -53.3781 -53.3722 -27.7547 -27.7510 -27.6873 -27.6840
   -27.5974 -27.5948 -27.5830 -27.5824 -27.5301 -27.5264 -27.5161 -27.5099
    -4.9583  -4.8743  -4.8453  -4.8231  -4.7193  -4.6726  -4.6351  -4.6053
     2.0556   2.1971   2.2291   2.2735   2.3578   2.4010   2.4119   2.4309
     3.6041   3.6840   3.7657   3.7954   3.9753   4.0965   4.1729   4.3061
     4.3932   4.4371   4.4784   4.4876   5.6406   5.6806   5.7640   5.7803
     6.7909   6.8159   6.8662   6.8806   9.3147   9.4802   9.5843   9.7303
    10.1432  10.1882  10.2259  10.3155  10.3698  10.4641

          k = 0.2500 0.5052 0.0000 ( 21117 PWs)   bands (ev):

   -53.4440 -53.4420 -53.3749 -53.3690 -27.7595 -27.7557 -27.6922 -27.6889
   -27.6302 -27.6274 -27.5767 -27.5762 -27.5629 -27.5592 -27.5099 -27.5036
    -4.7538  -4.6859  -4.6635  -4.6465  -4.6155  -4.5891  -4.5544  -4.5328
     2.0344   2.0942   2.1066   2.1359   2.2044   2.2966   2.3220   2.3677
     3.4561   3.6065   3.6434   3.6640   4.0115   4.1031   4.1674   4.2101
     4.2177   4.2790   4.3406   4.4158   5.3702   5.4110   5.4986   5.5232
     7.0350   7.0560   7.1089   7.1191   9.2984   9.3652   9.4027   9.4539
    10.3092  10.3534  10.4251  10.4422  10.5815  10.6172

          k = 0.2500 0.5774 0.0000 ( 21116 PWs)   bands (ev):

   -53.4429 -53.4409 -53.3738 -53.3679 -27.7594 -27.7556 -27.6920 -27.6888
   -27.6435 -27.6407 -27.5762 -27.5745 -27.5740 -27.5726 -27.5077 -27.5014
    -4.6750  -4.6172  -4.6044  -4.5829  -4.5765  -4.5597  -4.5217  -4.5065
     1.9402   1.9988   2.0030   2.0324   2.2889   2.3660   2.3813   2.4214
     3.3040   3.4451   3.4826   3.5359   3.9603   4.1135   4.1590   4.2061
     4.2920   4.3447   4.3962   4.4424   5.2590   5.2768   5.3689   5.3859
     7.1615   7.1880   7.2378   7.2560   9.2245   9.2482   9.2894   9.2995
    10.3377  10.4010  10.4270  10.4980  10.7374  10.7701

          k = 0.3125 0.5413 0.0000 ( 21100 PWs)   bands (ev):

   -53.4423 -53.4403 -53.3732 -53.3672 -27.7383 -27.7345 -27.6720 -27.6710
   -27.6691 -27.6678 -27.6046 -27.6010 -27.5733 -27.5729 -27.5065 -27.5002
    -4.6362  -4.5831  -4.5757  -4.5613  -4.5443  -4.5405  -4.4991  -4.4890
     1.8736   1.9315   1.9325   1.9595   2.5049   2.6042   2.6265   2.6647
     3.3123   3.3490   3.3905   3.4270   3.8003   3.8550   3.8606   3.8922
     4.3400   4.4072   4.4592   4.4983   5.1678   5.1965   5.2957   5.3181
     7.2477   7.2646   7.3224   7.3280   9.1043   9.1308   9.1685   9.1798
    10.2851  10.3096  10.3359  10.4208  10.8377  10.8827

     the Fermi energy is     8.4122 ev

!    total energy              =   -1978.36908830 Ry
     total all-electron energy =    -38771.689933 Ry
     estimated scf accuracy    <          2.7E-10 Ry
     smearing contrib. (-TS)   =       0.00006422 Ry
     internal energy E=F+TS    =   -1978.36915252 Ry

     The total energy is F=E-TS. E is the sum of the following terms:
     one-electron contribution =   -1544.22695032 Ry
     hartree contribution      =     814.35723121 Ry
     xc contribution           =    -119.29734113 Ry
     ewald contribution        =     140.65556688 Ry
     one-center paw contrib.   =   -1269.85765917 Ry

     convergence has been achieved in  25 iterations

     Forces acting on atoms (cartesian axes, Ry/au):

     atom    1 type  2   force =     0.00000000    0.00000000   -0.00919250
     atom    2 type  1   force =     0.00000000   -0.00000000    0.00041826
     atom    3 type  2   force =     0.00000000   -0.00000000    0.01203423
     atom    4 type  2   force =     0.00000000    0.00000000   -0.00676033
     atom    5 type  1   force =     0.00000000   -0.00000000   -0.00601357
     atom    6 type  2   force =     0.00000000   -0.00000000    0.00686735
     atom    7 type  2   force =     0.00000000    0.00000000   -0.00531033
     atom    8 type  1   force =     0.00000000   -0.00000000    0.00232373
     atom    9 type  2   force =     0.00000000    0.00000000    0.00904263
     atom   10 type  2   force =     0.00000000    0.00000000   -0.00366556
     atom   11 type  1   force =     0.00000000    0.00000000   -0.00194460
     atom   12 type  2   force =     0.00000000   -0.00000000    0.00220068

     Total force =     0.022270     Total SCF correction =     0.000048
     Energy error            =      6.1E-04 Ry
     Gradient error          =      1.2E-02 Ry/Bohr

     number of scf cycles    =  26
     number of bfgs steps    =  25

     energy             old  =   -1978.3684762427 Ry
     energy             new  =   -1978.3690883030 Ry

     CASE: energy            _new < energy            _old

     new trust radius        =       0.1487388228 bohr
     new conv_thr            =       0.0000000006 Ry


ATOMIC_POSITIONS (crystal)
S                0.3333330000        0.6666670000       -0.1090517086
Mo              -0.0000000000       -0.0000000000       -0.0571682554
S                0.3333330000        0.6666670000       -0.0052725443
S                0.6666670000        0.3333330000        0.1063510356
Mo               0.3333330000        0.6666670000        0.1586447647
S                0.6666670000        0.3333330000        0.2105533361
S               -0.0000000000       -0.0000000000        0.3075304184
Mo               0.6666670000        0.3333330000        0.3596067821
S               -0.0000000000       -0.0000000000        0.4117175452
S                0.3333330000        0.6666670000        0.5250202228
Mo               0.0000000000        0.0000000000        0.5774070816
S                0.3333330000        0.6666670000        0.6296613219



     Writing config-only to output data dir ./tmp/relax/mos2_slab.save/ :
     XML data file
     NEW-OLD atomic charge density approx. for the potential

     total cpu time spent up to now is    89880.9 secs

     Self-consistent Calculation

     iteration #  1     ecut=    80.00 Ry     beta= 0.30
     Davidson diagonalization with overlap
     ethr =  1.00E-06,  avg # of iterations =  9.8

     total cpu time spent up to now is    90262.6 secs

     total energy              =   -1978.37095353 Ry
     estimated scf accuracy    <       0.00667781 Ry

     iteration #  2     ecut=    80.00 Ry     beta= 0.30
     Davidson diagonalization with overlap
     ethr =  6.42E-06,  avg # of iterations =  1.0

     negative rho (up, down):  1.079E-08 0.000E+00

     total cpu time spent up to now is    90362.8 secs

     total energy              =   -1978.36957726 Ry
     estimated scf accuracy    <       0.00402977 Ry

     iteration #  3     ecut=    80.00 Ry     beta= 0.30
     Davidson diagonalization with overlap
     ethr =  3.87E-06,  avg # of iterations =  2.8

     total cpu time spent up to now is    90484.1 secs

     total energy              =   -1978.36995351 Ry
     estimated scf accuracy    <       0.00017567 Ry

     iteration #  4     ecut=    80.00 Ry     beta= 0.30
     Davidson diagonalization with overlap
     ethr =  1.69E-07,  avg # of iterations =  3.3

     total cpu time spent up to now is    90615.3 secs

     total energy              =   -1978.36998888 Ry
     estimated scf accuracy    <       0.00005662 Ry

     iteration #  5     ecut=    80.00 Ry     beta= 0.30
     Davidson diagonalization with overlap
     ethr =  5.44E-08,  avg # of iterations =  2.9

     total cpu time spent up to now is    90730.1 secs

     total energy              =   -1978.36999019 Ry
     estimated scf accuracy    <       0.00001245 Ry

     iteration #  6     ecut=    80.00 Ry     beta= 0.30
     Davidson diagonalization with overlap
     ethr =  1.20E-08,  avg # of iterations =  3.6

     total cpu time spent up to now is    90854.6 secs

     total energy              =   -1978.36999200 Ry
     estimated scf accuracy    <       0.00000162 Ry

     iteration #  7     ecut=    80.00 Ry     beta= 0.30
     Davidson diagonalization with overlap
     ethr =  1.56E-09,  avg # of iterations =  4.2

     total cpu time spent up to now is    90987.7 secs

     total energy              =   -1978.36999242 Ry
     estimated scf accuracy    <       0.00000086 Ry

     iteration #  8     ecut=    80.00 Ry     beta= 0.30
     Davidson diagonalization with overlap
     ethr =  8.30E-10,  avg # of iterations =  1.8

     total cpu time spent up to now is    91094.8 secs

     total energy              =   -1978.36999233 Ry
     estimated scf accuracy    <       0.00000066 Ry

     iteration #  9     ecut=    80.00 Ry     beta= 0.30
     Davidson diagonalization with overlap
     ethr =  6.36E-10,  avg # of iterations =  2.4

     total cpu time spent up to now is    91215.0 secs

     total energy              =   -1978.36999243 Ry
     estimated scf accuracy    <       0.00000025 Ry

     iteration # 10     ecut=    80.00 Ry     beta= 0.30
     Davidson diagonalization with overlap
     ethr =  2.41E-10,  avg # of iterations =  1.3

     total cpu time spent up to now is    91318.8 secs

     total energy              =   -1978.36999247 Ry
     estimated scf accuracy    <       0.00000024 Ry

     iteration # 11     ecut=    80.00 Ry     beta= 0.30
     Davidson diagonalization with overlap
     ethr =  2.35E-10,  avg # of iterations =  1.0

     total cpu time spent up to now is    91419.0 secs

     total energy              =   -1978.36999252 Ry
     estimated scf accuracy    <       0.00000025 Ry

     iteration # 12     ecut=    80.00 Ry     beta= 0.30
     Davidson diagonalization with overlap
     ethr =  2.35E-10,  avg # of iterations =  3.1

     total cpu time spent up to now is    91545.0 secs

     total energy              =   -1978.36999259 Ry
     estimated scf accuracy    <       0.00000083 Ry

     iteration # 13     ecut=    80.00 Ry     beta= 0.30
     Davidson diagonalization with overlap
     ethr =  2.35E-10,  avg # of iterations =  1.0

     total cpu time spent up to now is    91645.4 secs

     total energy              =   -1978.36999259 Ry
     estimated scf accuracy    <       0.00000079 Ry

     iteration # 14     ecut=    80.00 Ry     beta= 0.30
     Davidson diagonalization with overlap
     ethr =  2.35E-10,  avg # of iterations =  1.1

     total cpu time spent up to now is    91747.3 secs

     total energy              =   -1978.36999256 Ry
     estimated scf accuracy    <       0.00000063 Ry

     iteration # 15     ecut=    80.00 Ry     beta= 0.30
     Davidson diagonalization with overlap
     ethr =  2.35E-10,  avg # of iterations =  1.4

     total cpu time spent up to now is    91851.2 secs

     total energy              =   -1978.36999243 Ry
     estimated scf accuracy    <       0.00000032 Ry

     iteration # 16     ecut=    80.00 Ry     beta= 0.30
     Davidson diagonalization with overlap
     ethr =  2.35E-10,  avg # of iterations =  5.3

     total cpu time spent up to now is    92000.5 secs

     total energy              =   -1978.36999257 Ry
     estimated scf accuracy    <       0.00000144 Ry

     iteration # 17     ecut=    80.00 Ry     beta= 0.30
     Davidson diagonalization with overlap
     ethr =  2.35E-10,  avg # of iterations =  2.6

     total cpu time spent up to now is    92114.0 secs

     total energy              =   -1978.36999256 Ry
     estimated scf accuracy    <       0.00000067 Ry

     iteration # 18     ecut=    80.00 Ry     beta= 0.30
     Davidson diagonalization with overlap
     ethr =  2.35E-10,  avg # of iterations =  1.6

     total cpu time spent up to now is    92221.0 secs

     total energy              =   -1978.36999248 Ry
     estimated scf accuracy    <       0.00000043 Ry

     iteration # 19     ecut=    80.00 Ry     beta= 0.30
     Davidson diagonalization with overlap
     ethr =  2.35E-10,  avg # of iterations =  4.0

     total cpu time spent up to now is    92341.7 secs

     total energy              =   -1978.36999252 Ry
     estimated scf accuracy    <       0.00000004 Ry

     iteration # 20     ecut=    80.00 Ry     beta= 0.30
     Davidson diagonalization with overlap
     ethr =  3.37E-11,  avg # of iterations =  3.3

     total cpu time spent up to now is    92458.3 secs

     total energy              =   -1978.36999252 Ry
     estimated scf accuracy    <       0.00000002 Ry

     iteration # 21     ecut=    80.00 Ry     beta= 0.30
     Davidson diagonalization with overlap
     ethr =  2.34E-11,  avg # of iterations =  1.4

     total cpu time spent up to now is    92562.9 secs

     total energy              =   -1978.36999251 Ry
     estimated scf accuracy    <       0.00000002 Ry

     iteration # 22     ecut=    80.00 Ry     beta= 0.30
     Davidson diagonalization with overlap
     ethr =  1.96E-11,  avg # of iterations =  2.2

     total cpu time spent up to now is    92680.0 secs

     total energy              =   -1978.36999251 Ry
     estimated scf accuracy    <       0.00000001 Ry

     iteration # 23     ecut=    80.00 Ry     beta= 0.30
     Davidson diagonalization with overlap
     ethr =  1.38E-11,  avg # of iterations =  1.0

     total cpu time spent up to now is    92780.5 secs

     total energy              =   -1978.36999251 Ry
     estimated scf accuracy    <       0.00000001 Ry

     iteration # 24     ecut=    80.00 Ry     beta= 0.30
     Davidson diagonalization with overlap
     ethr =  1.06E-11,  avg # of iterations =  3.1

     total cpu time spent up to now is    92904.7 secs

     total energy              =   -1978.36999251 Ry
     estimated scf accuracy    <       0.00000002 Ry

     iteration # 25     ecut=    80.00 Ry     beta= 0.30
     Davidson diagonalization with overlap
     ethr =  1.06E-11,  avg # of iterations =  1.1

     total cpu time spent up to now is    93005.6 secs

     total energy              =   -1978.36999251 Ry
     estimated scf accuracy    <       0.00000001 Ry

     iteration # 26     ecut=    80.00 Ry     beta= 0.30
     Davidson diagonalization with overlap
     ethr =  1.06E-11,  avg # of iterations =  3.5

     total cpu time spent up to now is    93128.3 secs

     total energy              =   -1978.36999251 Ry
     estimated scf accuracy    <       0.00000001 Ry

     iteration # 27     ecut=    80.00 Ry     beta= 0.30
     Davidson diagonalization with overlap
     ethr =  1.06E-11,  avg # of iterations =  2.0

     total cpu time spent up to now is    93239.7 secs

     total energy              =   -1978.36999251 Ry
     estimated scf accuracy    <          2.2E-09 Ry

     iteration # 28     ecut=    80.00 Ry     beta= 0.30
     Davidson diagonalization with overlap
     ethr =  2.12E-12,  avg # of iterations =  3.0

     total cpu time spent up to now is    93357.1 secs

     total energy              =   -1978.36999250 Ry
     estimated scf accuracy    <          1.2E-09 Ry

     iteration # 29     ecut=    80.00 Ry     beta= 0.30
     Davidson diagonalization with overlap
     ethr =  1.20E-12,  avg # of iterations =  1.6

     total cpu time spent up to now is    93464.3 secs

     total energy              =   -1978.36999250 Ry
     estimated scf accuracy    <          1.2E-09 Ry

     iteration # 30     ecut=    80.00 Ry     beta= 0.30
     Davidson diagonalization with overlap
     ethr =  1.12E-12,  avg # of iterations =  2.3

     total cpu time spent up to now is    93577.5 secs

     total energy              =   -1978.36999250 Ry
     estimated scf accuracy    <          8.3E-10 Ry

     iteration # 31     ecut=    80.00 Ry     beta= 0.30
     Davidson diagonalization with overlap
     ethr =  7.97E-13,  avg # of iterations =  1.0

     total cpu time spent up to now is    93677.6 secs

     total energy              =   -1978.36999251 Ry
     estimated scf accuracy    <          7.6E-10 Ry

     iteration # 32     ecut=    80.00 Ry     beta= 0.30
     Davidson diagonalization with overlap
     ethr =  7.35E-13,  avg # of iterations =  1.8

     total cpu time spent up to now is    93786.3 secs

     total energy              =   -1978.36999251 Ry
     estimated scf accuracy    <          8.3E-10 Ry

     iteration # 33     ecut=    80.00 Ry     beta= 0.30
     Davidson diagonalization with overlap
     ethr =  7.35E-13,  avg # of iterations =  1.1

     total cpu time spent up to now is    93887.0 secs

     End of self-consistent calculation

          k = 0.0000 0.0000 0.0000 ( 21311 PWs)   bands (ev):

   -53.4904 -53.4839 -53.4200 -53.4110 -27.6653 -27.6618 -27.5982 -27.5899
   -27.4291 -27.4291 -27.4263 -27.4263 -27.3622 -27.3622 -27.3564 -27.3564
    -6.9039  -6.7855  -6.7563  -6.6852  -5.6348  -5.4845  -5.4157  -5.3043
     1.2744   1.6026   1.7459   2.0445   4.7203   4.7203   4.7516   4.7622
     4.7622   4.7636   4.7636   4.7853   4.7853   5.2819   5.6680   5.8482
     5.8483   5.8857   5.8857   5.9014   5.9014   5.9174   5.9175   6.3273
     6.9880   7.4059   7.6085   7.9815  10.1216  10.1216  10.1555  10.1555
    10.2052  10.2053  10.2363  10.2363  10.3580  10.3580

          k = 0.0000 0.0722 0.0000 ( 21283 PWs)   bands (ev):

   -53.4888 -53.4823 -53.4184 -53.4094 -27.6623 -27.6587 -27.5951 -27.5868
   -27.4447 -27.4420 -27.4327 -27.4298 -27.3779 -27.3722 -27.3658 -27.3600
    -6.8441  -6.7260  -6.6967  -6.6258  -5.6072  -5.4594  -5.3916  -5.2821
     1.3427   1.6705   1.8133   2.1116   4.5854   4.6081   4.6293   4.6319
     4.6513   4.7826   4.8252   4.8262   4.8480   5.0621   5.3135   5.5635
     5.7506   5.7892   5.8043   5.8217   5.9576   6.0333   6.1482   6.5253
     6.9909   7.3834   7.5637   7.8861  10.0568  10.0695  10.1260  10.1502
    10.1985  10.2084  10.2424  10.2443  10.2799  10.3047

          k = 0.0000 0.1443 0.0000 ( 21263 PWs)   bands (ev):

   -53.4844 -53.4778 -53.4140 -53.4050 -27.6536 -27.6500 -27.5863 -27.5780
   -27.4889 -27.4864 -27.4427 -27.4399 -27.4223 -27.4168 -27.3759 -27.3701
    -6.6696  -6.5525  -6.5231  -6.4533  -5.5267  -5.3862  -5.3213  -5.2179
     1.5326   1.8577   1.9981   2.2939   4.2369   4.2692   4.2857   4.2996
     4.3151   4.6554   4.8300   4.9621   5.0065   5.0068   5.0284   5.0542
     5.4986   5.5392   5.5533   5.5736   6.0283   6.1643   6.3249   6.6654
     6.9621   7.2635   7.3924   7.5902   9.7752   9.8519   9.9084   9.9412
     9.9992  10.0239  10.0767  10.1041  10.1313  10.2084

          k = 0.0000 0.2165 0.0000 ( 21233 PWs)   bands (ev):

   -53.4777 -53.4712 -53.4073 -53.3983 -27.6405 -27.6368 -27.5732 -27.5648
   -27.5544 -27.5523 -27.4882 -27.4829 -27.4577 -27.4550 -27.3909 -27.3853
    -6.3952  -6.2807  -6.2512  -6.1836  -5.4004  -5.2720  -5.2116  -5.1179
     1.7888   2.1024   2.2330   2.5120   3.8051   3.8408   3.8705   3.8740
     3.9462   4.2100   4.3300   4.5083   5.1637   5.2119   5.2262   5.2317
     5.2559   5.2833   5.2843   5.3193   5.9519   6.1225   6.2899   6.5798
     6.8164   6.9809   7.0603   7.1432   9.3947   9.5322   9.6807   9.8519
     9.8718   9.9134   9.9705   9.9894  10.0387  10.1117

          k = 0.0000 0.2887 0.0000 ( 21197 PWs)   bands (ev):

   -53.4699 -53.4633 -53.3994 -53.3903 -27.6309 -27.6292 -27.6251 -27.6213
   -27.5651 -27.5601 -27.5576 -27.5492 -27.4754 -27.4727 -27.4087 -27.4031
    -6.0467  -5.9368  -5.9077  -5.8445  -5.2406  -5.1287  -5.0743  -4.9938
     1.9855   2.2539   2.3527   2.5568   3.4111   3.4665   3.5267   3.5774
     3.6399   3.7767   3.8532   3.9721   4.8394   4.8873   4.8998   4.9220
     5.5639   5.6126   5.6176   5.6452   5.7431   5.9360   6.0903   6.3333
     6.5384   6.6123   6.6704   6.7134   9.2547   9.4358   9.6197   9.6593
     9.7198   9.7909   9.8391   9.8880  10.1860  10.3666

          k = 0.0000 0.3608 0.0000 ( 21187 PWs)   bands (ev):

   -53.4620 -53.4553 -53.3915 -53.3824 -27.7065 -27.7052 -27.6411 -27.6364
   -27.6097 -27.6057 -27.5421 -27.5335 -27.4930 -27.4904 -27.4263 -27.4208
    -5.6623  -5.5604  -5.5323  -5.4770  -5.0663  -4.9746  -4.9271  -4.8625
     1.9563   2.1372   2.1906   2.2916   3.0404   3.1787   3.2448   3.3614
     3.4220   3.5142   3.5591   3.6671   4.5503   4.5998   4.6115   4.6356
     5.5115   5.7115   5.8446   5.8845   5.9417   5.9518   5.9847   6.0554
     6.3145   6.3785   6.4315   6.4721   9.3671   9.5467   9.5521   9.6026
     9.6662   9.7077   9.7164   9.9731  10.5171  10.6955

          k = 0.0000 0.4330 0.0000 ( 21140 PWs)   bands (ev):

   -53.4553 -53.4486 -53.3847 -53.3757 -27.7699 -27.7689 -27.7048 -27.7004
   -27.5965 -27.5924 -27.5288 -27.5202 -27.5078 -27.5053 -27.4413 -27.4357
    -5.2966  -5.2069  -5.1804  -5.1374  -4.9031  -4.8341  -4.7937  -4.7459
     1.7402   1.8604   1.8893   1.9420   2.7067   2.8417   2.8822   2.9670
     3.3040   3.4169   3.4622   3.5755   4.3289   4.3796   4.3908   4.4160
     5.3381   5.5333   5.6509   5.8395   6.1408   6.2095   6.2268   6.2681
     6.3270   6.4126   6.4609   6.5244   9.5437   9.5786   9.6250   9.6343
     9.6644   9.7717   9.8969  10.0917  10.8277  10.9841

          k = 0.0000 0.5052 0.0000 ( 21078 PWs)   bands (ev):

   -53.4508 -53.4441 -53.3802 -53.3712 -27.8119 -27.8112 -27.7471 -27.7428
   -27.5877 -27.5836 -27.5200 -27.5177 -27.5153 -27.5113 -27.4512 -27.4457
    -5.0217  -4.9471  -4.9216  -4.8943  -4.7825  -4.7350  -4.7002  -4.6662
     1.5244   1.6202   1.6404   1.6795   2.4739   2.5876   2.6189   2.6889
     3.1928   3.3117   3.3539   3.4559   4.1908   4.2422   4.2531   4.2790
     5.2433   5.4314   5.5395   5.7078   6.2969   6.3760   6.3999   6.4491
     6.5144   6.6002   6.6490   6.7132   9.5917   9.6125   9.6645   9.6829
     9.9141  10.0130  10.0854  10.2010  11.0220  11.1521

          k = 0.0000-0.5774 0.0000 ( 21006 PWs)   bands (ev):

   -53.4493 -53.4426 -53.3787 -53.3696 -27.8266 -27.8259 -27.7618 -27.7576
   -27.5846 -27.5805 -27.5212 -27.5188 -27.5168 -27.5081 -27.4547 -27.4492
    -4.9159  -4.8501  -4.8250  -4.8061  -4.7377  -4.6998  -4.6665  -4.6381
     1.4368   1.5270   1.5456   1.5831   2.3905   2.4944   2.5252   2.5909
     3.1419   3.2619   3.3024   3.4009   4.1439   4.1956   4.2064   4.2325
     5.2148   5.3992   5.5038   5.6632   6.3478   6.4310   6.4576   6.5100
     6.6331   6.7039   6.7464   6.8003   9.6203   9.6357   9.6879   9.7009
    10.0708  10.1273  10.1834  10.2264  11.0838  11.1980

          k = 0.0625 0.1083 0.0000 ( 21269 PWs)   bands (ev):

   -53.4858 -53.4793 -53.4154 -53.4064 -27.6564 -27.6528 -27.5892 -27.5809
   -27.4741 -27.4715 -27.4399 -27.4371 -27.4075 -27.4019 -27.3730 -27.3673
    -6.7269  -6.6095  -6.5801  -6.5099  -5.5531  -5.4102  -5.3443  -5.2389
     1.4723   1.7986   1.9400   2.2372   4.3465   4.3785   4.3928   4.4075
     4.4126   4.7812   4.9021   4.9455   4.9456   4.9647   4.9802   5.2200
     5.5367   5.5743   5.5916   5.6067   6.0614   6.1782   6.3258   6.6683
     6.9794   7.3139   7.4565   7.6903   9.8965   9.9306   9.9395   9.9836
    10.0225  10.0297  10.0897  10.1573  10.1642  10.1875

          k = 0.0625 0.1804 0.0000 ( 21194 PWs)   bands (ev):

   -53.4803 -53.4737 -53.4098 -53.4008 -27.6455 -27.6419 -27.5782 -27.5699
   -27.5278 -27.5255 -27.4614 -27.4560 -27.4537 -27.4509 -27.3869 -27.3812
    -6.5023  -6.3867  -6.3571  -6.2886  -5.4495  -5.3163  -5.2541  -5.1566
     1.6993   2.0198   2.1558   2.4455   3.9655   4.0038   4.0201   4.0313
     4.0934   4.4080   4.5541   4.7608   5.1160   5.1600   5.1635   5.1660
     5.1931   5.2098   5.2293   5.2527   6.1226   6.2619   6.4142   6.7005
     6.8955   7.1118   7.2041   7.3154   9.5061   9.6153   9.7244   9.8309
     9.8732   9.9298   9.9669   9.9952  10.0204  10.0718

          k = 0.0625 0.2526 0.0000 ( 21202 PWs)   bands (ev):

   -53.4730 -53.4664 -53.4025 -53.3935 -27.6313 -27.6275 -27.5971 -27.5952
   -27.5639 -27.5554 -27.5312 -27.5261 -27.4716 -27.4690 -27.4049 -27.3993
    -6.1903  -6.0781  -6.0488  -5.9836  -5.3059  -5.1869  -5.1300  -5.0439
     1.9387   2.2346   2.3512   2.5997   3.5815   3.6177   3.6548   3.6754
     3.7719   3.9956   4.0896   4.2331   4.7975   4.8378   4.8530   4.8836
     5.3896   5.4364   5.4422   5.4658   6.0280   6.1771   6.3168   6.5428
     6.6808   6.7745   6.8353   6.8753   9.2364   9.3997   9.5456   9.6902
     9.7841   9.8315   9.8833   9.9119   9.9936  10.1429

          k = 0.0625 0.3248 0.0000 ( 21194 PWs)   bands (ev):

   -53.4652 -53.4585 -53.3946 -53.3856 -27.6714 -27.6699 -27.6159 -27.6119
   -27.6058 -27.6010 -27.5483 -27.5398 -27.4910 -27.4885 -27.4244 -27.4188
    -5.8222  -5.7165  -5.6878  -5.6287  -5.1375  -5.0368  -4.9864  -4.9148
     2.0291   2.2530   2.3258   2.4697   3.2386   3.3334   3.4095   3.5031
     3.5442   3.6001   3.6783   3.7454   4.4901   4.5463   4.5632   4.6085
     5.6278   5.6813   5.6928   5.7144   5.8200   5.9665   6.0871   6.2746
     6.4443   6.4876   6.5403   6.5683   9.1947   9.3678   9.4884   9.5971
     9.7100   9.7723   9.8127   9.9596  10.2455  10.4203

          k = 0.0625 0.3969 0.0000 ( 21151 PWs)   bands (ev):

   -53.4579 -53.4512 -53.3873 -53.3783 -27.7392 -27.7381 -27.6740 -27.6694
   -27.6016 -27.5975 -27.5339 -27.5253 -27.5089 -27.5064 -27.4423 -27.4368
    -5.4440  -5.3484  -5.3212  -5.2721  -4.9663  -4.8872  -4.8438  -4.7887
     1.8889   2.0344   2.0726   2.1437   2.8697   3.0020   3.0469   3.1298
     3.3789   3.4822   3.5285   3.6459   4.2891   4.3511   4.3683   4.4114
     5.5573   5.7149   5.7824   5.8120   5.8332   5.8633   5.8987   6.0183
     6.4445   6.4814   6.5203   6.5491   9.3236   9.4610   9.5367   9.6162
     9.7492   9.8098   9.8671  10.0388  10.5863  10.7456

          k = 0.0625 0.4691 0.0000 ( 21105 PWs)   bands (ev):

   -53.4523 -53.4456 -53.3817 -53.3726 -27.7907 -27.7898 -27.7257 -27.7213
   -27.5906 -27.5865 -27.5228 -27.5225 -27.5201 -27.5142 -27.4560 -27.4506
    -5.1186  -5.0372  -5.0112  -4.9769  -4.8210  -4.7647  -4.7278  -4.6885
     1.6668   1.7727   1.7963   1.8400   2.5582   2.6701   2.6981   2.7633
     3.2661   3.3852   3.4304   3.5355   4.1805   4.2357   4.2517   4.2822
     5.3694   5.5325   5.6289   5.7755   5.9121   5.9706   6.0061   6.0550
     6.6146   6.6600   6.6933   6.7326   9.5095   9.5863   9.6285   9.6784
     9.8834   9.9535  10.0170  10.1486  10.9025  11.0337

          k = 0.0625 0.5413 0.0000 ( 21084 PWs)   bands (ev):

   -53.4493 -53.4426 -53.3787 -53.3696 -27.8183 -27.8176 -27.7535 -27.7492
   -27.5847 -27.5805 -27.5299 -27.5275 -27.5168 -27.5081 -27.4634 -27.4580
    -4.9222  -4.8546  -4.8294  -4.8092  -4.7352  -4.6961  -4.6627  -4.6334
     1.5156   1.6073   1.6263   1.6643   2.3824   2.4790   2.5057   2.5642
     3.1711   3.2947   3.3365   3.4350   4.1372   4.1823   4.2037   4.2149
     5.2657   5.4321   5.5290   5.6716   5.9984   6.0732   6.1097   6.1538
     6.7687   6.8231   6.8584   6.9023   9.6199   9.6423   9.6848   9.7050
    10.0618  10.1263  10.1780  10.2438  11.1299  11.2258

          k = 0.1250 0.2165 0.0000 ( 21179 PWs)   bands (ev):

   -53.4741 -53.4675 -53.4036 -53.3946 -27.6335 -27.6297 -27.5831 -27.5811
   -27.5661 -27.5576 -27.5170 -27.5119 -27.4725 -27.4699 -27.4058 -27.4002
    -6.2396  -6.1268  -6.0974  -6.0315  -5.3282  -5.2068  -5.1490  -5.0610
     1.9198   2.2248   2.3475   2.6115   3.6512   3.6861   3.7131   3.7253
     3.8648   4.1430   4.2556   4.4163   4.6663   4.6958   4.7158   4.7505
     5.3105   5.3562   5.3635   5.3839   6.2137   6.3388   6.4655   6.6654
     6.7489   6.8483   6.9153   6.9412   9.2252   9.3778   9.5072   9.6559
     9.7662   9.8202   9.8431   9.8772   9.9305  10.0271

          k = 0.1250 0.2887 0.0000 ( 21199 PWs)   bands (ev):

   -53.4669 -53.4602 -53.3963 -53.3873 -27.6466 -27.6450 -27.6192 -27.6153
   -27.5809 -27.5760 -27.5517 -27.5432 -27.4959 -27.4933 -27.4292 -27.4237
    -5.9064  -5.7988  -5.7699  -5.7090  -5.1743  -5.0690  -5.0169  -4.9417
     2.0745   2.3292   2.4173   2.5980   3.4055   3.4465   3.5046   3.5820
     3.6504   3.7847   3.8404   3.8993   4.2298   4.3036   4.3507   4.4576
     5.4199   5.4700   5.4870   5.5061   6.1463   6.2582   6.3596   6.4991
     6.5582   6.5696   6.6206   6.6413   9.0619   9.2406   9.3776   9.5258
     9.7634   9.8090   9.8438   9.9070  10.0057  10.1636

          k = 0.1250 0.3608 0.0000 ( 21195 PWs)   bands (ev):

   -53.4596 -53.4529 -53.3890 -53.3800 -27.7090 -27.7077 -27.6436 -27.6389
   -27.6049 -27.6009 -27.5373 -27.5287 -27.5196 -27.5172 -27.4531 -27.4476
    -5.5406  -5.4414  -5.4136  -5.3611  -5.0058  -4.9202  -4.8747  -4.8146
     2.0367   2.2130   2.2623   2.3586   3.0688   3.1704   3.2180   3.2725
     3.4704   3.5488   3.6001   3.7058   4.0317   4.1579   4.2180   4.3288
     5.3710   5.4247   5.4523   5.4740   5.9287   6.0328   6.1083   6.2256
     6.5001   6.5195   6.5698   6.5807   9.0945   9.2827   9.4271   9.5891
     9.8350   9.8775   9.9105  10.0101  10.2398  10.4038

          k = 0.1250 0.4330 0.0000 ( 21113 PWs)   bands (ev):

   -53.4534 -53.4467 -53.3828 -53.3738 -27.7613 -27.7603 -27.6962 -27.6917
   -27.5928 -27.5887 -27.5398 -27.5375 -27.5251 -27.5164 -27.4734 -27.4680
    -5.1948  -5.1083  -5.0818  -5.0422  -4.8471  -4.7838  -4.7450  -4.7008
     1.8719   1.9972   2.0269   2.0831   2.6598   2.7487   2.7634   2.8097
     3.3887   3.5062   3.5570   3.6566   4.0027   4.1242   4.1763   4.2655
     5.3162   5.3924   5.4245   5.4698   5.6576   5.7565   5.8272   5.9324
     6.6365   6.6592   6.7051   6.7194   9.2978   9.4699   9.6013   9.7505
     9.9433   9.9758  10.0132  10.0778  10.5544  10.6899

          k = 0.1250 0.5052 0.0000 ( 21081 PWs)   bands (ev):

   -53.4493 -53.4426 -53.3787 -53.3696 -27.7959 -27.7951 -27.7310 -27.7266
   -27.5847 -27.5805 -27.5533 -27.5511 -27.5169 -27.5081 -27.4870 -27.4816
    -4.9368  -4.8655  -4.8398  -4.8164  -4.7293  -4.6873  -4.6536  -4.6221
     1.7210   1.8205   1.8421   1.8829   2.3672   2.4435   2.4600   2.5020
     3.2626   3.3946   3.4397   3.5330   4.0523   4.1469   4.1810   4.2363
     5.3153   5.4234   5.4513   5.4812   5.5250   5.5508   5.6117   5.7198
     6.8203   6.8605   6.8984   6.9302   9.5113   9.6058   9.6641   9.7312
    10.0909  10.1481  10.1946  10.2778  10.8373  10.9301

          k = 0.1250 0.5774 0.0000 ( 21108 PWs)   bands (ev):

   -53.4478 -53.4411 -53.3772 -53.3681 -27.8080 -27.8073 -27.7432 -27.7389
   -27.5818 -27.5776 -27.5581 -27.5558 -27.5140 -27.5053 -27.4918 -27.4864
    -4.8378  -4.7754  -4.7506  -4.7351  -4.6855  -4.6532  -4.6203  -4.5942
     1.6623   1.7533   1.7720   1.8108   2.2629   2.3349   2.3540   2.3947
     3.2001   3.3333   3.3767   3.4700   4.1024   4.1640   4.1883   4.2233
     5.2754   5.4063   5.4332   5.4770   5.5145   5.5194   5.5689   5.6491
     6.9114   6.9619   6.9992   7.0395   9.5867   9.6097   9.6487   9.6743
    10.2056  10.2740  10.3248  10.3702  10.9514  11.0501

          k = 0.1875 0.3248 0.0000 ( 21195 PWs)   bands (ev):

   -53.4602 -53.4535 -53.3896 -53.3806 -27.6954 -27.6940 -27.6299 -27.6252
   -27.6061 -27.6021 -27.5385 -27.5299 -27.5264 -27.5240 -27.4599 -27.4545
    -5.5741  -5.4738  -5.4458  -5.3921  -5.0191  -4.9313  -4.8850  -4.8232
     2.0995   2.2914   2.3463   2.4561   3.1982   3.2640   3.3193   3.3421
     3.5096   3.5719   3.6298   3.7023   3.8921   4.0463   4.1304   4.2791
     5.1974   5.2506   5.2786   5.3005   6.0932   6.1805   6.2372   6.3339
     6.5027   6.5303   6.5780   6.5938   9.0070   9.2104   9.3733   9.5706
     9.8563   9.8881   9.9242   9.9800  10.0958  10.2569

          k = 0.1875 0.3969 0.0000 ( 21153 PWs)   bands (ev):

   -53.4540 -53.4473 -53.3834 -53.3744 -27.7374 -27.7363 -27.6722 -27.6676
   -27.5940 -27.5899 -27.5573 -27.5550 -27.5263 -27.5176 -27.4909 -27.4856
    -5.2366  -5.1474  -5.1205  -5.0781  -4.8601  -4.7929  -4.7529  -4.7058
     2.0263   2.1719   2.2078   2.2794   2.7508   2.8062   2.8108   2.8398
     3.5199   3.6144   3.6725   3.7532   3.8980   4.0372   4.1204   4.2548
     4.8818   4.9434   4.9764   5.0090   5.8683   5.9338   5.9827   6.0491
     6.6032   6.6343   6.6782   6.7034   9.1583   9.3720   9.5511   9.8149
     9.9742   9.9837  10.0342  10.0491  10.2775  10.4231

          k = 0.1875 0.4691 0.0000 ( 21101 PWs)   bands (ev):

   -53.4493 -53.4426 -53.3787 -53.3696 -27.7680 -27.7670 -27.7029 -27.6985
   -27.5847 -27.5823 -27.5805 -27.5801 -27.5169 -27.5160 -27.5108 -27.5082
    -4.9507  -4.8762  -4.8501  -4.8236  -4.7237  -4.6787  -4.6444  -4.6108
     1.9517   2.0700   2.0978   2.1473   2.3573   2.4083   2.4201   2.4439
     3.4293   3.5699   3.6150   3.6763   3.9592   4.1004   4.1703   4.2750
     4.6925   4.7902   4.8313   4.9054   5.5728   5.6417   5.7075   5.7594
     6.8084   6.8307   6.8787   6.8949   9.3708   9.5168   9.6173   9.7403
    10.1307  10.1809  10.2206  10.3130  10.5010  10.5906

          k = 0.1875 0.5413 0.0000 ( 21112 PWs)   bands (ev):

   -53.4467 -53.4400 -53.3761 -53.3670 -27.7840 -27.7832 -27.7191 -27.7147
   -27.5962 -27.5941 -27.5797 -27.5754 -27.5301 -27.5248 -27.5118 -27.5031
    -4.7800  -4.7198  -4.6955  -4.6819  -4.6427  -4.6150  -4.5822  -4.5576
     1.9199   2.0191   2.0421   2.0841   2.1463   2.1909   2.2109   2.2340
     3.2833   3.4263   3.4710   3.5515   4.0903   4.1912   4.2352   4.2987
     4.6460   4.7713   4.8175   4.8989   5.3693   5.4382   5.5028   5.5617
     6.9906   7.0261   7.0679   7.0976   9.4326   9.4806   9.5157   9.5549
    10.3253  10.4108  10.4710  10.5631  10.6333  10.6755

          k = 0.2500 0.4330 0.0000 ( 21125 PWs)   bands (ev):

   -53.4493 -53.4426 -53.3787 -53.3696 -27.7535 -27.7524 -27.6884 -27.6839
   -27.5972 -27.5951 -27.5847 -27.5805 -27.5311 -27.5258 -27.5169 -27.5082
    -4.9564  -4.8806  -4.8543  -4.8266  -4.7214  -4.6752  -4.6406  -4.6061
     2.0560   2.1868   2.2197   2.2714   2.3571   2.3956   2.4090   2.4197
     3.6085   3.6737   3.7528   3.7896   3.9702   4.0958   4.1789   4.3071
     4.3911   4.4340   4.4740   4.4847   5.6459   5.6755   5.7601   5.7869
     6.7921   6.8128   6.8618   6.8782   9.3114   9.4739   9.5895   9.7353
    10.1430  10.1858  10.2226  10.3186  10.3707  10.4716

          k = 0.2500 0.5052 0.0000 ( 21117 PWs)   bands (ev):

   -53.4461 -53.4394 -53.3755 -53.3664 -27.7582 -27.7573 -27.6932 -27.6887
   -27.6298 -27.6279 -27.5785 -27.5743 -27.5638 -27.5587 -27.5106 -27.5019
    -4.7517  -4.6918  -4.6677  -4.6545  -4.6174  -4.5921  -4.5596  -4.5352
     2.0360   2.0912   2.1010   2.1235   2.2014   2.2897   2.3151   2.3657
     3.4545   3.5982   3.6377   3.6610   4.0115   4.0972   4.1595   4.2048
     4.2107   4.2789   4.3452   4.4180   5.3729   5.4084   5.4974   5.5282
     7.0364   7.0529   7.1054   7.1167   9.2969   9.3624   9.3999   9.4538
    10.3088  10.3512  10.4218  10.4383  10.5879  10.6255

          k = 0.2500 0.5774 0.0000 ( 21116 PWs)   bands (ev):

   -53.4450 -53.4383 -53.3744 -53.3653 -27.7581 -27.7571 -27.6930 -27.6886
   -27.6431 -27.6412 -27.5771 -27.5763 -27.5721 -27.5720 -27.5084 -27.4997
    -4.6729  -4.6225  -4.6065  -4.5898  -4.5810  -4.5635  -4.5266  -4.5100
     1.9407   1.9956   1.9977   2.0202   2.2884   2.3599   2.3767   2.4167
     3.3013   3.4365   3.4764   3.5347   3.9616   4.1025   4.1522   4.2073
     4.2838   4.3423   4.3968   4.4459   5.2614   5.2752   5.3692   5.3900
     7.1621   7.1857   7.2344   7.2543   9.2250   9.2449   9.2855   9.2958
    10.3372  10.4003  10.4243  10.5001  10.7398  10.7777

          k = 0.3125 0.5413 0.0000 ( 21100 PWs)   bands (ev):

   -53.4444 -53.4377 -53.3738 -53.3647 -27.7370 -27.7361 -27.6720 -27.6715
   -27.6697 -27.6676 -27.6056 -27.6005 -27.5751 -27.5709 -27.5073 -27.4985
    -4.6341  -4.5879  -4.5777  -4.5629  -4.5541  -4.5448  -4.5038  -4.4931
     1.8736   1.9255   1.9298   1.9470   2.5057   2.5981   2.6204   2.6613
     3.3122   3.3462   3.3855   3.4173   3.8008   3.8504   3.8569   3.8826
     4.3363   4.4054   4.4574   4.5004   5.1712   5.1946   5.2986   5.3192
     7.2496   7.2614   7.3198   7.3259   9.1046   9.1273   9.1631   9.1762
    10.2844  10.3110  10.3325  10.4256  10.8398  10.8899

     the Fermi energy is     8.4122 ev

!    total energy              =   -1978.36999251 Ry
     total all-electron energy =    -38771.690837 Ry
     estimated scf accuracy    <          6.1E-10 Ry
     smearing contrib. (-TS)   =       0.00006612 Ry
     internal energy E=F+TS    =   -1978.37005863 Ry

     The total energy is F=E-TS. E is the sum of the following terms:
     one-electron contribution =   -1613.35396822 Ry
     hartree contribution      =     848.92037220 Ry
     xc contribution           =    -119.30890677 Ry
     ewald contribution        =     175.23091539 Ry
     one-center paw contrib.   =   -1269.85847123 Ry

     convergence has been achieved in  33 iterations

     Forces acting on atoms (cartesian axes, Ry/au):

     atom    1 type  2   force =     0.00000000    0.00000000   -0.01143188
     atom    2 type  1   force =     0.00000000    0.00000000    0.00026278
     atom    3 type  2   force =     0.00000000    0.00000000    0.01411539
     atom    4 type  2   force =     0.00000000    0.00000000   -0.00652088
     atom    5 type  1   force =     0.00000000    0.00000000   -0.00675120
     atom    6 type  2   force =     0.00000000    0.00000000    0.00804234
     atom    7 type  2   force =     0.00000000    0.00000000   -0.00596844
     atom    8 type  1   force =     0.00000000    0.00000000    0.00211314
     atom    9 type  2   force =     0.00000000    0.00000000    0.00931774
     atom   10 type  2   force =     0.00000000    0.00000000   -0.00375803
     atom   11 type  1   force =     0.00000000    0.00000000   -0.00216637
     atom   12 type  2   force =     0.00000000   -0.00000000    0.00274542

     Total force =     0.025220     Total SCF correction =     0.000080
     Energy error            =      9.0E-04 Ry
     Gradient error          =      1.4E-02 Ry/Bohr

     number of scf cycles    =  27
     number of bfgs steps    =  26

     energy             old  =   -1978.3690883030 Ry
     energy             new  =   -1978.3699925075 Ry

     CASE: energy            _new < energy            _old

     new trust radius        =       0.2231082342 bohr
     new conv_thr            =       0.0000000009 Ry


ATOMIC_POSITIONS (crystal)
S                0.3333330000        0.6666670000       -0.1051162488
Mo              -0.0000000000       -0.0000000000       -0.0533381602
S                0.3333330000        0.6666670000       -0.0015615591
S                0.6666670000        0.3333330000        0.1059627297
Mo               0.3333330000        0.6666670000        0.1582655669
S                0.6666670000        0.3333330000        0.2101387829
S               -0.0000000000       -0.0000000000        0.3079726595
Mo               0.6666670000        0.3333330000        0.3600459989
S                0.0000000000        0.0000000000        0.4121362173
S                0.3333330000        0.6666670000        0.5211725821
Mo               0.0000000000        0.0000000000        0.5735467944
S                0.3333330000        0.6666670000        0.6257746365



     Writing config-only to output data dir ./tmp/relax/mos2_slab.save/ :
     XML data file
     NEW-OLD atomic charge density approx. for the potential

     total cpu time spent up to now is    93942.2 secs

     Self-consistent Calculation

     iteration #  1     ecut=    80.00 Ry     beta= 0.30
     Davidson diagonalization with overlap
     c_bands:  2 eigenvalues not converged
     ethr =  1.00E-06,  avg # of iterations = 11.5

     total cpu time spent up to now is    94375.4 secs

     total energy              =   -1978.37405929 Ry
     estimated scf accuracy    <       0.01540865 Ry

     iteration #  2     ecut=    80.00 Ry     beta= 0.30
     Davidson diagonalization with overlap
     ethr =  1.48E-05,  avg # of iterations =  1.0

     negative rho (up, down):  5.075E-08 0.000E+00

     total cpu time spent up to now is    94475.8 secs

     total energy              =   -1978.37023028 Ry
     estimated scf accuracy    <       0.00919403 Ry

     iteration #  3     ecut=    80.00 Ry     beta= 0.30
     Davidson diagonalization with overlap
     ethr =  8.84E-06,  avg # of iterations =  3.1

     total cpu time spent up to now is    94598.8 secs

     total energy              =   -1978.37108758 Ry
     estimated scf accuracy    <       0.00053876 Ry

     iteration #  4     ecut=    80.00 Ry     beta= 0.30
     Davidson diagonalization with overlap
     ethr =  5.18E-07,  avg # of iterations =  4.0

     total cpu time spent up to now is    94730.9 secs

     total energy              =   -1978.37119101 Ry
     estimated scf accuracy    <       0.00018231 Ry

     iteration #  5     ecut=    80.00 Ry     beta= 0.30
     Davidson diagonalization with overlap
     ethr =  1.75E-07,  avg # of iterations =  2.4

     total cpu time spent up to now is    94843.4 secs

     total energy              =   -1978.37119322 Ry
     estimated scf accuracy    <       0.00004206 Ry

     iteration #  6     ecut=    80.00 Ry     beta= 0.30
     Davidson diagonalization with overlap
     ethr =  4.04E-08,  avg # of iterations =  3.8

     total cpu time spent up to now is    94968.5 secs

     total energy              =   -1978.37119800 Ry
     estimated scf accuracy    <       0.00000928 Ry

     iteration #  7     ecut=    80.00 Ry     beta= 0.30
     Davidson diagonalization with overlap
     ethr =  8.92E-09,  avg # of iterations =  3.0

     total cpu time spent up to now is    95099.3 secs

     total energy              =   -1978.37119905 Ry
     estimated scf accuracy    <       0.00000241 Ry

     iteration #  8     ecut=    80.00 Ry     beta= 0.30
     Davidson diagonalization with overlap
     ethr =  2.32E-09,  avg # of iterations =  4.1

     total cpu time spent up to now is    95227.0 secs

     total energy              =   -1978.37119885 Ry
     estimated scf accuracy    <       0.00000300 Ry

     iteration #  9     ecut=    80.00 Ry     beta= 0.30
     Davidson diagonalization with overlap
     ethr =  2.32E-09,  avg # of iterations =  2.4

     total cpu time spent up to now is    95346.2 secs

     total energy              =   -1978.37119919 Ry
     estimated scf accuracy    <       0.00000098 Ry

     iteration # 10     ecut=    80.00 Ry     beta= 0.30
     Davidson diagonalization with overlap
     ethr =  9.45E-10,  avg # of iterations =  2.6

     total cpu time spent up to now is    95458.7 secs

     total energy              =   -1978.37119927 Ry
     estimated scf accuracy    <       0.00000071 Ry

     iteration # 11     ecut=    80.00 Ry     beta= 0.30
     Davidson diagonalization with overlap
     ethr =  6.84E-10,  avg # of iterations =  1.3

     total cpu time spent up to now is    95562.5 secs

     total energy              =   -1978.37119923 Ry
     estimated scf accuracy    <       0.00000050 Ry

     iteration # 12     ecut=    80.00 Ry     beta= 0.30
     Davidson diagonalization with overlap
     ethr =  4.80E-10,  avg # of iterations =  2.0

     total cpu time spent up to now is    95675.0 secs

     total energy              =   -1978.37119922 Ry
     estimated scf accuracy    <       0.00000042 Ry

     iteration # 13     ecut=    80.00 Ry     beta= 0.30
     Davidson diagonalization with overlap
     ethr =  4.02E-10,  avg # of iterations =  1.0

     total cpu time spent up to now is    95775.3 secs

     total energy              =   -1978.37119924 Ry
     estimated scf accuracy    <       0.00000034 Ry

     iteration # 14     ecut=    80.00 Ry     beta= 0.30
     Davidson diagonalization with overlap
     ethr =  3.23E-10,  avg # of iterations =  2.6

     total cpu time spent up to now is    95898.2 secs

     total energy              =   -1978.37119925 Ry
     estimated scf accuracy    <       0.00000032 Ry

     iteration # 15     ecut=    80.00 Ry     beta= 0.30
     Davidson diagonalization with overlap
     ethr =  3.07E-10,  avg # of iterations =  2.0

     total cpu time spent up to now is    96009.7 secs

     total energy              =   -1978.37119927 Ry
     estimated scf accuracy    <       0.00000015 Ry

     iteration # 16     ecut=    80.00 Ry     beta= 0.30
     Davidson diagonalization with overlap
     ethr =  1.48E-10,  avg # of iterations =  1.2

     total cpu time spent up to now is    96111.6 secs

     total energy              =   -1978.37119918 Ry
     estimated scf accuracy    <       0.00000011 Ry

     iteration # 17     ecut=    80.00 Ry     beta= 0.30
     Davidson diagonalization with overlap
     ethr =  1.07E-10,  avg # of iterations =  2.9

     total cpu time spent up to now is    96228.7 secs

     total energy              =   -1978.37119919 Ry
     estimated scf accuracy    <       0.00000008 Ry

     iteration # 18     ecut=    80.00 Ry     beta= 0.30
     Davidson diagonalization with overlap
     ethr =  7.32E-11,  avg # of iterations =  1.0

     total cpu time spent up to now is    96329.1 secs

     total energy              =   -1978.37119919 Ry
     estimated scf accuracy    <       0.00000007 Ry

     iteration # 19     ecut=    80.00 Ry     beta= 0.30
     Davidson diagonalization with overlap
     ethr =  6.34E-11,  avg # of iterations =  2.3

     total cpu time spent up to now is    96445.3 secs

     total energy              =   -1978.37119921 Ry
     estimated scf accuracy    <       0.00000006 Ry

     iteration # 20     ecut=    80.00 Ry     beta= 0.30
     Davidson diagonalization with overlap
     ethr =  6.18E-11,  avg # of iterations =  1.0

     total cpu time spent up to now is    96545.5 secs

     total energy              =   -1978.37119918 Ry
     estimated scf accuracy    <       0.00000006 Ry

     iteration # 21     ecut=    80.00 Ry     beta= 0.30
     Davidson diagonalization with overlap
     ethr =  5.49E-11,  avg # of iterations =  3.2

     total cpu time spent up to now is    96672.4 secs

     total energy              =   -1978.37119919 Ry
     estimated scf accuracy    <       0.00000007 Ry

     iteration # 22     ecut=    80.00 Ry     beta= 0.30
     Davidson diagonalization with overlap
     ethr =  5.49E-11,  avg # of iterations =  2.9

     total cpu time spent up to now is    96795.1 secs

     total energy              =   -1978.37119920 Ry
     estimated scf accuracy    <       0.00000002 Ry

     iteration # 23     ecut=    80.00 Ry     beta= 0.30
     Davidson diagonalization with overlap
     ethr =  2.28E-11,  avg # of iterations =  2.1

     total cpu time spent up to now is    96907.0 secs

     total energy              =   -1978.37119922 Ry
     estimated scf accuracy    <       0.00000001 Ry

     iteration # 24     ecut=    80.00 Ry     beta= 0.30
     Davidson diagonalization with overlap
     ethr =  1.09E-11,  avg # of iterations =  2.0

     total cpu time spent up to now is    97022.8 secs

     total energy              =   -1978.37119922 Ry
     estimated scf accuracy    <       0.00000001 Ry

     iteration # 25     ecut=    80.00 Ry     beta= 0.30
     Davidson diagonalization with overlap
     ethr =  1.09E-11,  avg # of iterations =  1.0

     total cpu time spent up to now is    97123.7 secs

     total energy              =   -1978.37119922 Ry
     estimated scf accuracy    <          9.3E-09 Ry

     iteration # 26     ecut=    80.00 Ry     beta= 0.30
     Davidson diagonalization with overlap
     ethr =  8.96E-12,  avg # of iterations =  1.6

     total cpu time spent up to now is    97230.1 secs

     total energy              =   -1978.37119923 Ry
     estimated scf accuracy    <          7.2E-09 Ry

     iteration # 27     ecut=    80.00 Ry     beta= 0.30
     Davidson diagonalization with overlap
     ethr =  6.95E-12,  avg # of iterations =  1.9

     total cpu time spent up to now is    97340.4 secs

     total energy              =   -1978.37119923 Ry
     estimated scf accuracy    <          7.4E-09 Ry

     iteration # 28     ecut=    80.00 Ry     beta= 0.30
     Davidson diagonalization with overlap
     ethr =  6.95E-12,  avg # of iterations =  1.2

     total cpu time spent up to now is    97443.4 secs

     total energy              =   -1978.37119922 Ry
     estimated scf accuracy    <          5.2E-09 Ry

     iteration # 29     ecut=    80.00 Ry     beta= 0.30
     Davidson diagonalization with overlap
     ethr =  5.02E-12,  avg # of iterations =  2.6

     total cpu time spent up to now is    97559.0 secs

     total energy              =   -1978.37119923 Ry
     estimated scf accuracy    <          6.5E-09 Ry

     iteration # 30     ecut=    80.00 Ry     beta= 0.30
     Davidson diagonalization with overlap
     ethr =  5.02E-12,  avg # of iterations =  1.7

     total cpu time spent up to now is    97668.0 secs

     total energy              =   -1978.37119922 Ry
     estimated scf accuracy    <          2.6E-09 Ry

     iteration # 31     ecut=    80.00 Ry     beta= 0.30
     Davidson diagonalization with overlap
     ethr =  2.46E-12,  avg # of iterations =  2.1

     total cpu time spent up to now is    97786.7 secs

     total energy              =   -1978.37119922 Ry
     estimated scf accuracy    <          2.7E-09 Ry

     iteration # 32     ecut=    80.00 Ry     beta= 0.30
     Davidson diagonalization with overlap
     ethr =  2.46E-12,  avg # of iterations =  1.6

     total cpu time spent up to now is    97893.4 secs

     total energy              =   -1978.37119922 Ry
     estimated scf accuracy    <          1.0E-09 Ry

     iteration # 33     ecut=    80.00 Ry     beta= 0.30
     Davidson diagonalization with overlap
     ethr =  9.64E-13,  avg # of iterations =  3.3

     total cpu time spent up to now is    98013.1 secs

     End of self-consistent calculation

          k = 0.0000 0.0000 0.0000 ( 21311 PWs)   bands (ev):

   -53.4955 -53.4799 -53.4207 -53.4046 -27.6707 -27.6580 -27.5991 -27.5848
   -27.4345 -27.4345 -27.4225 -27.4225 -27.3632 -27.3631 -27.3518 -27.3518
    -6.9046  -6.8015  -6.7640  -6.6837  -5.6416  -5.4951  -5.4121  -5.2964
     1.2598   1.5622   1.7544   2.0584   4.7217   4.7217   4.7258   4.7466
     4.7466   4.7542   4.7542   4.7817   4.7817   5.2442   5.7082   5.8498
     5.8499   5.8771   5.8771   5.8902   5.8902   5.9145   5.9145   6.3661
     6.9866   7.4376   7.6732   7.9895  10.1213  10.1213  10.1519  10.1519
    10.2016  10.2017  10.2415  10.2416  10.3541  10.3542

          k = 0.0000 0.0722 0.0000 ( 21283 PWs)   bands (ev):

   -53.4939 -53.4783 -53.4192 -53.4030 -27.6677 -27.6550 -27.5960 -27.5816
   -27.4501 -27.4381 -27.4381 -27.4260 -27.3788 -27.3676 -27.3667 -27.3554
    -6.8447  -6.7419  -6.7045  -6.6244  -5.6140  -5.4698  -5.3882  -5.2744
     1.3283   1.6297   1.8213   2.1256   4.5836   4.5883   4.6147   4.6211
     4.6476   4.7841   4.8096   4.8168   4.8443   5.0320   5.3357   5.5703
     5.7520   5.7807   5.7930   5.8188   5.9531   6.0213   6.1555   6.5515
     6.9900   7.4144   7.6220   7.8932  10.0541  10.0698  10.1243  10.1569
    10.1970  10.2137  10.2351  10.2468  10.2769  10.3006

          k = 0.0000 0.1443 0.0000 ( 21263 PWs)   bands (ev):

   -53.4895 -53.4739 -53.4147 -53.3986 -27.6590 -27.6462 -27.5873 -27.5728
   -27.4943 -27.4826 -27.4481 -27.4361 -27.4233 -27.4123 -27.3768 -27.3656
    -6.6700  -6.5682  -6.5310  -6.4518  -5.5334  -5.3961  -5.3185  -5.2106
     1.5187   1.8160   2.0044   2.3075   4.2373   4.2530   4.2736   4.2906
     4.3054   4.6331   4.8490   4.9635   4.9914   4.9972   5.0248   5.0624
     5.4996   5.5311   5.5418   5.5709   6.0218   6.1488   6.3339   6.6848
     6.9618   7.2881   7.4318   7.5961   9.7780   9.8579   9.9102   9.9450
    10.0078  10.0369  10.0760  10.1196  10.1290  10.1756

          k = 0.0000 0.2165 0.0000 ( 21233 PWs)   bands (ev):

   -53.4828 -53.4672 -53.4080 -53.3918 -27.6460 -27.6331 -27.5741 -27.5599
   -27.5595 -27.5485 -27.4892 -27.4787 -27.4631 -27.4512 -27.3919 -27.3807
    -6.3953  -6.2959  -6.2594  -6.1822  -5.4068  -5.2809  -5.2099  -5.1115
     1.7765   2.0599   2.2357   2.5240   3.8034   3.8283   3.8590   3.8696
     3.9328   4.1962   4.3467   4.5144   5.1660   5.2028   5.2163   5.2273
     5.2536   5.2701   5.2751   5.3172   5.9440   6.1076   6.3017   6.5967
     6.8158   6.9932   7.0776   7.1495   9.3960   9.5373   9.6982   9.8503
     9.8839   9.9112   9.9747   9.9874  10.0503  10.1316

          k = 0.0000 0.2887 0.0000 ( 21197 PWs)   bands (ev):

   -53.4750 -53.4593 -53.4001 -53.3839 -27.6364 -27.6305 -27.6254 -27.6175
   -27.5662 -27.5585 -27.5560 -27.5438 -27.4808 -27.4689 -27.4096 -27.3985
    -6.0463  -5.9513  -5.9165  -5.8434  -5.2467  -5.1365  -5.0741  -4.9883
     1.9763   2.2148   2.3494   2.5634   3.4039   3.4519   3.5122   3.5706
     3.6331   3.7814   3.8687   3.9734   4.8403   4.8789   4.8879   4.9191
     5.5642   5.6025   5.6057   5.6422   5.7343   5.9223   6.1048   6.3488
     6.5368   6.6160   6.6764   6.7194   9.2529   9.4368   9.6420   9.6575
     9.7175   9.7890   9.8492   9.9075  10.1882  10.3810

          k = 0.0000 0.3608 0.0000 ( 21187 PWs)   bands (ev):

   -53.4671 -53.4514 -53.3922 -53.3760 -27.7120 -27.7015 -27.6421 -27.6325
   -27.6151 -27.6019 -27.5430 -27.5281 -27.4984 -27.4866 -27.4273 -27.4163
    -5.6613  -5.5739  -5.5420  -5.4763  -5.0720  -4.9811  -4.9288  -4.8582
     1.9513   2.1093   2.1830   2.2932   3.0342   3.1538   3.2295   3.3624
     3.4168   3.5217   3.5681   3.6682   4.5510   4.5914   4.5995   4.6328
     5.5020   5.6974   5.8586   5.8840   5.9323   5.9408   5.9824   6.0693
     6.3124   6.3809   6.4360   6.4753   9.3630   9.5439   9.5503   9.6006
     9.6638   9.7157   9.7371   9.9920  10.5186  10.7048

          k = 0.0000 0.4330 0.0000 ( 21140 PWs)   bands (ev):

   -53.4604 -53.4446 -53.3855 -53.3692 -27.7755 -27.7652 -27.7059 -27.6966
   -27.6019 -27.5887 -27.5297 -27.5147 -27.5133 -27.5015 -27.4422 -27.4313
    -5.2947  -5.2192  -5.1911  -5.1376  -4.9081  -4.8393  -4.7974  -4.7428
     1.7381   1.8419   1.8802   1.9413   2.7030   2.8222   2.8738   2.9691
     3.3007   3.4067   3.4638   3.5785   4.3295   4.3711   4.3788   4.4133
     5.3286   5.5185   5.6630   5.8529   6.1396   6.2001   6.2175   6.2671
     6.3235   6.4120   6.4651   6.5285   9.5421   9.5770   9.6203   9.6315
     9.6700   9.7667   9.9118  10.1062  10.8276  10.9895

          k = 0.0000 0.5052 0.0000 ( 21078 PWs)   bands (ev):

   -53.4559 -53.4402 -53.3810 -53.3647 -27.8175 -27.8075 -27.7481 -27.7391
   -27.5931 -27.5798 -27.5232 -27.5208 -27.5115 -27.5058 -27.4522 -27.4413
    -5.0188  -4.9581  -4.9326  -4.8958  -4.7868  -4.7395  -4.7054  -4.6645
     1.5239   1.6066   1.6313   1.6773   2.4730   2.5720   2.6091   2.6910
     3.1894   3.2989   3.3525   3.4580   4.1913   4.2336   4.2411   4.2763
     5.2339   5.4172   5.5503   5.7209   6.2952   6.3663   6.3919   6.4493
     6.5100   6.5968   6.6514   6.7181   9.5904   9.6107   9.6619   9.6860
     9.9103  10.0085  10.0923  10.2100  11.0195  11.1537

          k = 0.0000-0.5774 0.0000 ( 21006 PWs)   bands (ev):

   -53.4543 -53.4386 -53.3794 -53.3631 -27.8322 -27.8222 -27.7629 -27.7540
   -27.5900 -27.5767 -27.5266 -27.5177 -27.5150 -27.5026 -27.4556 -27.4448
    -4.9126  -4.8607  -4.8352  -4.8087  -4.7413  -4.7045  -4.6722  -4.6373
     1.4368   1.5144   1.5370   1.5806   2.3909   2.4797   2.5144   2.5931
     3.1383   3.2488   3.3003   3.4026   4.1444   4.1870   4.1944   4.2298
     5.2055   5.3856   5.5140   5.6761   6.3459   6.4212   6.4501   6.5107
     6.6290   6.7002   6.7469   6.8049   9.6194   9.6336   9.6856   9.7029
    10.0680  10.1266  10.1829  10.2321  11.0803  11.1972

          k = 0.0625 0.1083 0.0000 ( 21269 PWs)   bands (ev):

   -53.4909 -53.4753 -53.4161 -53.4000 -27.6618 -27.6490 -27.5901 -27.5757
   -27.4795 -27.4677 -27.4453 -27.4333 -27.4084 -27.3974 -27.3740 -27.3627
    -6.7274  -6.6252  -6.5880  -6.5084  -5.5598  -5.4203  -5.3414  -5.2315
     1.4582   1.7572   1.9470   2.2510   4.3471   4.3608   4.3806   4.3927
     4.4089   4.7564   4.9036   4.9303   4.9362   4.9625   4.9992   5.2287
     5.5385   5.5655   5.5806   5.6037   6.0557   6.1634   6.3333   6.6881
     6.9792   7.3416   7.5020   7.6962   9.8996   9.9342   9.9369   9.9856
    10.0299  10.0357  10.1011  10.1569  10.1668  10.1943

          k = 0.0625 0.1804 0.0000 ( 21194 PWs)   bands (ev):

   -53.4854 -53.4697 -53.4106 -53.3944 -27.6509 -27.6381 -27.5791 -27.5646
   -27.5332 -27.5217 -27.4624 -27.4591 -27.4517 -27.4471 -27.3878 -27.3766
    -6.5025  -6.4020  -6.3652  -6.2871  -5.4561  -5.3256  -5.2520  -5.1498
     1.6863   1.9773   2.1602   2.4584   3.9660   3.9909   4.0076   4.0277
     4.0773   4.3897   4.5728   4.7681   5.1181   5.1507   5.1530   5.1603
     5.1910   5.2014   5.2195   5.2504   6.1159   6.2474   6.4217   6.7152
     6.8959   7.1304   7.2291   7.3207   9.5083   9.6205   9.7355   9.8323
     9.8804   9.9288   9.9715  10.0011  10.0334  10.0806

          k = 0.0625 0.2526 0.0000 ( 21202 PWs)   bands (ev):

   -53.4781 -53.4624 -53.4033 -53.3871 -27.6367 -27.6237 -27.6026 -27.5915
   -27.5648 -27.5501 -27.5322 -27.5219 -27.4771 -27.4652 -27.4059 -27.3948
    -6.1901  -6.0930  -6.0574  -5.9823  -5.3121  -5.1952  -5.1291  -5.0380
     1.9279   2.1927   2.3506   2.6092   3.5775   3.6059   3.6458   3.6684
     3.7603   3.9886   4.1049   4.2366   4.7978   4.8311   4.8448   4.8805
     5.3904   5.4271   5.4289   5.4625   6.0211   6.1647   6.3262   6.5555
     6.6807   6.7811   6.8435   6.8821   9.2358   9.4014   9.5608   9.6983
     9.7816   9.8327   9.8858   9.9210  10.0011  10.1665

          k = 0.0625 0.3248 0.0000 ( 21194 PWs)   bands (ev):

   -53.4702 -53.4545 -53.3954 -53.3792 -27.6769 -27.6661 -27.6213 -27.6082
   -27.6068 -27.5970 -27.5492 -27.5344 -27.4965 -27.4847 -27.4254 -27.4144
    -5.8215  -5.7305  -5.6971  -5.6277  -5.1434  -5.0439  -4.9872  -4.9099
     2.0222   2.2193   2.3197   2.4730   3.2319   3.3122   3.3887   3.4947
     3.5383   3.6186   3.6960   3.7397   4.4884   4.5388   4.5572   4.6068
     5.6271   5.6729   5.6818   5.7119   5.8131   5.9556   6.0979   6.2872
     6.4428   6.4883   6.5427   6.5719   9.1914   9.3655   9.4980   9.6057
     9.7077   9.7746   9.8209   9.9759  10.2478  10.4337

          k = 0.0625 0.3969 0.0000 ( 21151 PWs)   bands (ev):

   -53.4630 -53.4472 -53.3881 -53.3718 -27.7448 -27.7343 -27.6750 -27.6656
   -27.6070 -27.5937 -27.5348 -27.5199 -27.5143 -27.5026 -27.4433 -27.4324
    -5.4425  -5.3613  -5.3315  -5.2718  -4.9717  -4.8930  -4.8466  -4.7850
     1.8856   2.0117   2.0640   2.1440   2.8647   2.9815   3.0379   3.1307
     3.3752   3.4735   3.5311   3.6498   4.2871   4.3430   4.3619   4.4096
     5.5498   5.7025   5.7834   5.8099   5.8301   5.8587   5.9032   6.0301
     6.4431   6.4796   6.5200   6.5496   9.3194   9.4567   9.5409   9.6230
     9.7464   9.8112   9.8766  10.0542  10.5871  10.7521

          k = 0.0625 0.4691 0.0000 ( 21105 PWs)   bands (ev):

   -53.4574 -53.4416 -53.3824 -53.3662 -27.7962 -27.7861 -27.7268 -27.7176
   -27.5960 -27.5827 -27.5280 -27.5237 -27.5163 -27.5087 -27.4570 -27.4461
    -5.1161  -5.0486  -5.0223  -4.9777  -4.8257  -4.7694  -4.7325  -4.6861
     1.6657   1.7571   1.7869   1.8387   2.5560   2.6548   2.6896   2.7639
     3.2625   3.3714   3.4290   3.5384   4.1799   4.2276   4.2429   4.2790
     5.3615   5.5205   5.6374   5.7866   5.9117   5.9633   5.9992   6.0572
     6.6126   6.6572   6.6919   6.7336   9.5061   9.5833   9.6289   9.6826
     9.8805   9.9513  10.0244  10.1593  10.9019  11.0353

          k = 0.0625 0.5413 0.0000 ( 21084 PWs)   bands (ev):

   -53.4543 -53.4386 -53.3794 -53.3631 -27.8239 -27.8139 -27.7546 -27.7456
   -27.5900 -27.5767 -27.5353 -27.5237 -27.5177 -27.5026 -27.4644 -27.4536
    -4.9189  -4.8653  -4.8398  -4.8115  -4.7390  -4.7007  -4.6684  -4.6325
     1.5156   1.5944   1.6175   1.6619   2.3823   2.4654   2.4957   2.5649
     3.1672   3.2803   3.3341   3.4371   4.1391   4.1725   4.1944   4.2101
     5.2574   5.4205   5.5380   5.6836   5.9974   6.0652   6.1018   6.1557
     6.7661   6.8197   6.8569   6.9041   9.6183   9.6401   9.6839   9.7067
    10.0587  10.1245  10.1795  10.2498  11.1281  11.2236

          k = 0.1250 0.2165 0.0000 ( 21179 PWs)   bands (ev):

   -53.4792 -53.4636 -53.4044 -53.3882 -27.6389 -27.6259 -27.5886 -27.5773
   -27.5670 -27.5523 -27.5180 -27.5077 -27.4779 -27.4661 -27.4067 -27.3956
    -6.2395  -6.1417  -6.1058  -6.0301  -5.3345  -5.2153  -5.1479  -5.0550
     1.9085   2.1821   2.3480   2.6220   3.6506   3.6738   3.7052   3.7180
     3.8500   4.1313   4.2731   4.4196   4.6667   4.6898   4.7091   4.7488
     5.3117   5.3469   5.3500   5.3804   6.2076   6.3273   6.4710   6.6722
     6.7522   6.8574   6.9253   6.9481   9.2250   9.3791   9.5205   9.6649
     9.7680   9.8128   9.8435   9.8820   9.9400  10.0559

          k = 0.1250 0.2887 0.0000 ( 21199 PWs)   bands (ev):

   -53.4720 -53.4563 -53.3971 -53.3809 -27.6521 -27.6412 -27.6246 -27.6115
   -27.5819 -27.5719 -27.5526 -27.5378 -27.5013 -27.4895 -27.4302 -27.4192
    -5.9059  -5.8130  -5.7790  -5.7079  -5.1803  -5.0764  -5.0173  -4.9366
     2.0663   2.2916   2.4126   2.6029   3.4019   3.4299   3.4860   3.5772
     3.6428   3.7906   3.8489   3.8972   4.2259   4.2958   4.3547   4.4612
     5.4206   5.4614   5.4761   5.5030   6.1411   6.2502   6.3656   6.5049
     6.5605   6.5696   6.6223   6.6450   9.0587   9.2384   9.3918   9.5347
     9.7631   9.8073   9.8473   9.9084  10.0150  10.1913

          k = 0.1250 0.3608 0.0000 ( 21195 PWs)   bands (ev):

   -53.4647 -53.4489 -53.3898 -53.3735 -27.7145 -27.7040 -27.6447 -27.6350
   -27.6103 -27.5971 -27.5382 -27.5250 -27.5233 -27.5134 -27.4540 -27.4432
    -5.5393  -5.4547  -5.4236  -5.3605  -5.0113  -4.9263  -4.8768  -4.8105
     2.0321   2.1860   2.2547   2.3597   3.0628   3.1536   3.2069   3.2692
     3.4652   3.5396   3.5993   3.7110   4.0243   4.1511   4.2260   4.3323
     5.3705   5.4174   5.4441   5.4727   5.9244   6.0260   6.1139   6.2347
     6.5019   6.5139   6.5671   6.5807   9.0890   9.2769   9.4419   9.5983
     9.8329   9.8771   9.9137  10.0214  10.2417  10.4167

          k = 0.1250 0.4330 0.0000 ( 21113 PWs)   bands (ev):

   -53.4585 -53.4427 -53.3836 -53.3673 -27.7668 -27.7565 -27.6972 -27.6879
   -27.5982 -27.5849 -27.5453 -27.5337 -27.5260 -27.5109 -27.4744 -27.4636
    -5.1926  -5.1202  -5.0927  -5.0426  -4.8521  -4.7887  -4.7490  -4.6979
     1.8700   1.9784   2.0178   2.0827   2.6570   2.7364   2.7558   2.8061
     3.3851   3.4891   3.5520   3.6601   3.9947   4.1153   4.1802   4.2686
     5.3145   5.3836   5.4173   5.4718   5.6524   5.7507   5.8322   5.9418
     6.6374   6.6543   6.7028   6.7181   9.2913   9.4620   9.6140   9.7589
     9.9406   9.9766  10.0151  10.0862  10.5537  10.6931

          k = 0.1250 0.5052 0.0000 ( 21081 PWs)   bands (ev):

   -53.4543 -53.4386 -53.3794 -53.3631 -27.8015 -27.7914 -27.7320 -27.7230
   -27.5901 -27.5767 -27.5588 -27.5473 -27.5178 -27.5027 -27.4880 -27.4773
    -4.9336  -4.8764  -4.8506  -4.8183  -4.7335  -4.6917  -4.6590  -4.6208
     1.7211   1.8063   1.8327   1.8811   2.3665   2.4324   2.4514   2.4989
     3.2581   3.3777   3.4360   3.5357   4.0466   4.1375   4.1782   4.2371
     5.3113   5.4151   5.4479   5.4706   5.5243   5.5486   5.6190   5.7298
     6.8189   6.8573   6.8959   6.9304   9.5066   9.6013   9.6668   9.7361
    10.0880  10.1460  10.1963  10.2847  10.8363  10.9258

          k = 0.1250 0.5774 0.0000 ( 21108 PWs)   bands (ev):

   -53.4529 -53.4371 -53.3779 -53.3617 -27.8136 -27.8036 -27.7442 -27.7352
   -27.5872 -27.5738 -27.5635 -27.5521 -27.5149 -27.4998 -27.4927 -27.4821
    -4.8342  -4.7859  -4.7599  -4.7385  -4.6889  -4.6580  -4.6261  -4.5939
     1.6633   1.7404   1.7631   1.8081   2.2630   2.3238   2.3450   2.3920
     3.1954   3.3164   3.3734   3.4724   4.1003   4.1552   4.1819   4.2212
     5.2699   5.4030   5.4215   5.4718   5.5145   5.5172   5.5762   5.6581
     6.9092   6.9586   6.9969   7.0406   9.5847   9.6075   9.6475   9.6760
    10.2020  10.2718  10.3243  10.3759  10.9498  11.0421

          k = 0.1875 0.3248 0.0000 ( 21195 PWs)   bands (ev):

   -53.4653 -53.4495 -53.3904 -53.3741 -27.7009 -27.6903 -27.6310 -27.6213
   -27.6115 -27.5983 -27.5394 -27.5318 -27.5245 -27.5202 -27.4609 -27.4501
    -5.5729  -5.4871  -5.4556  -5.3914  -5.0247  -4.9375  -4.8870  -4.8190
     2.0943   2.2623   2.3393   2.4576   3.1919   3.2519   3.3069   3.3330
     3.5037   3.5630   3.6241   3.7027   3.8855   4.0456   4.1477   4.2831
     5.1975   5.2428   5.2705   5.2986   6.0906   6.1746   6.2405   6.3409
     6.5033   6.5257   6.5739   6.5946   9.0010   9.2037   9.3904   9.5816
     9.8545   9.8857   9.9264   9.9831  10.1015  10.2776

          k = 0.1875 0.3969 0.0000 ( 21153 PWs)   bands (ev):

   -53.4591 -53.4433 -53.3842 -53.3679 -27.7430 -27.7326 -27.6733 -27.6638
   -27.5994 -27.5861 -27.5627 -27.5512 -27.5272 -27.5122 -27.4919 -27.4812
    -5.2346  -5.1596  -5.1313  -5.0783  -4.8653  -4.7980  -4.7565  -4.7027
     2.0235   2.1500   2.1996   2.2796   2.7487   2.7989   2.8030   2.8304
     3.5209   3.5946   3.6516   3.7501   3.8923   4.0384   4.1368   4.2590
     4.8806   4.9360   4.9688   5.0096   5.8681   5.9283   5.9815   6.0559
     6.6033   6.6304   6.6745   6.7032   9.1502   9.3607   9.5692   9.8318
     9.9741   9.9812  10.0337  10.0512  10.2769  10.4328

          k = 0.1875 0.4691 0.0000 ( 21101 PWs)   bands (ev):

   -53.4543 -53.4386 -53.3794 -53.3631 -27.7736 -27.7633 -27.7040 -27.6948
   -27.5901 -27.5877 -27.5767 -27.5763 -27.5178 -27.5170 -27.5065 -27.5027
    -4.9477  -4.8873  -4.8611  -4.8251  -4.7282  -4.6830  -4.6495  -4.6091
     1.9515   2.0531   2.0879   2.1469   2.3570   2.3983   2.4138   2.4368
     3.4249   3.5517   3.6073   3.6765   3.9494   4.0919   4.1775   4.2807
     4.6900   4.7789   4.8259   4.9097   5.5698   5.6392   5.7053   5.7684
     6.8091   6.8266   6.8762   6.8938   9.3640   9.5075   9.6247   9.7480
    10.1284  10.1778  10.2201  10.3201  10.4996  10.5954

          k = 0.1875 0.5413 0.0000 ( 21112 PWs)   bands (ev):

   -53.4518 -53.4360 -53.3768 -53.3605 -27.7896 -27.7794 -27.7201 -27.7110
   -27.6017 -27.5904 -27.5850 -27.5716 -27.5311 -27.5206 -27.5127 -27.4976
    -4.7762  -4.7302  -4.7038  -4.6862  -4.6461  -4.6197  -4.5879  -4.5578
     1.9233   2.0036   2.0308   2.0817   2.1476   2.1808   2.2037   2.2285
     3.2779   3.4082   3.4672   3.5534   4.0842   4.1807   4.2320   4.3028
     4.6415   4.7581   4.8143   4.9041   5.3642   5.4377   5.5037   5.5711
     6.9894   7.0232   7.0652   7.0979   9.4297   9.4777   9.5138   9.5567
    10.3210  10.4027  10.4686  10.5710  10.6274  10.6816

          k = 0.2500 0.4330 0.0000 ( 21125 PWs)   bands (ev):

   -53.4543 -53.4386 -53.3794 -53.3631 -27.7590 -27.7487 -27.6894 -27.6801
   -27.6027 -27.5914 -27.5901 -27.5767 -27.5320 -27.5216 -27.5178 -27.5027
    -4.9534  -4.8917  -4.8653  -4.8280  -4.7260  -4.6794  -4.6455  -4.6043
     2.0554   2.1683   2.2099   2.2709   2.3571   2.3862   2.4052   2.4098
     3.6147   3.6539   3.7294   3.7810   3.9639   4.0945   4.1925   4.3121
     4.3869   4.4291   4.4696   4.4851   5.6534   5.6640   5.7518   5.7989
     6.7929   6.8088   6.8593   6.8771   9.3039   9.4627   9.5977   9.7443
    10.1411  10.1820  10.2193  10.3246  10.3695  10.4834

          k = 0.2500 0.5052 0.0000 ( 21117 PWs)   bands (ev):

   -53.4512 -53.4354 -53.3762 -53.3599 -27.7638 -27.7535 -27.6942 -27.6850
   -27.6353 -27.6241 -27.5839 -27.5705 -27.5648 -27.5545 -27.5115 -27.4964
    -4.7479  -4.7022  -4.6756  -4.6593  -4.6210  -4.5966  -4.5652  -4.5355
     2.0392   2.0838   2.0945   2.1108   2.1955   2.2771   2.3083   2.3660
     3.4491   3.5824   3.6323   3.6584   4.0090   4.0853   4.1447   4.1983
     4.2025   4.2816   4.3554   4.4244   5.3727   5.4051   5.4918   5.5400
     7.0374   7.0489   7.1037   7.1156   9.2934   9.3574   9.3984   9.4560
    10.3041  10.3468  10.4131  10.4297  10.5964  10.6382

          k = 0.2500 0.5774 0.0000 ( 21116 PWs)   bands (ev):

   -53.4501 -53.4343 -53.3751 -53.3588 -27.7637 -27.7534 -27.6941 -27.6849
   -27.6486 -27.6374 -27.5817 -27.5781 -27.5683 -27.5678 -27.5093 -27.4942
    -4.6688  -4.6323  -4.6095  -4.5983  -4.5833  -4.5698  -4.5322  -4.5120
     1.9421   1.9856   1.9943   2.0082   2.2864   2.3489   2.3698   2.4139
     3.2950   3.4207   3.4726   3.5355   3.9606   4.0815   4.1417   4.2118
     4.2706   4.3391   4.4006   4.4533   5.2582   5.2771   5.3644   5.4022
     7.1616   7.1831   7.2322   7.2546   9.2255   9.2397   9.2823   9.2941
    10.3325  10.3954  10.4172  10.4987  10.7423  10.7891

          k = 0.3125 0.5413 0.0000 ( 21100 PWs)   bands (ev):

   -53.4495 -53.4337 -53.3745 -53.3582 -27.7426 -27.7324 -27.6770 -27.6731
   -27.6659 -27.6639 -27.6066 -27.5963 -27.5805 -27.5671 -27.5081 -27.4930
    -4.6298  -4.5971  -4.5798  -4.5661  -4.5611  -4.5525  -4.5091  -4.4961
     1.8746   1.9148   1.9270   1.9348   2.5054   2.5864   2.6118   2.6602
     3.3106   3.3403   3.3761   3.4063   3.8001   3.8440   3.8505   3.8718
     4.3290   4.4019   4.4556   4.5057   5.1699   5.1958   5.2946   5.3302
     7.2508   7.2574   7.3184   7.3258   9.1052   9.1219   9.1586   9.1743
    10.2795  10.3105  10.3234  10.4280  10.8421  10.9012

     the Fermi energy is     8.4127 ev

!    total energy              =   -1978.37119921 Ry
     total all-electron energy =    -38771.692044 Ry
     estimated scf accuracy    <          8.1E-10 Ry
     smearing contrib. (-TS)   =       0.00007114 Ry
     internal energy E=F+TS    =   -1978.37127035 Ry

     The total energy is F=E-TS. E is the sum of the following terms:
     one-electron contribution =   -1723.48173128 Ry
     hartree contribution      =     903.98550022 Ry
     xc contribution           =    -119.32428946 Ry
     ewald contribution        =     230.30861319 Ry
     one-center paw contrib.   =   -1269.85936303 Ry

     convergence has been achieved in  33 iterations

     Forces acting on atoms (cartesian axes, Ry/au):

     atom    1 type  2   force =     0.00000000    0.00000000   -0.01389866
     atom    2 type  1   force =     0.00000000    0.00000000    0.00001211
     atom    3 type  2   force =     0.00000000   -0.00000000    0.01608476
     atom    4 type  2   force =     0.00000000    0.00000000   -0.00578161
     atom    5 type  1   force =     0.00000000    0.00000000   -0.00735571
     atom    6 type  2   force =     0.00000000    0.00000000    0.00922258
     atom    7 type  2   force =     0.00000000    0.00000000   -0.00655497
     atom    8 type  1   force =     0.00000000    0.00000000    0.00165401
     atom    9 type  2   force =     0.00000000    0.00000000    0.00914550
     atom   10 type  2   force =     0.00000000    0.00000000   -0.00354916
     atom   11 type  1   force =     0.00000000    0.00000000   -0.00224415
     atom   12 type  2   force =     0.00000000   -0.00000000    0.00326529

     Total force =     0.027966     Total SCF correction =     0.000125
     Energy error            =      1.2E-03 Ry
     Gradient error          =      1.6E-02 Ry/Bohr

     number of scf cycles    =  28
     number of bfgs steps    =  27

     energy             old  =   -1978.3699925075 Ry
     energy             new  =   -1978.3711992140 Ry

     CASE: energy            _new < energy            _old

     new trust radius        =       0.3346623512 bohr
     new conv_thr            =       0.0000000012 Ry


ATOMIC_POSITIONS (crystal)
S                0.3333330000        0.6666670000       -0.0992130592
Mo              -0.0000000000       -0.0000000000       -0.0475062806
S                0.3333330000        0.6666670000        0.0041733555
S                0.6666670000        0.3333330000        0.1050837609
Mo               0.3333330000        0.6666670000        0.1574122813
S                0.6666670000        0.3333330000        0.2093071958
S               -0.0000000000       -0.0000000000        0.3088581309
Mo               0.6666670000        0.3333330000        0.3609816180
S                0.0000000000        0.0000000000        0.4130767339
S                0.3333330000        0.6666670000        0.5152929795
Mo               0.0000000000        0.0000000000        0.5676587139
S                0.3333330000        0.6666670000        0.6198745700



     Writing config-only to output data dir ./tmp/relax/mos2_slab.save/ :
     XML data file
     NEW-OLD atomic charge density approx. for the potential

     negative rho (up, down):  1.572E-08 0.000E+00

     total cpu time spent up to now is    98068.5 secs

     Self-consistent Calculation

     iteration #  1     ecut=    80.00 Ry     beta= 0.30
     Davidson diagonalization with overlap
     c_bands:  3 eigenvalues not converged
     c_bands:  1 eigenvalues not converged
     c_bands:  1 eigenvalues not converged
     c_bands:  1 eigenvalues not converged
     ethr =  1.00E-06,  avg # of iterations = 14.1

     negative rho (up, down):  4.920E-08 0.000E+00

     total cpu time spent up to now is    98566.7 secs

     total energy              =   -1978.38183318 Ry
     estimated scf accuracy    <       0.03646698 Ry

     iteration #  2     ecut=    80.00 Ry     beta= 0.30
     Davidson diagonalization with overlap
     ethr =  3.51E-05,  avg # of iterations =  1.0

     negative rho (up, down):  6.561E-07 0.000E+00

     total cpu time spent up to now is    98667.8 secs

     total energy              =   -1978.36980765 Ry
     estimated scf accuracy    <       0.02109213 Ry

     iteration #  3     ecut=    80.00 Ry     beta= 0.30
     Davidson diagonalization with overlap
     ethr =  2.03E-05,  avg # of iterations =  2.2

     negative rho (up, down):  2.044E-07 0.000E+00

     total cpu time spent up to now is    98793.0 secs

     total energy              =   -1978.37202588 Ry
     estimated scf accuracy    <       0.00182783 Ry

     iteration #  4     ecut=    80.00 Ry     beta= 0.30
