Authorization required, but no authorization protocol specified

Authorization required, but no authorization protocol specified

Authorization required, but no authorization protocol specified

Authorization required, but no authorization protocol specified

Authorization required, but no authorization protocol specified

Authorization required, but no authorization protocol specified

Authorization required, but no authorization protocol specified

Authorization required, but no authorization protocol specified


     Program PWSCF v.7.3 starts on  6Jun2026 at 11:59:57 

     This program is part of the open-source Quantum ESPRESSO suite
     for quantum simulation of materials; please cite
         "P. Giannozzi et al., J. Phys.:Condens. Matter 21 395502 (2009);
         "P. Giannozzi et al., J. Phys.:Condens. Matter 29 465901 (2017);
         "P. Giannozzi et al., J. Chem. Phys. 152 154105 (2020);
          URL http://www.quantum-espresso.org", 
     in publications or presentations arising from this work. More details at
     http://www.quantum-espresso.org/quote

     Parallel version (MPI), running on     1 processors

     MPI processes distributed on     1 nodes
     23686 MiB available memory on the printing compute node when the environment starts

     Waiting for input...
     Reading input from standard input

     Current dimensions of program PWSCF are:
     Max number of different atomic species (ntypx) = 10
     Max number of k-points (npk) =  40000
     Max angular momentum in pseudopotentials (lmaxx) =  4
     file Mo.pbe-spn-kjpaw_psl.1.0.0.UPF: wavefunction(s)  4S 4D renormalized
     file S.pbe-n-kjpaw_psl.1.0.0.UPF: wavefunction(s)  3S 3P renormalized

     IMPORTANT: XC functional enforced from input :
     Exchange-correlation= VDW-DF2-B86R
                           (   1   4  26   0   2   0   0)
     Any further DFT definition will be discarded
     Please, verify this is what you really want


     Subspace diagonalization in iterative solution of the eigenvalue problem:
     a serial algorithm will be used


     G-vector sticks info
     --------------------
     sticks:   dense  smooth     PW     G-vecs:    dense   smooth      PW
     Sum        1573     769    223               478405   168563   26075

     Using Slab Decomposition



     bravais-lattice index     =            4
     lattice parameter (alat)  =       5.9715  a.u.
     unit-cell volume          =    1750.7440 (a.u.)^3
     number of atoms/cell      =           12
     number of atomic types    =            2
     number of electrons       =       104.00
     number of Kohn-Sham states=           62
     kinetic-energy cutoff     =      80.0000  Ry
     charge density cutoff     =     640.0000  Ry
     scf convergence threshold =      1.0E-08
     mixing beta               =       0.2000
     number of iterations used =            8  local-TF  mixing
     energy convergence thresh.=      1.0E-04
     force convergence thresh. =      1.0E-04
     Exchange-correlation= VDW-DF2-B86R
                           (   1   4  26   0   2   0   0)
     nstep                     =           50


     celldm(1)=   5.971535  celldm(2)=   0.000000  celldm(3)=   9.493671
     celldm(4)=   0.000000  celldm(5)=   0.000000  celldm(6)=   0.000000

     crystal axes: (cart. coord. in units of alat)
               a(1) = (   1.000000   0.000000   0.000000 )  
               a(2) = (  -0.500000   0.866025   0.000000 )  
               a(3) = (   0.000000   0.000000   9.493671 )  

     reciprocal axes: (cart. coord. in units 2 pi/alat)
               b(1) = (  1.000000  0.577350 -0.000000 )  
               b(2) = (  0.000000  1.154701  0.000000 )  
               b(3) = (  0.000000 -0.000000  0.105333 )  


     PseudoPot. # 1 for Mo read from file:
     ./pseudo/Mo.pbe-spn-kjpaw_psl.1.0.0.UPF
     MD5 check sum: 4396e0c640fcce5c25f020efccf1ab12
     Pseudo is Projector augmented-wave + core cor, Zval = 14.0
     Generated using &quot;atomic&quot; code by A. Dal Corso  v.6.3
     Shape of augmentation charge: PSQ
     Using radial grid of 1229 points,  6 beta functions with: 
                l(1) =   0
                l(2) =   0
                l(3) =   1
                l(4) =   1
                l(5) =   2
                l(6) =   2
     Q(r) pseudized with 0 coefficients 


     PseudoPot. # 2 for S  read from file:
     ./pseudo/S.pbe-n-kjpaw_psl.1.0.0.UPF
     MD5 check sum: fb45dfebcf3e72a4e1bd4a866ec2e262
     Pseudo is Projector augmented-wave + core cor, Zval =  6.0
     Generated using &quot;atomic&quot; code by A. Dal Corso  v.6.3
     Shape of augmentation charge: PSQ
     Using radial grid of 1151 points,  6 beta functions with: 
                l(1) =   0
                l(2) =   0
                l(3) =   1
                l(4) =   1
                l(5) =   2
                l(6) =   2
     Q(r) pseudized with 0 coefficients 


     atomic species   valence    mass     pseudopotential
     Mo               14.00    95.96000     Mo( 1.00)
     S                 6.00    32.06000     S ( 1.00)

      6 Sym. Ops. (no inversion) found



   Cartesian axes

     site n.     atom                  positions (alat units)
         1        S      tau(   1) = (  -0.0000005   0.5773506  -1.1052541  )
         2        Mo     tau(   2) = (   0.0000000  -0.0000000  -0.6073626  )
         3        S      tau(   3) = (  -0.0000005   0.5773506  -0.1088985  )
         4        S      tau(   4) = (   0.5000005   0.2886748   1.0182217  )
         5        Mo     tau(   5) = (  -0.0000005   0.5773506   1.5150095  )
         6        S      tau(   6) = (   0.5000005   0.2886748   2.0109223  )
         7        S      tau(   7) = (   0.0000000   0.0000000   2.9072973  )
         8        Mo     tau(   8) = (   0.5000005   0.2886748   3.4033049  )
         9        S      tau(   9) = (   0.0000000   0.0000000   3.9000219  )
        10        S      tau(  10) = (  -0.0000005   0.5773506   5.0483279  )
        11        Mo     tau(  11) = (   0.0000000   0.0000000   5.5466758  )
        12        S      tau(  12) = (  -0.0000005   0.5773506   6.0445188  )

     number of k points=    30  Methfessel-Paxton smearing, width (Ry)=  0.0200
                       cart. coord. in units 2pi/alat
        k(    1) = (   0.0000000   0.0000000   0.0000000), wk =   0.0078125
        k(    2) = (   0.0000000   0.0721688   0.0000000), wk =   0.0468750
        k(    3) = (   0.0000000   0.1443376   0.0000000), wk =   0.0468750
        k(    4) = (   0.0000000   0.2165064   0.0000000), wk =   0.0468750
        k(    5) = (   0.0000000   0.2886751   0.0000000), wk =   0.0468750
        k(    6) = (   0.0000000   0.3608439   0.0000000), wk =   0.0468750
        k(    7) = (   0.0000000   0.4330127   0.0000000), wk =   0.0468750
        k(    8) = (   0.0000000   0.5051815   0.0000000), wk =   0.0468750
        k(    9) = (   0.0000000  -0.5773503   0.0000000), wk =   0.0234375
        k(   10) = (   0.0625000   0.1082532   0.0000000), wk =   0.0468750
        k(   11) = (   0.0625000   0.1804220   0.0000000), wk =   0.0937500
        k(   12) = (   0.0625000   0.2525907   0.0000000), wk =   0.0937500
        k(   13) = (   0.0625000   0.3247595   0.0000000), wk =   0.0937500
        k(   14) = (   0.0625000   0.3969283   0.0000000), wk =   0.0937500
        k(   15) = (   0.0625000   0.4690971   0.0000000), wk =   0.0937500
        k(   16) = (   0.0625000   0.5412659   0.0000000), wk =   0.0937500
        k(   17) = (   0.1250000   0.2165064   0.0000000), wk =   0.0468750
        k(   18) = (   0.1250000   0.2886751   0.0000000), wk =   0.0937500
        k(   19) = (   0.1250000   0.3608439   0.0000000), wk =   0.0937500
        k(   20) = (   0.1250000   0.4330127   0.0000000), wk =   0.0937500
        k(   21) = (   0.1250000   0.5051815   0.0000000), wk =   0.0937500
        k(   22) = (   0.1250000   0.5773503   0.0000000), wk =   0.0468750
        k(   23) = (   0.1875000   0.3247595   0.0000000), wk =   0.0468750
        k(   24) = (   0.1875000   0.3969283   0.0000000), wk =   0.0937500
        k(   25) = (   0.1875000   0.4690971   0.0000000), wk =   0.0937500
        k(   26) = (   0.1875000   0.5412659   0.0000000), wk =   0.0937500
        k(   27) = (   0.2500000   0.4330127   0.0000000), wk =   0.0468750
        k(   28) = (   0.2500000   0.5051815   0.0000000), wk =   0.0937500
        k(   29) = (   0.2500000   0.5773503   0.0000000), wk =   0.0468750
        k(   30) = (   0.3125000   0.5412659   0.0000000), wk =   0.0468750

     Dense  grid:   478405 G-vectors     FFT dimensions: (  50,  50, 480)

     Smooth grid:   168563 G-vectors     FFT dimensions: (  36,  36, 324)

     Estimated max dynamical RAM per process >       2.45 GB

     Initial potential from superposition of free atoms

     starting charge     103.9962, renormalised to     104.0000


     %%%%%%%%%%%%%%%%%%%%%%%%%%%%%%%%%%%%%%%%%%%%%%%%%%%%%%%%%%%%%%%%%%%%%%%%
     %                                                                      %
     % You are using vdW-DF, which was implemented by the Thonhauser group. %
     % Please cite the following two papers that made this development      %
     % possible and the two reviews that describe the various versions:     %
     %                                                                      %
     %   T. Thonhauser et al., PRL 115, 136402 (2015).                      %
     %   T. Thonhauser et al., PRB 76, 125112 (2007).                       %
     %   K. Berland et al., Rep. Prog. Phys. 78, 066501 (2015).             %
     %   D.C. Langreth et al., J. Phys.: Condens. Matter 21, 084203 (2009). %
     %                                                                      %
     % If you are calculating stress with vdW-DF, please also cite:         %
     %                                                                      %
     %   R. Sabatini et al., J. Phys.: Condens. Matter 24, 424209 (2012).   %
     %                                                                      %
     %%%%%%%%%%%%%%%%%%%%%%%%%%%%%%%%%%%%%%%%%%%%%%%%%%%%%%%%%%%%%%%%%%%%%%%%

     %%%%%%%%%%%%%%%%%%%%%%%%%%%%%%%%%%%%%%%%%%%%%%%%%%%%%%%%%%%%%%%%%%%%%%%%
     %                                                                      %
     %  vdW-DF NEWS:                                                        %
     %                                                                      %
     %  * vdW-DF3 is now available. DOI: 10.1021/acs.jctc.0c00471           %
     %    use with input_dft = 'vdW-DF3-opt1' or 'vdW-DF3-opt2'             %
     %                                                                      %
     %  * Unscreened and range-separated hybrid vdW-DF-cx functionals       %
     %    DOI: 10.1063/1.4986522 and 10.1088/1361-648X/ac2ad2               %
     %    use with input_dft = 'vdW-DF-cx0'    and 'vdW-DF-ahcx'            %
     %  * Unscreened and range-separated hybrid vdW-DF2-b86r functionals    %
     %    DOI: 10.1063/1.4986522 and DOI: 10.1103/PhysRevX.12.041003        %
     %    use with input_dft = 'vdW-DF2-br0' and 'vdW-DF2-ahbr'             %
     %                                                                      %
     %%%%%%%%%%%%%%%%%%%%%%%%%%%%%%%%%%%%%%%%%%%%%%%%%%%%%%%%%%%%%%%%%%%%%%%%


     Starting wfcs are   72 randomized atomic wfcs
     Checking if some PAW data can be deallocated... 

     total cpu time spent up to now is       86.1 secs

     Self-consistent Calculation

     iteration #  1     ecut=    80.00 Ry     beta= 0.20
     Davidson diagonalization with overlap
     ethr =  1.00E-02,  avg # of iterations =  2.2

     Threshold (ethr) on eigenvalues was too large:
     Diagonalizing with lowered threshold

     Davidson diagonalization with overlap
     ethr =  3.05E-04,  avg # of iterations =  2.8

     total cpu time spent up to now is      340.7 secs

     total energy              =   -1978.46171432 Ry
     estimated scf accuracy    <       0.43440283 Ry

     iteration #  2     ecut=    80.00 Ry     beta= 0.20
     Davidson diagonalization with overlap
     ethr =  4.18E-04,  avg # of iterations =  1.0

     total cpu time spent up to now is      439.2 secs

     total energy              =   -1978.28283483 Ry
     estimated scf accuracy    <       0.36234711 Ry

     iteration #  3     ecut=    80.00 Ry     beta= 0.20
     Davidson diagonalization with overlap
     ethr =  3.48E-04,  avg # of iterations =  2.0

     total cpu time spent up to now is      569.8 secs

     total energy              =   -1978.36333975 Ry
     estimated scf accuracy    <       0.04831673 Ry

     iteration #  4     ecut=    80.00 Ry     beta= 0.20
     Davidson diagonalization with overlap
     ethr =  4.65E-05,  avg # of iterations =  2.2

     total cpu time spent up to now is      695.8 secs

     total energy              =   -1978.36721006 Ry
     estimated scf accuracy    <       0.01476165 Ry

     iteration #  5     ecut=    80.00 Ry     beta= 0.20
     Davidson diagonalization with overlap
     ethr =  1.42E-05,  avg # of iterations =  4.2

     total cpu time spent up to now is      815.1 secs

     total energy              =   -1978.36810078 Ry
     estimated scf accuracy    <       0.00394702 Ry

     iteration #  6     ecut=    80.00 Ry     beta= 0.20
     Davidson diagonalization with overlap
     c_bands:  1 eigenvalues not converged
     c_bands:  1 eigenvalues not converged
     c_bands:  1 eigenvalues not converged
     c_bands:  1 eigenvalues not converged
     ethr =  3.80E-06,  avg # of iterations =  8.0

     total cpu time spent up to now is      937.2 secs

     total energy              =   -1978.36728939 Ry
     estimated scf accuracy    <       0.00281341 Ry

     iteration #  7     ecut=    80.00 Ry     beta= 0.20
     Davidson diagonalization with overlap
     ethr =  2.71E-06,  avg # of iterations =  6.5

     total cpu time spent up to now is     1084.4 secs

     total energy              =   -1978.36684625 Ry
     estimated scf accuracy    <       0.00671412 Ry

     iteration #  8     ecut=    80.00 Ry     beta= 0.20
     Davidson diagonalization with overlap
     ethr =  2.71E-06,  avg # of iterations =  2.9

     total cpu time spent up to now is     1204.2 secs

     total energy              =   -1978.36719154 Ry
     estimated scf accuracy    <       0.00091506 Ry

     iteration #  9     ecut=    80.00 Ry     beta= 0.20
     Davidson diagonalization with overlap
     ethr =  8.80E-07,  avg # of iterations =  7.1

     total cpu time spent up to now is     1349.7 secs

     total energy              =   -1978.36721500 Ry
     estimated scf accuracy    <       0.00272048 Ry

     iteration # 10     ecut=    80.00 Ry     beta= 0.20
     Davidson diagonalization with overlap
     ethr =  8.80E-07,  avg # of iterations =  2.4

     total cpu time spent up to now is     1470.8 secs

     total energy              =   -1978.36726437 Ry
     estimated scf accuracy    <       0.00091211 Ry

     iteration # 11     ecut=    80.00 Ry     beta= 0.20
     Davidson diagonalization with overlap
     ethr =  8.77E-07,  avg # of iterations =  1.5

     total cpu time spent up to now is     1575.6 secs

     total energy              =   -1978.36723019 Ry
     estimated scf accuracy    <       0.00039056 Ry

     iteration # 12     ecut=    80.00 Ry     beta= 0.20
     Davidson diagonalization with overlap
     ethr =  3.76E-07,  avg # of iterations =  4.1

     total cpu time spent up to now is     1696.0 secs

     total energy              =   -1978.36727682 Ry
     estimated scf accuracy    <       0.00007167 Ry

     iteration # 13     ecut=    80.00 Ry     beta= 0.20
     Davidson diagonalization with overlap
     ethr =  6.89E-08,  avg # of iterations =  4.6

     total cpu time spent up to now is     1821.8 secs

     total energy              =   -1978.36727545 Ry
     estimated scf accuracy    <       0.00008399 Ry

     iteration # 14     ecut=    80.00 Ry     beta= 0.20
     Davidson diagonalization with overlap
     ethr =  6.89E-08,  avg # of iterations =  2.2

     total cpu time spent up to now is     1935.3 secs

     total energy              =   -1978.36727917 Ry
     estimated scf accuracy    <       0.00008197 Ry

     iteration # 15     ecut=    80.00 Ry     beta= 0.20
     Davidson diagonalization with overlap
     ethr =  6.89E-08,  avg # of iterations =  1.4

     total cpu time spent up to now is     2038.0 secs

     total energy              =   -1978.36727626 Ry
     estimated scf accuracy    <       0.00006506 Ry

     iteration # 16     ecut=    80.00 Ry     beta= 0.20
     Davidson diagonalization with overlap
     ethr =  6.26E-08,  avg # of iterations =  1.2

     total cpu time spent up to now is     2139.1 secs

     total energy              =   -1978.36726863 Ry
     estimated scf accuracy    <       0.00004979 Ry

     iteration # 17     ecut=    80.00 Ry     beta= 0.20
     Davidson diagonalization with overlap
     ethr =  4.79E-08,  avg # of iterations =  2.0

     total cpu time spent up to now is     2264.4 secs

     total energy              =   -1978.36727096 Ry
     estimated scf accuracy    <       0.00005416 Ry

     iteration # 18     ecut=    80.00 Ry     beta= 0.20
     Davidson diagonalization with overlap
     ethr =  4.79E-08,  avg # of iterations =  3.4

     total cpu time spent up to now is     2387.0 secs

     total energy              =   -1978.36725077 Ry
     estimated scf accuracy    <       0.00008301 Ry

     iteration # 19     ecut=    80.00 Ry     beta= 0.20
     Davidson diagonalization with overlap
     ethr =  4.79E-08,  avg # of iterations =  4.4

     total cpu time spent up to now is     2512.9 secs

     total energy              =   -1978.36726502 Ry
     estimated scf accuracy    <       0.00001418 Ry

     iteration # 20     ecut=    80.00 Ry     beta= 0.20
     Davidson diagonalization with overlap
     c_bands:  1 eigenvalues not converged
     ethr =  1.36E-08,  avg # of iterations =  4.8

     total cpu time spent up to now is     2635.1 secs

     total energy              =   -1978.36726311 Ry
     estimated scf accuracy    <       0.00001994 Ry

     iteration # 21     ecut=    80.00 Ry     beta= 0.20
     Davidson diagonalization with overlap
     ethr =  1.36E-08,  avg # of iterations =  4.3

     total cpu time spent up to now is     2758.4 secs

     total energy              =   -1978.36726598 Ry
     estimated scf accuracy    <       0.00000482 Ry

     iteration # 22     ecut=    80.00 Ry     beta= 0.20
     Davidson diagonalization with overlap
     ethr =  4.63E-09,  avg # of iterations =  1.2

     total cpu time spent up to now is     2859.1 secs

     total energy              =   -1978.36726566 Ry
     estimated scf accuracy    <       0.00000382 Ry

     iteration # 23     ecut=    80.00 Ry     beta= 0.20
     Davidson diagonalization with overlap
     ethr =  3.68E-09,  avg # of iterations =  2.6

     total cpu time spent up to now is     2968.8 secs

     total energy              =   -1978.36726509 Ry
     estimated scf accuracy    <       0.00000360 Ry

     iteration # 24     ecut=    80.00 Ry     beta= 0.20
     Davidson diagonalization with overlap
     ethr =  3.46E-09,  avg # of iterations =  1.8

     total cpu time spent up to now is     3074.5 secs

     total energy              =   -1978.36726523 Ry
     estimated scf accuracy    <       0.00000311 Ry

     iteration # 25     ecut=    80.00 Ry     beta= 0.20
     Davidson diagonalization with overlap
     ethr =  2.99E-09,  avg # of iterations =  3.4

     total cpu time spent up to now is     3202.6 secs

     total energy              =   -1978.36726424 Ry
     estimated scf accuracy    <       0.00000728 Ry

     iteration # 26     ecut=    80.00 Ry     beta= 0.20
     Davidson diagonalization with overlap
     ethr =  2.99E-09,  avg # of iterations =  2.8

     total cpu time spent up to now is     3325.0 secs

     total energy              =   -1978.36726486 Ry
     estimated scf accuracy    <       0.00000109 Ry

     iteration # 27     ecut=    80.00 Ry     beta= 0.20
     Davidson diagonalization with overlap
     ethr =  1.05E-09,  avg # of iterations =  2.0

     total cpu time spent up to now is     3434.5 secs

     total energy              =   -1978.36726489 Ry
     estimated scf accuracy    <       0.00000105 Ry

     iteration # 28     ecut=    80.00 Ry     beta= 0.20
     Davidson diagonalization with overlap
     ethr =  1.01E-09,  avg # of iterations =  2.2

     total cpu time spent up to now is     3544.2 secs

     total energy              =   -1978.36726489 Ry
     estimated scf accuracy    <       0.00000082 Ry

     iteration # 29     ecut=    80.00 Ry     beta= 0.20
     Davidson diagonalization with overlap
     ethr =  7.86E-10,  avg # of iterations =  1.6

     total cpu time spent up to now is     3648.2 secs

     total energy              =   -1978.36726485 Ry
     estimated scf accuracy    <       0.00000070 Ry

     iteration # 30     ecut=    80.00 Ry     beta= 0.20
     Davidson diagonalization with overlap
     ethr =  6.77E-10,  avg # of iterations =  1.9

     total cpu time spent up to now is     3756.4 secs

     total energy              =   -1978.36726483 Ry
     estimated scf accuracy    <       0.00000064 Ry

     iteration # 31     ecut=    80.00 Ry     beta= 0.20
     Davidson diagonalization with overlap
     ethr =  6.17E-10,  avg # of iterations =  1.3

     total cpu time spent up to now is     3858.2 secs

     total energy              =   -1978.36726481 Ry
     estimated scf accuracy    <       0.00000059 Ry

     iteration # 32     ecut=    80.00 Ry     beta= 0.20
     Davidson diagonalization with overlap
     ethr =  5.71E-10,  avg # of iterations =  1.0

     total cpu time spent up to now is     3957.0 secs

     total energy              =   -1978.36726481 Ry
     estimated scf accuracy    <       0.00000057 Ry

     iteration # 33     ecut=    80.00 Ry     beta= 0.20
     Davidson diagonalization with overlap
     ethr =  5.52E-10,  avg # of iterations =  1.0

     total cpu time spent up to now is     4055.6 secs

     total energy              =   -1978.36726476 Ry
     estimated scf accuracy    <       0.00000055 Ry

     iteration # 34     ecut=    80.00 Ry     beta= 0.20
     Davidson diagonalization with overlap
     ethr =  5.27E-10,  avg # of iterations =  1.5

     total cpu time spent up to now is     4159.2 secs

     total energy              =   -1978.36726465 Ry
     estimated scf accuracy    <       0.00000050 Ry

     iteration # 35     ecut=    80.00 Ry     beta= 0.20
     Davidson diagonalization with overlap
     ethr =  4.77E-10,  avg # of iterations =  1.3

     total cpu time spent up to now is     4260.9 secs

     total energy              =   -1978.36726475 Ry
     estimated scf accuracy    <       0.00000045 Ry

     iteration # 36     ecut=    80.00 Ry     beta= 0.20
     Davidson diagonalization with overlap
     ethr =  4.35E-10,  avg # of iterations =  2.3

     total cpu time spent up to now is     4373.8 secs

     total energy              =   -1978.36726469 Ry
     estimated scf accuracy    <       0.00000046 Ry

     iteration # 37     ecut=    80.00 Ry     beta= 0.20
     Davidson diagonalization with overlap
     ethr =  4.35E-10,  avg # of iterations =  2.2

     total cpu time spent up to now is     4484.9 secs

     total energy              =   -1978.36726469 Ry
     estimated scf accuracy    <       0.00000025 Ry

     iteration # 38     ecut=    80.00 Ry     beta= 0.20
     Davidson diagonalization with overlap
     ethr =  2.44E-10,  avg # of iterations =  2.1

     total cpu time spent up to now is     4594.7 secs

     total energy              =   -1978.36726464 Ry
     estimated scf accuracy    <       0.00000020 Ry

     iteration # 39     ecut=    80.00 Ry     beta= 0.20
     Davidson diagonalization with overlap
     ethr =  1.94E-10,  avg # of iterations =  2.0

     total cpu time spent up to now is     4704.6 secs

     total energy              =   -1978.36726462 Ry
     estimated scf accuracy    <       0.00000014 Ry

     iteration # 40     ecut=    80.00 Ry     beta= 0.20
     Davidson diagonalization with overlap
     ethr =  1.34E-10,  avg # of iterations =  2.1

     total cpu time spent up to now is     4816.4 secs

     total energy              =   -1978.36726463 Ry
     estimated scf accuracy    <       0.00000007 Ry

     iteration # 41     ecut=    80.00 Ry     beta= 0.20
     Davidson diagonalization with overlap
     ethr =  6.42E-11,  avg # of iterations =  2.2

     total cpu time spent up to now is     4933.9 secs

     total energy              =   -1978.36726461 Ry
     estimated scf accuracy    <       0.00000004 Ry

     iteration # 42     ecut=    80.00 Ry     beta= 0.20
     Davidson diagonalization with overlap
     ethr =  3.40E-11,  avg # of iterations =  2.0

     total cpu time spent up to now is     5043.4 secs

     End of self-consistent calculation

          k = 0.0000 0.0000 0.0000 ( 21311 PWs)   bands (ev):

   -53.4945 -53.4887 -53.4158 -53.4109 -27.6706 -27.6620 -27.5922 -27.5841
   -27.4342 -27.4342 -27.4253 -27.4253 -27.3553 -27.3553 -27.3474 -27.3474
    -6.9067  -6.7597  -6.6967  -6.6567  -5.6452  -5.4775  -5.4079  -5.3017
     1.2839   1.6746   1.7720   2.0554   4.7435   4.7435   4.7648   4.7928
     4.7928   4.8225   4.8225   4.8719   4.8719   5.3321   5.5910   5.8632
     5.8632   5.9092   5.9092   5.9453   5.9453   5.9880   5.9881   6.2734
     6.9770   7.3412   7.4924   7.9844  10.1041  10.1041  10.1572  10.1572
    10.2040  10.2040  10.2342  10.2343  10.3509  10.3518

          k = 0.0000 0.0722 0.0000 ( 21283 PWs)   bands (ev):

   -53.4930 -53.4872 -53.4142 -53.4093 -27.6676 -27.6590 -27.5892 -27.5810
   -27.4498 -27.4408 -27.4377 -27.4288 -27.3710 -27.3629 -27.3589 -27.3509
    -6.8470  -6.7003  -6.6374  -6.5975  -5.6171  -5.4524  -5.3828  -5.2792
     1.3518   1.7431   1.8404   2.1228   4.6079   4.6258   4.6587   4.6879
     4.7373   4.8056   4.8553   4.8850   4.9344   5.1100   5.2862   5.5746
     5.7656   5.8126   5.8491   5.8915   5.9776   6.0726   6.1595   6.4903
     6.9801   7.3207   7.4576   7.8861  10.0437  10.0685  10.1219  10.1463
    10.1740  10.1860  10.2221  10.2557  10.2644  10.3052

          k = 0.0000 0.1443 0.0000 ( 21263 PWs)   bands (ev):

   -53.4885 -53.4827 -53.4097 -53.4049 -27.6588 -27.6504 -27.5804 -27.5724
   -27.4941 -27.4849 -27.4478 -27.4389 -27.4152 -27.4069 -27.3690 -27.3609
    -6.6730  -6.5273  -6.4645  -6.4252  -5.5351  -5.3791  -5.3096  -5.2138
     1.5406   1.9325   2.0289   2.3059   4.2568   4.2977   4.3172   4.3471
     4.3913   4.6977   4.8213   4.9841   5.0352   5.0650   5.0662   5.1142
     5.5136   5.5626   5.6001   5.6415   6.0423   6.1984   6.3157   6.6343
     6.9527   7.2125   7.3161   7.5824   9.7556   9.8297   9.8842   9.9248
     9.9871   9.9972  10.0461  10.0796  10.1235  10.1587

          k = 0.0000 0.2165 0.0000 ( 21233 PWs)   bands (ev):

   -53.4819 -53.4761 -53.4031 -53.3982 -27.6458 -27.6374 -27.5674 -27.5597
   -27.5594 -27.5502 -27.4809 -27.4723 -27.4628 -27.4538 -27.3840 -27.3759
    -6.3992  -6.2560  -6.1937  -6.1557  -5.4063  -5.2645  -5.1954  -5.1122
     1.7952   2.1801   2.2724   2.5274   3.8205   3.8687   3.8952   3.9469
     3.9875   4.2400   4.3338   4.5237   5.1768   5.2380   5.2545   5.2862
     5.3099   5.3174   5.3456   5.3891   5.9593   6.1468   6.2669   6.5498
     6.8103   6.9517   7.0218   7.1302   9.3782   9.5100   9.6291   9.8263
     9.8392   9.9062   9.9623   9.9753  10.0189  10.0785

          k = 0.0000 0.2887 0.0000 ( 21197 PWs)   bands (ev):

   -53.4740 -53.4682 -53.3952 -53.3904 -27.6363 -27.6303 -27.6265 -27.6221
   -27.5575 -27.5519 -27.5485 -27.5441 -27.4805 -27.4714 -27.4017 -27.3935
    -6.0511  -5.9129  -5.8517  -5.8161  -5.2433  -5.1209  -5.0522  -4.9858
     1.9908   2.3288   2.4081   2.5816   3.4173   3.4958   3.5735   3.6060
     3.6835   3.7783   3.8627   3.9930   4.8538   4.9112   4.9492   4.9903
     5.5824   5.6385   5.6747   5.7176   5.7449   5.9517   6.0583   6.3066
     6.5335   6.5998   6.6586   6.7063   9.2432   9.4205   9.5613   9.6386
     9.7147   9.7835   9.8248   9.8474  10.1758  10.3438

          k = 0.0000 0.3608 0.0000 ( 21187 PWs)   bands (ev):

   -53.4661 -53.4604 -53.3873 -53.3825 -27.7120 -27.7018 -27.6332 -27.6239
   -27.6148 -27.6067 -27.5364 -27.5287 -27.4981 -27.4890 -27.4193 -27.4111
    -5.6667  -5.5373  -5.4788  -5.4461  -5.0653  -4.9663  -4.8987  -4.8519
     1.9629   2.1924   2.2521   2.3244   3.0388   3.2195   3.2820   3.3750
     3.4436   3.5135   3.5795   3.6885   4.5648   4.6238   4.6624   4.7029
     5.5090   5.7234   5.8120   5.8988   5.9655   6.0088   6.0326   6.0452
     6.3118   6.3719   6.4327   6.4746   9.3597   9.5373   9.5395   9.6002
     9.6646   9.6685   9.6996   9.9371  10.5051  10.6744

          k = 0.0000 0.4330 0.0000 ( 21140 PWs)   bands (ev):

   -53.4594 -53.4537 -53.3806 -53.3759 -27.7755 -27.7650 -27.6967 -27.6871
   -27.6017 -27.5936 -27.5233 -27.5156 -27.5130 -27.5038 -27.4342 -27.4259
    -5.3004  -5.1846  -5.1326  -5.0998  -4.8983  -4.8251  -4.7608  -4.7312
     1.7451   1.8956   1.9322   1.9863   2.7009   2.8691   2.9083   2.9815
     3.3122   3.4352   3.4968   3.5943   4.3435   4.4037   4.4427   4.4829
     5.3326   5.5433   5.6214   5.8183   6.1501   6.2310   6.2843   6.3133
     6.3292   6.4114   6.4671   6.5273   9.5354   9.5794   9.6202   9.6458
     9.6653   9.7713   9.8616  10.0670  10.8163  10.9677

          k = 0.0000 0.5052 0.0000 ( 21078 PWs)   bands (ev):

   -53.4549 -53.4492 -53.3761 -53.3714 -27.8176 -27.8069 -27.7388 -27.7290
   -27.5929 -27.5848 -27.5229 -27.5145 -27.5137 -27.5069 -27.4441 -27.4358
    -5.0243  -4.9253  -4.8847  -4.8450  -4.7747  -4.7250  -4.6697  -4.6429
     1.5246   1.6449   1.6677   1.7275   2.4635   2.6066   2.6439   2.7034
     3.1997   3.3336   3.3971   3.4780   4.2055   4.2664   4.3055   4.3456
     5.2358   5.4387   5.5123   5.6884   6.3018   6.3955   6.4560   6.4828
     6.5176   6.6028   6.6553   6.7132   9.5879   9.6167   9.6793   9.6960
     9.9096  10.0142  10.0733  10.1903  11.0132  11.1458

          k = 0.0000-0.5774 0.0000 ( 21006 PWs)   bands (ev):

   -53.4533 -53.4477 -53.3746 -53.3698 -27.8323 -27.8216 -27.7535 -27.7436
   -27.5898 -27.5818 -27.5264 -27.5171 -27.5114 -27.5038 -27.4475 -27.4392
    -4.9177  -4.8286  -4.7957  -4.7502  -4.7283  -4.6889  -4.6394  -4.6091
     1.4345   1.5487   1.5687   1.6297   2.3779   2.5118   2.5494   2.6052
     3.1493   3.2848   3.3488   3.4246   4.1586   4.2198   4.2590   4.2990
     5.2065   5.4052   5.4776   5.6447   6.3510   6.4497   6.5123   6.5399
     6.6354   6.7062   6.7526   6.8000   9.6178   9.6416   9.7027   9.7200
    10.0638  10.1240  10.1873  10.2257  11.0758  11.1903

          k = 0.0625 0.1083 0.0000 ( 21269 PWs)   bands (ev):

   -53.4900 -53.4842 -53.4112 -53.4063 -27.6617 -27.6532 -27.5833 -27.5752
   -27.4793 -27.4702 -27.4450 -27.4361 -27.4004 -27.3922 -27.3661 -27.3581
    -6.7301  -6.5841  -6.5212  -6.4818  -5.5620  -5.4031  -5.3336  -5.2352
     1.4807   1.8727   1.9695   2.2489   4.3677   4.4045   4.4233   4.4505
     4.4989   4.8258   4.9244   4.9627   4.9744   5.0044   5.0534   5.2310
     5.5509   5.5977   5.6343   5.6767   6.0774   6.2148   6.3237   6.6382
     6.9693   7.2576   7.3703   7.6851   9.8770   9.9118   9.9341   9.9702
    10.0035  10.0143  10.0613  10.1312  10.1442  10.1708

          k = 0.0625 0.1804 0.0000 ( 21194 PWs)   bands (ev):

   -53.4844 -53.4786 -53.4056 -53.4008 -27.6508 -27.6424 -27.5724 -27.5644
   -27.5330 -27.5236 -27.4588 -27.4542 -27.4498 -27.4457 -27.3799 -27.3719
    -6.5061  -6.3618  -6.2992  -6.2607  -5.4564  -5.3090  -5.2397  -5.1515
     1.7063   2.0966   2.1912   2.4591   3.9833   4.0328   4.0546   4.1028
     4.1326   4.4448   4.5512   4.7751   5.1339   5.1834   5.1917   5.2289
     5.2318   5.2676   5.2756   5.3110   6.1332   6.2909   6.4032   6.6737
     6.8877   7.0720   7.1521   7.3039   9.4870   9.5933   9.6824   9.8126
     9.8554   9.9199   9.9419   9.9789   9.9983  10.0539

          k = 0.0625 0.2526 0.0000 ( 21202 PWs)   bands (ev):

   -53.4771 -53.4714 -53.3984 -53.3935 -27.6365 -27.6282 -27.6025 -27.5928
   -27.5581 -27.5502 -27.5236 -27.5149 -27.4768 -27.4677 -27.3979 -27.3898
    -6.1946  -6.0540  -5.9922  -5.9555  -5.3099  -5.1793  -5.1103  -5.0368
     1.9440   2.3128   2.3994   2.6202   3.5941   3.6421   3.6845   3.7350
     3.8084   4.0145   4.0993   4.2517   4.8110   4.8583   4.9004   4.9394
     5.4082   5.4626   5.4961   5.5417   6.0334   6.1966   6.2976   6.5186
     6.6764   6.7561   6.8156   6.8641   9.2216   9.3824   9.4965   9.6628
     9.7722   9.8186   9.8727   9.8851   9.9819  10.1050

          k = 0.0625 0.3248 0.0000 ( 21194 PWs)   bands (ev):

   -53.4692 -53.4635 -53.3905 -53.3857 -27.6768 -27.6668 -27.6211 -27.6128
   -27.5980 -27.5889 -27.5427 -27.5349 -27.4962 -27.4871 -27.4174 -27.4092
    -5.8268  -5.6931  -5.6331  -5.5992  -5.1381  -5.0287  -4.9605  -4.9053
     2.0350   2.3191   2.3882   2.4994   3.2391   3.3697   3.4667   3.5170
     3.5837   3.5934   3.6804   3.7734   4.5052   4.5669   4.6153   4.6528
     5.6410   5.7036   5.7317   5.7814   5.8245   5.9786   6.0634   6.2530
     6.4421   6.4842   6.5442   6.5718   9.1839   9.3580   9.4517   9.5732
     9.7056   9.7626   9.7965   9.9251  10.2355  10.4026

          k = 0.0625 0.3969 0.0000 ( 21151 PWs)   bands (ev):

   -53.4620 -53.4563 -53.3832 -53.3784 -27.7448 -27.7344 -27.6659 -27.6565
   -27.6067 -27.5986 -27.5283 -27.5206 -27.5141 -27.5049 -27.4352 -27.4270
    -5.4483  -5.3258  -5.2703  -5.2382  -4.9631  -4.8786  -4.8123  -4.7762
     1.8951   2.0783   2.1271   2.1819   2.8678   3.0346   3.0735   3.1509
     3.3904   3.4996   3.5592   3.6623   4.3037   4.3720   4.4196   4.4571
     5.5541   5.7266   5.7816   5.8079   5.8479   5.8942   5.9244   6.0065
     6.4488   6.4865   6.5405   6.5680   9.3159   9.4581   9.5191   9.6022
     9.7488   9.8060   9.8510  10.0116  10.5750  10.7286

          k = 0.0625 0.4691 0.0000 ( 21105 PWs)   bands (ev):

   -53.4564 -53.4507 -53.3776 -53.3728 -27.7963 -27.7857 -27.7175 -27.7078
   -27.5957 -27.5877 -27.5277 -27.5185 -27.5173 -27.5097 -27.4489 -27.4406
    -5.1218  -5.0152  -4.9690  -4.9332  -4.8143  -4.7553  -4.6953  -4.6696
     1.6691   1.8015   1.8303   1.8870   2.5526   2.6911   2.7240   2.7856
     3.2725   3.4086   3.4703   3.5554   4.1928   4.2573   4.2972   4.3387
     5.3633   5.5388   5.6070   5.7578   5.9119   5.9856   6.0467   6.0781
     6.6208   6.6666   6.7167   6.7512   9.5057   9.5864   9.6301   9.6778
     9.8833   9.9545  10.0077  10.1342  10.8907  11.0299

          k = 0.0625 0.5413 0.0000 ( 21084 PWs)   bands (ev):

   -53.4533 -53.4477 -53.3746 -53.3698 -27.8240 -27.8133 -27.7452 -27.7354
   -27.5898 -27.5818 -27.5351 -27.5258 -27.5114 -27.5038 -27.4563 -27.4479
    -4.9242  -4.8331  -4.7989  -4.7543  -4.7258  -4.6855  -4.6351  -4.6055
     1.5134   1.6297   1.6501   1.7112   2.3737   2.4967   2.5309   2.5863
     3.1783   3.3192   3.3824   3.4580   4.1471   4.2053   4.2388   4.2851
     5.2583   5.4360   5.5052   5.6538   5.9956   6.0872   6.1511   6.1753
     6.7739   6.8294   6.8792   6.9170   9.6183   9.6455   9.6936   9.7206
    10.0581  10.1246  10.1814  10.2410  11.1169  11.2193

          k = 0.1250 0.2165 0.0000 ( 21179 PWs)   bands (ev):

   -53.4782 -53.4725 -53.3995 -53.3946 -27.6387 -27.6304 -27.5884 -27.5788
   -27.5603 -27.5524 -27.5096 -27.5008 -27.4776 -27.4686 -27.3988 -27.3907
    -6.2438  -6.1025  -6.0405  -6.0035  -5.3327  -5.1992  -5.1302  -5.0543
     1.9252   2.3037   2.3929   2.6303   3.6654   3.7117   3.7395   3.7972
     3.8946   4.1694   4.2600   4.4363   4.6788   4.7151   4.7649   4.7977
     5.3286   5.3825   5.4145   5.4615   6.2202   6.3594   6.4546   6.6462
     6.7433   6.8250   6.8903   6.9290   9.2086   9.3607   9.4613   9.6302
     9.7500   9.8202   9.8335   9.8669   9.9106   9.9778

          k = 0.1250 0.2887 0.0000 ( 21199 PWs)   bands (ev):

   -53.4710 -53.4652 -53.3922 -53.3874 -27.6520 -27.6421 -27.6244 -27.6162
   -27.5732 -27.5641 -27.5460 -27.5382 -27.5010 -27.4919 -27.4222 -27.4139
    -5.9110  -5.7752  -5.7146  -5.6801  -5.1757  -5.0611  -4.9926  -4.9328
     2.0797   2.4022   2.4776   2.6263   3.4079   3.4757   3.5565   3.6046
     3.6888   3.7869   3.8659   3.9241   4.2488   4.3250   4.3909   4.4780
     5.4312   5.4920   5.5273   5.5708   6.1482   6.2692   6.3449   6.4820
     6.5511   6.5684   6.6203   6.6484   9.0495   9.2295   9.3328   9.5035
     9.7549   9.8034   9.8343   9.8906   9.9912  10.1204

          k = 0.1250 0.3608 0.0000 ( 21195 PWs)   bands (ev):

   -53.4637 -53.4580 -53.3849 -53.3801 -27.7145 -27.7043 -27.6357 -27.6264
   -27.6101 -27.6020 -27.5317 -27.5248 -27.5240 -27.5155 -27.4459 -27.4376
    -5.5451  -5.4186  -5.3613  -5.3291  -5.0036  -4.9118  -4.8446  -4.8031
     2.0430   2.2659   2.3250   2.3925   3.0720   3.2004   3.2429   3.3150
     3.4893   3.5711   3.6302   3.7176   4.0529   4.1756   4.2470   4.3483
     5.3753   5.4412   5.4834   5.5199   5.9252   6.0370   6.0932   6.2065
     6.4981   6.5298   6.5891   6.6086   9.0859   9.2787   9.3849   9.5698
     9.8328   9.8742   9.9094   9.9870  10.2319  10.3841

          k = 0.1250 0.4330 0.0000 ( 21113 PWs)   bands (ev):

   -53.4575 -53.4518 -53.3787 -53.3739 -27.7668 -27.7564 -27.6880 -27.6785
   -27.5979 -27.5899 -27.5450 -27.5357 -27.5195 -27.5119 -27.4662 -27.4578
    -5.1986  -5.0861  -5.0362  -5.0026  -4.8413  -4.7748  -4.7119  -4.6846
     1.8755   2.0321   2.0732   2.1245   2.6624   2.7704   2.7868   2.8542
     3.3925   3.5354   3.5941   3.6724   4.0208   4.1432   4.2101   4.2838
     5.3160   5.4080   5.4606   5.4952   5.6537   5.7561   5.8128   5.9164
     6.6378   6.6701   6.7288   6.7501   9.2924   9.4722   9.5684   9.7348
     9.9442   9.9738  10.0244  10.0712  10.5432  10.6785

          k = 0.1250 0.5052 0.0000 ( 21081 PWs)   bands (ev):

   -53.4533 -53.4477 -53.3746 -53.3698 -27.8015 -27.7910 -27.7227 -27.7130
   -27.5898 -27.5818 -27.5586 -27.5492 -27.5114 -27.5038 -27.4797 -27.4713
    -4.9392  -4.8438  -4.8067  -4.7644  -4.7201  -4.6772  -4.6246  -4.5965
     1.7191   1.8454   1.8703   1.9288   2.3673   2.4621   2.4857   2.5444
     3.2676   3.4224   3.4837   3.5537   4.0640   4.1652   4.2191   4.2619
     5.3070   5.4227   5.4606   5.5154   5.5373   5.5617   5.5933   5.7074
     6.8244   6.8684   6.9251   6.9528   9.5104   9.6093   9.6644   9.7295
    10.0907  10.1488  10.2013  10.2722  10.8140  10.9249

          k = 0.1250 0.5774 0.0000 ( 21108 PWs)   bands (ev):

   -53.4519 -53.4462 -53.3731 -53.3684 -27.8137 -27.8030 -27.7349 -27.7251
   -27.5869 -27.5790 -27.5633 -27.5539 -27.5085 -27.5010 -27.4845 -27.4760
    -4.8394  -4.7540  -4.7258  -4.6805  -4.6700  -4.6420  -4.5948  -4.5629
     1.6574   1.7752   1.7940   1.8567   2.2621   2.3534   2.3802   2.4359
     3.2067   3.3615   3.4238   3.4925   4.1088   4.1821   4.2176   4.2653
     5.2627   5.4026   5.4369   5.4874   5.5018   5.5577   5.5678   5.6472
     6.9160   6.9692   7.0259   7.0580   9.5868   9.6131   9.6592   9.6896
    10.2020  10.2723  10.3284  10.3670  10.9173  11.0557

          k = 0.1875 0.3248 0.0000 ( 21195 PWs)   bands (ev):

   -53.4643 -53.4586 -53.3855 -53.3807 -27.7009 -27.6907 -27.6221 -27.6128
   -27.6113 -27.6031 -27.5329 -27.5316 -27.5252 -27.5223 -27.4527 -27.4444
    -5.5786  -5.4509  -5.3930  -5.3606  -5.0173  -4.9229  -4.8556  -4.8120
     2.1057   2.3485   2.4113   2.4893   3.2045   3.2850   3.3429   3.4071
     3.5325   3.5941   3.6684   3.7117   3.9179   4.0530   4.1362   4.2981
     5.2007   5.2673   5.3083   5.3465   6.0873   6.1836   6.2240   6.3150
     6.5010   6.5400   6.6033   6.6186   8.9981   9.2068   9.3257   9.5480
     9.8533   9.8871   9.9226   9.9687  10.0871  10.2250

          k = 0.1875 0.3969 0.0000 ( 21153 PWs)   bands (ev):

   -53.4581 -53.4524 -53.3793 -53.3745 -27.7430 -27.7326 -27.6642 -27.6547
   -27.5991 -27.5911 -27.5625 -27.5531 -27.5207 -27.5131 -27.4837 -27.4752
    -5.2407  -5.1251  -5.0734  -5.0406  -4.8548  -4.7840  -4.7199  -4.6909
     2.0308   2.2124   2.2648   2.3154   2.7609   2.8251   2.8319   2.9083
     3.5104   3.6479   3.7205   3.7670   3.9233   4.0394   4.1225   4.2712
     4.8833   4.9579   5.0102   5.0400   5.8524   5.9317   5.9789   6.0349
     6.6046   6.6449   6.7107   6.7287   9.1515   9.3764   9.5028   9.7821
     9.9688   9.9896  10.0414  10.0670  10.2707  10.4059

          k = 0.1875 0.4691 0.0000 ( 21101 PWs)   bands (ev):

   -53.4533 -53.4477 -53.3746 -53.3698 -27.7736 -27.7631 -27.6948 -27.6852
   -27.5898 -27.5875 -27.5818 -27.5780 -27.5114 -27.5087 -27.5039 -27.5001
    -4.9537  -4.8544  -4.8146  -4.7744  -4.7146  -4.6690  -4.6142  -4.5873
     1.9503   2.0992   2.1380   2.1875   2.3656   2.4293   2.4431   2.5079
     3.4272   3.5982   3.6533   3.6964   3.9762   4.1140   4.1855   4.2832
     4.6901   4.8070   4.8726   4.9200   5.5598   5.6366   5.7009   5.7473
     6.8094   6.8413   6.9064   6.9227   9.3675   9.5252   9.6033   9.7325
    10.1304  10.1840  10.2331  10.3065  10.4837  10.5677

          k = 0.1875 0.5413 0.0000 ( 21112 PWs)   bands (ev):

   -53.4508 -53.4451 -53.3720 -53.3673 -27.7897 -27.7791 -27.7108 -27.7011
   -27.6015 -27.5920 -27.5848 -27.5768 -27.5227 -27.5140 -27.5064 -27.4988
    -4.7816  -4.6985  -4.6743  -4.6335  -4.6172  -4.6036  -4.5579  -4.5249
     1.9103   2.0440   2.0666   2.1287   2.1531   2.2118   2.2394   2.2919
     3.2876   3.4556   3.5173   3.5727   4.0945   4.2065   4.2584   4.3092
     4.6411   4.7883   4.8550   4.9102   5.3646   5.4298   5.4906   5.5498
     6.9933   7.0340   7.0960   7.1193   9.4348   9.4855   9.5340   9.5701
    10.3169  10.4154  10.4713  10.5468  10.6064  10.6583

          k = 0.2500 0.4330 0.0000 ( 21125 PWs)   bands (ev):

   -53.4533 -53.4477 -53.3746 -53.3698 -27.7590 -27.7486 -27.6802 -27.6707
   -27.6025 -27.5930 -27.5898 -27.5818 -27.5237 -27.5150 -27.5114 -27.5039
    -4.9595  -4.8588  -4.8179  -4.7785  -4.7124  -4.6656  -4.6099  -4.5834
     2.0550   2.2188   2.2674   2.3073   2.3699   2.4172   2.4296   2.4937
     3.5866   3.6991   3.7851   3.8272   3.9918   4.0985   4.1781   4.3176
     4.4004   4.4461   4.4947   4.5237   5.6183   5.6800   5.7620   5.7712
     6.7928   6.8237   6.8917   6.9053   9.3071   9.4844   9.5714   9.7249
    10.1412  10.1905  10.2396  10.3130  10.3568  10.4399

          k = 0.2500 0.5052 0.0000 ( 21117 PWs)   bands (ev):

   -53.4502 -53.4445 -53.3714 -53.3667 -27.7638 -27.7533 -27.6850 -27.6754
   -27.6352 -27.6255 -27.5836 -27.5757 -27.5563 -27.5476 -27.5052 -27.4977
    -4.7535  -4.6706  -4.6480  -4.6073  -4.5894  -4.5808  -4.5355  -4.5022
     2.0366   2.1094   2.1238   2.1996   2.2145   2.3112   2.3514   2.3981
     3.4529   3.6217   3.6603   3.6969   4.0050   4.1121   4.1808   4.2276
     4.2465   4.2919   4.3458   4.4227   5.3521   5.4081   5.4885   5.5212
     7.0360   7.0630   7.1297   7.1436   9.2998   9.3707   9.4212   9.4686
    10.2923  10.3416  10.4155  10.4318  10.5667  10.5985

          k = 0.2500 0.5774 0.0000 ( 21116 PWs)   bands (ev):

   -53.4491 -53.4434 -53.3703 -53.3656 -27.7637 -27.7532 -27.6849 -27.6752
   -27.6485 -27.6387 -27.5814 -27.5735 -27.5696 -27.5608 -27.5030 -27.4955
    -4.6740  -4.6026  -4.5923  -4.5677  -4.5503  -4.5229  -4.5051  -4.4721
     1.9469   2.0150   2.0201   2.0971   2.2903   2.3788   2.3945   2.4591
     3.3072   3.4619   3.5206   3.5577   3.9465   4.1314   4.1735   4.2259
     4.3075   4.3534   4.4066   4.4437   5.2432   5.2730   5.3545   5.3875
     7.1624   7.1935   7.2589   7.2760   9.2288   9.2567   9.3064   9.3346
    10.3153  10.3828  10.4167  10.4664  10.7453  10.7512

          k = 0.3125 0.5413 0.0000 ( 21100 PWs)   bands (ev):

   -53.4485 -53.4428 -53.3697 -53.3650 -27.7426 -27.7321 -27.6769 -27.6672
   -27.6638 -27.6542 -27.5981 -27.5892 -27.5802 -27.5723 -27.5018 -27.4944
    -4.6350  -4.5703  -4.5638  -4.5460  -4.5307  -4.4901  -4.4829  -4.4527
     1.8833   1.9492   1.9509   2.0266   2.5004   2.6163   2.6444   2.6981
     3.3107   3.3545   3.4020   3.4728   3.7985   3.8702   3.8730   3.9363
     4.3443   4.4081   4.4686   4.5006   5.1489   5.1934   5.2785   5.3256
     7.2467   7.2705   7.3386   7.3503   9.1108   9.1408   9.1897   9.2191
    10.2631  10.2890  10.3260  10.3825  10.8411  10.8898

     the Fermi energy is     8.4084 ev

!    total energy              =   -1978.36726461 Ry
     total all-electron energy =    -38771.688109 Ry
     estimated scf accuracy    <          8.2E-09 Ry
     smearing contrib. (-TS)   =       0.00006796 Ry
     internal energy E=F+TS    =   -1978.36733257 Ry

     The total energy is F=E-TS. E is the sum of the following terms:
     one-electron contribution =   -1436.69743199 Ry
     hartree contribution      =     760.60399952 Ry
     xc contribution           =    -119.25117369 Ry
     ewald contribution        =      86.83044806 Ry
     one-center paw contrib.   =   -1269.85317448 Ry

     convergence has been achieved in  42 iterations

     Forces acting on atoms (cartesian axes, Ry/au):

     atom    1 type  2   force =     0.00000000    0.00000000    0.00116041
     atom    2 type  1   force =     0.00000000    0.00000000    0.00111086
     atom    3 type  2   force =     0.00000000    0.00000000    0.00129649
     atom    4 type  2   force =     0.00000000    0.00000000   -0.00566163
     atom    5 type  1   force =     0.00000000    0.00000000   -0.00178208
     atom    6 type  2   force =     0.00000000   -0.00000000   -0.00027915
     atom    7 type  2   force =     0.00000000    0.00000000   -0.00060519
     atom    8 type  1   force =     0.00000000    0.00000000    0.00322901
     atom    9 type  2   force =     0.00000000    0.00000000    0.00513152
     atom   10 type  2   force =     0.00000000    0.00000000   -0.00160987
     atom   11 type  1   force =     0.00000000    0.00000000   -0.00091664
     atom   12 type  2   force =     0.00000000    0.00000000   -0.00107373

     Total force =     0.009016     Total SCF correction =     0.000314

     BFGS Geometry Optimization
     Energy error            =      0.0E+00 Ry
     Gradient error          =      5.7E-03 Ry/Bohr

     number of scf cycles    =   1
     number of bfgs steps    =   0

     energy             new  =   -1978.3672646144 Ry

     new trust radius        =       0.0056616330 bohr
     new conv_thr            =       0.0000000100 Ry


ATOMIC_POSITIONS (crystal)
S                0.3333330000        0.6666670000       -0.1163996300
Mo               0.0000000000        0.0000000000       -0.0639559369
S                0.3333330000        0.6666670000       -0.0114477716
S                0.6666670000        0.3333330000        0.1071528164
Mo               0.3333330000        0.6666670000        0.1595495704
S                0.6666670000        0.3333330000        0.2118122264
S                0.0000000000        0.0000000000        0.3062246359
Mo               0.6666670000        0.3333330000        0.3585384088
S                0.0000000000        0.0000000000        0.4108928190
S                0.3333330000        0.6666670000        0.5317288055
Mo               0.0000000000        0.0000000000        0.5842336854
S                0.3333330000        0.6666670000        0.6366703706



     Writing config-only to output data dir ./tmp/relax2/mos2_slab2.save/ :
     XML data file
     NEW-OLD atomic charge density approx. for the potential

     total cpu time spent up to now is     5098.3 secs

     Self-consistent Calculation

     iteration #  1     ecut=    80.00 Ry     beta= 0.20
     Davidson diagonalization with overlap
     ethr =  1.00E-06,  avg # of iterations =  3.4

     Threshold (ethr) on eigenvalues was too large:
     Diagonalizing with lowered threshold

     Davidson diagonalization with overlap
     ethr =  4.92E-09,  avg # of iterations =  5.2

     total cpu time spent up to now is     5412.9 secs

     total energy              =   -1978.36733944 Ry
     estimated scf accuracy    <       0.00000391 Ry

     iteration #  2     ecut=    80.00 Ry     beta= 0.20
     Davidson diagonalization with overlap
     ethr =  3.76E-09,  avg # of iterations =  1.1

     total cpu time spent up to now is     5513.5 secs

     total energy              =   -1978.36733859 Ry
     estimated scf accuracy    <       0.00000288 Ry

     iteration #  3     ecut=    80.00 Ry     beta= 0.20
     Davidson diagonalization with overlap
     ethr =  2.77E-09,  avg # of iterations =  2.8

     total cpu time spent up to now is     5632.3 secs

     total energy              =   -1978.36733892 Ry
     estimated scf accuracy    <       0.00000027 Ry

     iteration #  4     ecut=    80.00 Ry     beta= 0.20
     Davidson diagonalization with overlap
     ethr =  2.62E-10,  avg # of iterations =  2.2

     total cpu time spent up to now is     5743.5 secs

     total energy              =   -1978.36733890 Ry
     estimated scf accuracy    <       0.00000019 Ry

     iteration #  5     ecut=    80.00 Ry     beta= 0.20
     Davidson diagonalization with overlap
     ethr =  1.83E-10,  avg # of iterations =  3.3

     total cpu time spent up to now is     5866.1 secs

     total energy              =   -1978.36733892 Ry
     estimated scf accuracy    <       0.00000018 Ry

     iteration #  6     ecut=    80.00 Ry     beta= 0.20
     Davidson diagonalization with overlap
     ethr =  1.76E-10,  avg # of iterations =  1.1

     total cpu time spent up to now is     5967.0 secs

     total energy              =   -1978.36733891 Ry
     estimated scf accuracy    <       0.00000009 Ry

     iteration #  7     ecut=    80.00 Ry     beta= 0.20
     Davidson diagonalization with overlap
     ethr =  8.60E-11,  avg # of iterations =  2.2

     total cpu time spent up to now is     6078.3 secs

     total energy              =   -1978.36733892 Ry
     estimated scf accuracy    <       0.00000005 Ry

     iteration #  8     ecut=    80.00 Ry     beta= 0.20
     Davidson diagonalization with overlap
     ethr =  4.96E-11,  avg # of iterations =  2.0

     total cpu time spent up to now is     6197.4 secs

     total energy              =   -1978.36733894 Ry
     estimated scf accuracy    <       0.00000008 Ry

     iteration #  9     ecut=    80.00 Ry     beta= 0.20
     Davidson diagonalization with overlap
     ethr =  4.96E-11,  avg # of iterations =  3.2

     total cpu time spent up to now is     6311.7 secs

     total energy              =   -1978.36733891 Ry
     estimated scf accuracy    <       0.00000016 Ry

     iteration # 10     ecut=    80.00 Ry     beta= 0.20
     Davidson diagonalization with overlap
     ethr =  4.96E-11,  avg # of iterations =  2.4

     total cpu time spent up to now is     6431.4 secs

     total energy              =   -1978.36733891 Ry
     estimated scf accuracy    <       0.00000004 Ry

     iteration # 11     ecut=    80.00 Ry     beta= 0.20
     Davidson diagonalization with overlap
     ethr =  3.96E-11,  avg # of iterations =  2.7

     total cpu time spent up to now is     6544.7 secs

     total energy              =   -1978.36733891 Ry
     estimated scf accuracy    <       0.00000002 Ry

     iteration # 12     ecut=    80.00 Ry     beta= 0.20
     Davidson diagonalization with overlap
     ethr =  1.65E-11,  avg # of iterations =  2.1

     total cpu time spent up to now is     6656.0 secs

     total energy              =   -1978.36733891 Ry
     estimated scf accuracy    <       0.00000001 Ry

     iteration # 13     ecut=    80.00 Ry     beta= 0.20
     Davidson diagonalization with overlap
     ethr =  1.06E-11,  avg # of iterations =  1.0

     total cpu time spent up to now is     6754.8 secs

     End of self-consistent calculation

          k = 0.0000 0.0000 0.0000 ( 21311 PWs)   bands (ev):

   -53.4937 -53.4898 -53.4159 -53.4109 -27.6693 -27.6630 -27.5919 -27.5840
   -27.4326 -27.4326 -27.4262 -27.4262 -27.3547 -27.3547 -27.3473 -27.3473
    -6.9011  -6.7599  -6.6946  -6.6531  -5.6444  -5.4784  -5.4077  -5.3010
     1.2884   1.6745   1.7726   2.0600   4.7537   4.7537   4.7620   4.7927
     4.7927   4.8311   4.8311   4.8723   4.8723   5.3302   5.5909   5.8713
     5.8714   5.9090   5.9090   5.9521   5.9522   5.9883   5.9884   6.2722
     6.9740   7.3407   7.4914   7.9802  10.1040  10.1040  10.1562  10.1562
    10.2044  10.2044  10.2343  10.2343  10.3470  10.3476

          k = 0.0000 0.0722 0.0000 ( 21283 PWs)   bands (ev):

   -53.4921 -53.4882 -53.4143 -53.4093 -27.6663 -27.6600 -27.5888 -27.5810
   -27.4482 -27.4418 -27.4361 -27.4298 -27.3703 -27.3629 -27.3583 -27.3509
    -6.8415  -6.7006  -6.6353  -6.5939  -5.6163  -5.4532  -5.3826  -5.2784
     1.3564   1.7431   1.8410   2.1274   4.6175   4.6250   4.6586   4.6963
     4.7377   4.8158   4.8552   4.8936   4.9347   5.1090   5.2868   5.5793
     5.7736   5.8124   5.8560   5.8918   5.9822   6.0733   6.1596   6.4905
     6.9773   7.3203   7.4566   7.8824  10.0439  10.0675  10.1216  10.1464
    10.1722  10.1846  10.2190  10.2556  10.2640  10.3020

          k = 0.0000 0.1443 0.0000 ( 21263 PWs)   bands (ev):

   -53.4877 -53.4838 -53.4099 -53.4049 -27.6576 -27.6513 -27.5801 -27.5724
   -27.4924 -27.4858 -27.4462 -27.4398 -27.4145 -27.4069 -27.3683 -27.3609
    -6.6675  -6.5276  -6.4624  -6.4217  -5.5340  -5.3799  -5.3095  -5.2128
     1.5454   1.9325   2.0294   2.3107   4.2660   4.2988   4.3183   4.3534
     4.3917   4.6973   4.8222   4.9941   5.0351   5.0705   5.0733   5.1146
     5.5216   5.5624   5.6071   5.6418   6.0446   6.1979   6.3155   6.6342
     6.9504   7.2120   7.3152   7.5797   9.7538   9.8276   9.8832   9.9246
     9.9861   9.9970  10.0435  10.0781  10.1220  10.1565

          k = 0.0000 0.2165 0.0000 ( 21233 PWs)   bands (ev):

   -53.4810 -53.4771 -53.4032 -53.3982 -27.6445 -27.6384 -27.5671 -27.5594
   -27.5580 -27.5512 -27.4801 -27.4723 -27.4612 -27.4548 -27.3833 -27.3759
    -6.3939  -6.2563  -6.1915  -6.1524  -5.4048  -5.2652  -5.1951  -5.1108
     1.8004   2.1802   2.2730   2.5327   3.8284   3.8709   3.8982   3.9486
     3.9893   4.2400   4.3349   4.5280   5.1856   5.2380   5.2613   5.2941
     5.3099   5.3178   5.3544   5.3896   5.9596   6.1458   6.2666   6.5491
     6.8086   6.9510   7.0214   7.1288   9.3756   9.5084   9.6279   9.8243
     9.8375   9.9049   9.9603   9.9748  10.0169  10.0773

          k = 0.0000 0.2887 0.0000 ( 21197 PWs)   bands (ev):

   -53.4732 -53.4693 -53.3953 -53.3904 -27.6345 -27.6291 -27.6274 -27.6230
   -27.5567 -27.5517 -27.5485 -27.5441 -27.4789 -27.4724 -27.4010 -27.3935
    -6.0458  -5.9132  -5.8492  -5.8131  -5.2413  -5.1215  -5.0518  -4.9841
     1.9970   2.3292   2.4090   2.5875   3.4223   3.4992   3.5743   3.6074
     3.6847   3.7789   3.8641   3.9972   4.8619   4.9110   4.9560   4.9906
     5.5912   5.6384   5.6825   5.7180   5.7439   5.9505   6.0579   6.3052
     6.5329   6.5993   6.6586   6.7058   9.2404   9.4189   9.5602   9.6374
     9.7135   9.7831   9.8235   9.8447  10.1737  10.3412

          k = 0.0000 0.3608 0.0000 ( 21187 PWs)   bands (ev):

   -53.4653 -53.4614 -53.3874 -53.3825 -27.7101 -27.7028 -27.6323 -27.6238
   -27.6136 -27.6077 -27.5362 -27.5287 -27.4965 -27.4899 -27.4186 -27.4110
    -5.6614  -5.5376  -5.4758  -5.4438  -5.0627  -4.9668  -4.8981  -4.8497
     1.9699   2.1929   2.2543   2.3288   3.0421   3.2209   3.2824   3.3766
     3.4448   3.5146   3.5806   3.6921   4.5730   4.6236   4.6693   4.7033
     5.5074   5.7221   5.8116   5.9067   5.9653   6.0156   6.0308   6.0459
     6.3123   6.3717   6.4329   6.4750   9.3572   9.5372   9.5379   9.5992
     9.6637   9.6683   9.6992   9.9346  10.5026  10.6727

          k = 0.0000 0.4330 0.0000 ( 21140 PWs)   bands (ev):

   -53.4586 -53.4547 -53.3808 -53.3759 -27.7735 -27.7660 -27.6957 -27.6870
   -27.6005 -27.5946 -27.5231 -27.5156 -27.5113 -27.5048 -27.4335 -27.4259
    -5.2950  -5.1849  -5.1286  -5.0986  -4.8950  -4.8255  -4.7596  -4.7292
     1.7516   1.8958   1.9364   1.9877   2.7036   2.8688   2.9096   2.9827
     3.3158   3.4351   3.4977   3.5973   4.3517   4.4035   4.4496   4.4833
     5.3306   5.5420   5.6209   5.8164   6.1568   6.2308   6.2894   6.3147
     6.3300   6.4110   6.4676   6.5282   9.5366   9.5786   9.6185   9.6460
     9.6657   9.7699   9.8611  10.0654  10.8133  10.9653

          k = 0.0000 0.5052 0.0000 ( 21078 PWs)   bands (ev):

   -53.4541 -53.4503 -53.3763 -53.3714 -27.8156 -27.8079 -27.7378 -27.7289
   -27.5917 -27.5858 -27.5212 -27.5146 -27.5142 -27.5069 -27.4434 -27.4357
    -5.0185  -4.9256  -4.8802  -4.8445  -4.7708  -4.7253  -4.6671  -4.6418
     1.5299   1.6448   1.6718   1.7280   2.4659   2.6059   2.6453   2.7042
     3.2041   3.3334   3.3981   3.4812   4.2136   4.2662   4.3125   4.3461
     5.2336   5.4374   5.5119   5.6865   6.3076   6.3952   6.4593   6.4852
     6.5183   6.6023   6.6558   6.7140   9.5901   9.6159   9.6805   9.6963
     9.9089  10.0132  10.0730  10.1898  11.0096  11.1355

          k = 0.0000-0.5774 0.0000 ( 21006 PWs)   bands (ev):

   -53.4525 -53.4487 -53.3747 -53.3698 -27.8303 -27.8225 -27.7525 -27.7436
   -27.5886 -27.5828 -27.5247 -27.5181 -27.5112 -27.5038 -27.4468 -27.4392
    -4.9118  -4.8288  -4.7912  -4.7496  -4.7242  -4.6892  -4.6363  -4.6084
     1.4393   1.5485   1.5726   1.6302   2.3801   2.5110   2.5508   2.6058
     3.1541   3.2846   3.3500   3.4280   4.1668   4.2196   4.2659   4.2995
     5.2043   5.4039   5.4772   5.6428   6.3564   6.4494   6.5149   6.5427
     6.6360   6.7056   6.7530   6.8005   9.6205   9.6409   9.7044   9.7202
    10.0637  10.1232  10.1872  10.2255  11.0732  11.1880

          k = 0.0625 0.1083 0.0000 ( 21269 PWs)   bands (ev):

   -53.4891 -53.4852 -53.4113 -53.4063 -27.6604 -27.6542 -27.5830 -27.5752
   -27.4776 -27.4711 -27.4434 -27.4370 -27.3998 -27.3922 -27.3655 -27.3581
    -6.7247  -6.5844  -6.5192  -6.4782  -5.5610  -5.4039  -5.3334  -5.2343
     1.4854   1.8727   1.9701   2.2536   4.3771   4.4051   4.4236   4.4578
     4.4993   4.8253   4.9345   4.9636   4.9743   5.0127   5.0537   5.2353
     5.5589   5.5974   5.6411   5.6770   6.0806   6.2145   6.3236   6.6383
     6.9669   7.2572   7.3694   7.6821   9.8757   9.9097   9.9336   9.9691
    10.0027  10.0143  10.0610  10.1286  10.1411  10.1694

          k = 0.0625 0.1804 0.0000 ( 21194 PWs)   bands (ev):

   -53.4836 -53.4797 -53.4058 -53.4008 -27.6495 -27.6433 -27.5721 -27.5644
   -27.5313 -27.5246 -27.4571 -27.4534 -27.4507 -27.4457 -27.3793 -27.3718
    -6.5007  -6.3621  -6.2971  -6.2573  -5.4551  -5.3097  -5.2395  -5.1503
     1.7113   2.0967   2.1918   2.4641   3.9919   4.0334   4.0603   4.1043
     4.1337   4.4446   4.5522   4.7795   5.1443   5.1895   5.1919   5.2315
     5.2365   5.2693   5.2817   5.3113   6.1347   6.2901   6.4029   6.6735
     6.8859   7.0714   7.1514   7.3021   9.4845   9.5916   9.6811   9.8123
     9.8533   9.9192   9.9408   9.9779   9.9970  10.0520

          k = 0.0625 0.2526 0.0000 ( 21202 PWs)   bands (ev):

   -53.4763 -53.4724 -53.3985 -53.3935 -27.6353 -27.6292 -27.6007 -27.5937
   -27.5579 -27.5502 -27.5228 -27.5148 -27.4751 -27.4687 -27.3973 -27.3898
    -6.1893  -6.0543  -5.9899  -5.9524  -5.3082  -5.1799  -5.1100  -5.0352
     1.9498   2.3131   2.4001   2.6260   3.6007   3.6452   3.6864   3.7359
     3.8104   4.0146   4.1006   4.2561   4.8180   4.8585   4.9057   4.9403
     5.4171   5.4625   5.5039   5.5420   6.0336   6.1956   6.2973   6.5181
     6.6753   6.7556   6.8154   6.8635   9.2188   9.3807   9.4953   9.6609
     9.7709   9.8172   9.8714   9.8850   9.9798  10.1033

          k = 0.0625 0.3248 0.0000 ( 21194 PWs)   bands (ev):

   -53.4684 -53.4646 -53.3906 -53.3857 -27.6749 -27.6677 -27.6198 -27.6138
   -27.5971 -27.5888 -27.5424 -27.5348 -27.4945 -27.4880 -27.4167 -27.4091
    -5.8215  -5.6934  -5.6304  -5.5966  -5.1357  -5.0293  -4.9601  -4.9033
     2.0418   2.3197   2.3895   2.5049   3.2431   3.3725   3.4676   3.5166
     3.5855   3.5938   3.6824   3.7779   4.5115   4.5673   4.6196   4.6547
     5.6482   5.7034   5.7373   5.7818   5.8251   5.9775   6.0632   6.2518
     6.4429   6.4841   6.5448   6.5721   9.1811   9.3563   9.4508   9.5722
     9.7045   9.7616   9.7961   9.9234  10.2335  10.3991

          k = 0.0625 0.3969 0.0000 ( 21151 PWs)   bands (ev):

   -53.4612 -53.4573 -53.3833 -53.3784 -27.7428 -27.7354 -27.6650 -27.6564
   -27.6055 -27.5996 -27.5281 -27.5206 -27.5124 -27.5058 -27.4346 -27.4269
    -5.4429  -5.3261  -5.2667  -5.2365  -4.9601  -4.8791  -4.8115  -4.7739
     1.9019   2.0786   2.1305   2.1846   2.8710   3.0349   3.0749   3.1522
     3.3937   3.4997   3.5602   3.6654   4.3100   4.3722   4.4241   4.4588
     5.5533   5.7259   5.7829   5.8114   5.8476   5.8961   5.9256   6.0064
     6.4515   6.4866   6.5422   6.5689   9.3138   9.4568   9.5188   9.6020
     9.7484   9.8055   9.8506  10.0100  10.5726  10.7267

          k = 0.0625 0.4691 0.0000 ( 21105 PWs)   bands (ev):

   -53.4556 -53.4517 -53.3777 -53.3728 -27.7943 -27.7866 -27.7165 -27.7077
   -27.5946 -27.5887 -27.5260 -27.5194 -27.5171 -27.5097 -27.4482 -27.4405
    -5.1162  -5.0155  -4.9646  -4.9325  -4.8106  -4.7557  -4.6934  -4.6680
     1.6749   1.8016   1.8345   1.8878   2.5556   2.6905   2.7260   2.7865
     3.2767   3.4084   3.4713   3.5585   4.1995   4.2572   4.3026   4.3395
     5.3618   5.5376   5.6066   5.7562   5.9164   5.9852   6.0488   6.0799
     6.6237   6.6666   6.7185   6.7522   9.5053   9.5856   9.6304   9.6782
     9.8836   9.9538  10.0075  10.1335  10.8877  11.0260

          k = 0.0625 0.5413 0.0000 ( 21084 PWs)   bands (ev):

   -53.4525 -53.4487 -53.3747 -53.3698 -27.8220 -27.8142 -27.7442 -27.7353
   -27.5886 -27.5828 -27.5334 -27.5268 -27.5112 -27.5038 -27.4556 -27.4479
    -4.9183  -4.8333  -4.7944  -4.7539  -4.7217  -4.6858  -4.6320  -4.6047
     1.5183   1.6295   1.6541   1.7116   2.3765   2.4960   2.5329   2.5870
     3.1831   3.3190   3.3836   3.4613   4.1543   4.2050   4.2449   4.2854
     5.2564   5.4348   5.5048   5.6520   5.9998   6.0867   6.1529   6.1770
     6.7764   6.8292   6.8806   6.9180   9.6200   9.6450   9.6948   9.7208
    10.0582  10.1238  10.1812  10.2409  11.1139  11.2166

          k = 0.1250 0.2165 0.0000 ( 21179 PWs)   bands (ev):

   -53.4774 -53.4735 -53.3996 -53.3946 -27.6375 -27.6314 -27.5866 -27.5797
   -27.5600 -27.5524 -27.5088 -27.5008 -27.4760 -27.4695 -27.3981 -27.3906
    -6.2385  -6.1028  -6.0383  -6.0004  -5.3310  -5.1999  -5.1299  -5.0527
     1.9308   2.3040   2.3936   2.6359   3.6726   3.7137   3.7434   3.7977
     3.8965   4.1693   4.2612   4.4411   4.6853   4.7153   4.7695   4.7987
     5.3374   5.3823   5.4223   5.4619   6.2208   6.3585   6.4541   6.6462
     6.7420   6.8246   6.8900   6.9283   9.2057   9.3590   9.4601   9.6281
     9.7496   9.8191   9.8326   9.8653   9.9106   9.9763

          k = 0.1250 0.2887 0.0000 ( 21199 PWs)   bands (ev):

   -53.4702 -53.4663 -53.3923 -53.3874 -27.6502 -27.6430 -27.6232 -27.6172
   -27.5723 -27.5641 -27.5458 -27.5382 -27.4993 -27.4928 -27.4215 -27.4139
    -5.9057  -5.7755  -5.7121  -5.6773  -5.1735  -5.0616  -4.9922  -4.9309
     2.0863   2.4027   2.4786   2.6324   3.4128   3.4787   3.5573   3.6058
     3.6901   3.7876   3.8674   3.9294   4.2537   4.3255   4.3919   4.4820
     5.4382   5.4917   5.5335   5.5712   6.1480   6.2682   6.3445   6.4820
     6.5515   6.5682   6.6211   6.6484   9.0464   9.2278   9.3318   9.5018
     9.7541   9.8025   9.8335   9.8904   9.9897  10.1186

          k = 0.1250 0.3608 0.0000 ( 21195 PWs)   bands (ev):

   -53.4629 -53.4590 -53.3850 -53.3801 -27.7126 -27.7052 -27.6348 -27.6263
   -27.6089 -27.6030 -27.5315 -27.5240 -27.5231 -27.5165 -27.4452 -27.4376
    -5.5397  -5.4189  -5.3581  -5.3270  -5.0008  -4.9123  -4.8440  -4.8009
     2.0500   2.2664   2.3274   2.3968   3.0761   3.2028   3.2439   3.3159
     3.4926   3.5716   3.6314   3.7205   4.0566   4.1758   4.2479   4.3523
     5.3805   5.4407   5.4877   5.5203   5.9246   6.0359   6.0928   6.2055
     6.5019   6.5292   6.5915   6.6089   9.0830   9.2771   9.3842   9.5688
     9.8325   9.8740   9.9091   9.9865  10.2293  10.3786

          k = 0.1250 0.4330 0.0000 ( 21113 PWs)   bands (ev):

   -53.4567 -53.4528 -53.3788 -53.3740 -27.7649 -27.7573 -27.6871 -27.6784
   -27.5968 -27.5909 -27.5433 -27.5366 -27.5193 -27.5119 -27.4655 -27.4577
    -5.1931  -5.0864  -5.0321  -5.0016  -4.8378  -4.7752  -4.7104  -4.6827
     1.8819   2.0323   2.0771   2.1260   2.6667   2.7702   2.7904   2.8548
     3.3966   3.5353   3.5952   3.6750   4.0245   4.1433   4.2111   4.2875
     5.3201   5.4076   5.4630   5.4964   5.6530   5.7550   5.8124   5.9151
     6.6418   6.6696   6.7315   6.7505   9.2901   9.4708   9.5679   9.7345
     9.9446   9.9739  10.0246  10.0712  10.5405  10.6761

          k = 0.1250 0.5052 0.0000 ( 21081 PWs)   bands (ev):

   -53.4525 -53.4487 -53.3747 -53.3698 -27.7995 -27.7919 -27.7217 -27.7129
   -27.5886 -27.5828 -27.5569 -27.5501 -27.5112 -27.5038 -27.4790 -27.4712
    -4.9335  -4.8441  -4.8022  -4.7640  -4.7160  -4.6775  -4.6218  -4.5955
     1.7244   1.8452   1.8743   1.9294   2.3716   2.4616   2.4894   2.5449
     3.2723   3.4222   3.4849   3.5567   4.0682   4.1652   4.2214   4.2641
     5.3090   5.4232   5.4601   5.5151   5.5371   5.5636   5.5933   5.7062
     6.8276   6.8683   6.9270   6.9539   9.5101   9.6085   9.6646   9.7303
    10.0915  10.1483  10.2013  10.2722  10.8104  10.9218

          k = 0.1250 0.5774 0.0000 ( 21108 PWs)   bands (ev):

   -53.4511 -53.4473 -53.3732 -53.3684 -27.8117 -27.8040 -27.7339 -27.7250
   -27.5858 -27.5800 -27.5616 -27.5549 -27.5083 -27.5010 -27.4838 -27.4760
    -4.8335  -4.7542  -4.7215  -4.6782  -4.6676  -4.6423  -4.5915  -4.5622
     1.6621   1.7749   1.7978   1.8571   2.2662   2.3528   2.3837   2.4364
     3.2117   3.3613   3.4251   3.4959   4.1136   4.1819   4.2212   4.2659
     5.2625   5.4047   5.4357   5.4869   5.5015   5.5582   5.5688   5.6471
     6.9189   6.9690   7.0275   7.0593   9.5886   9.6127   9.6603   9.6899
    10.2019  10.2715  10.3284  10.3669  10.9126  11.0431

          k = 0.1875 0.3248 0.0000 ( 21195 PWs)   bands (ev):

   -53.4635 -53.4596 -53.3856 -53.3807 -27.6990 -27.6917 -27.6212 -27.6127
   -27.6101 -27.6041 -27.5326 -27.5299 -27.5251 -27.5232 -27.4520 -27.4443
    -5.5733  -5.4512  -5.3899  -5.3585  -5.0146  -4.9234  -4.8550  -4.8098
     2.1128   2.3489   2.4133   2.4943   3.2093   3.2895   3.3433   3.4076
     3.5360   3.5951   3.6699   3.7142   3.9200   4.0531   4.1372   4.3014
     5.2058   5.2668   5.3126   5.3469   6.0864   6.1825   6.2234   6.3144
     6.5049   6.5393   6.6053   6.6190   8.9948   9.2050   9.3249   9.5465
     9.8530   9.8872   9.9222   9.9686  10.0851  10.2223

          k = 0.1875 0.3969 0.0000 ( 21153 PWs)   bands (ev):

   -53.4573 -53.4534 -53.3794 -53.3746 -27.7410 -27.7336 -27.6632 -27.6546
   -27.5980 -27.5921 -27.5608 -27.5541 -27.5205 -27.5131 -27.4829 -27.4751
    -5.2352  -5.1254  -5.0694  -5.0394  -4.8515  -4.7844  -4.7186  -4.6888
     2.0376   2.2126   2.2680   2.3181   2.7669   2.8295   2.8325   2.9086
     3.5140   3.6492   3.7210   3.7683   3.9246   4.0395   4.1234   4.2741
     4.8876   4.9575   5.0134   5.0408   5.8514   5.9306   5.9781   6.0340
     6.6088   6.6444   6.7128   6.7297   9.1484   9.3746   9.5020   9.7802
     9.9708   9.9888  10.0427  10.0672  10.2678  10.4004

          k = 0.1875 0.4691 0.0000 ( 21101 PWs)   bands (ev):

   -53.4525 -53.4487 -53.3747 -53.3698 -27.7716 -27.7640 -27.6938 -27.6851
   -27.5887 -27.5858 -27.5828 -27.5790 -27.5112 -27.5079 -27.5038 -27.5001
    -4.9480  -4.8547  -4.8102  -4.7740  -4.7107  -4.6693  -4.6116  -4.5862
     1.9561   2.0991   2.1417   2.1885   2.3715   2.4290   2.4483   2.5082
     3.4314   3.5983   3.6550   3.6981   3.9782   4.1138   4.1862   4.2857
     4.6938   4.8066   4.8736   4.9226   5.5587   5.6355   5.7004   5.7460
     6.8134   6.8408   6.9089   6.9233   9.3660   9.5240   9.6031   9.7331
    10.1316  10.1835  10.2330  10.3063  10.4812  10.5657

          k = 0.1875 0.5413 0.0000 ( 21112 PWs)   bands (ev):

   -53.4500 -53.4462 -53.3721 -53.3673 -27.7877 -27.7800 -27.7098 -27.7011
   -27.5998 -27.5929 -27.5836 -27.5778 -27.5219 -27.5140 -27.5062 -27.4988
    -4.7756  -4.6986  -4.6704  -4.6296  -4.6164  -4.6039  -4.5544  -4.5243
     1.9151   2.0439   2.0703   2.1292   2.1585   2.2114   2.2444   2.2923
     3.2925   3.4554   3.5187   3.5758   4.0972   4.2061   4.2595   4.3105
     4.6442   4.7878   4.8557   4.9128   5.3634   5.4287   5.4902   5.5482
     6.9966   7.0337   7.0977   7.1205   9.4366   9.4852   9.5353   9.5711
    10.3159  10.4138  10.4700  10.5461  10.6028  10.6560

          k = 0.2500 0.4330 0.0000 ( 21125 PWs)   bands (ev):

   -53.4525 -53.4487 -53.3747 -53.3698 -27.7571 -27.7495 -27.6793 -27.6706
   -27.6007 -27.5939 -27.5887 -27.5828 -27.5229 -27.5150 -27.5112 -27.5038
    -4.9539  -4.8590  -4.8135  -4.7780  -4.7085  -4.6659  -4.6074  -4.5822
     2.0611   2.2189   2.2708   2.3087   2.3763   2.4168   2.4355   2.4939
     3.5895   3.7021   3.7851   3.8274   3.9927   4.0983   4.1788   4.3196
     4.4042   4.4458   4.4984   4.5240   5.6172   5.6789   5.7619   5.7697
     6.7969   6.8232   6.8942   6.9059   9.3052   9.4831   9.5711   9.7254
    10.1425  10.1895  10.2393  10.3128  10.3546  10.4375

          k = 0.2500 0.5052 0.0000 ( 21117 PWs)   bands (ev):

   -53.4494 -53.4456 -53.3715 -53.3667 -27.7618 -27.7543 -27.6840 -27.6753
   -27.6334 -27.6264 -27.5824 -27.5767 -27.5555 -27.5475 -27.5050 -27.4977
    -4.7475  -4.6706  -4.6442  -4.6032  -4.5887  -4.5810  -4.5320  -4.5016
     2.0435   2.1143   2.1239   2.2002   2.2192   2.3109   2.3547   2.3994
     3.4570   3.6217   3.6634   3.6972   4.0082   4.1140   4.1804   4.2274
     4.2469   4.2928   4.3473   4.4246   5.3509   5.4069   5.4884   5.5197
     7.0396   7.0624   7.1320   7.1440   9.3016   9.3703   9.4223   9.4701
    10.2894  10.3381  10.4138  10.4302  10.5635  10.5964

          k = 0.2500 0.5774 0.0000 ( 21116 PWs)   bands (ev):

   -53.4483 -53.4444 -53.3704 -53.3656 -27.7617 -27.7541 -27.6839 -27.6752
   -27.6467 -27.6397 -27.5803 -27.5745 -27.5688 -27.5608 -27.5028 -27.4955
    -4.6676  -4.6021  -4.5893  -4.5633  -4.5507  -4.5224  -4.5011  -4.4717
     1.9539   2.0191   2.0211   2.0973   2.2947   2.3785   2.3979   2.4594
     3.3120   3.4617   3.5225   3.5600   3.9499   4.1319   4.1744   4.2265
     4.3075   4.3542   4.4073   4.4451   5.2420   5.2718   5.3545   5.3858
     7.1655   7.1930   7.2606   7.2768   9.2331   9.2562   9.3095   9.3349
    10.3107  10.3780  10.4152  10.4654  10.7406  10.7492

          k = 0.3125 0.5413 0.0000 ( 21100 PWs)   bands (ev):

   -53.4477 -53.4438 -53.3698 -53.3650 -27.7406 -27.7330 -27.6751 -27.6681
   -27.6628 -27.6541 -27.5973 -27.5892 -27.5791 -27.5733 -27.5016 -27.4943
    -4.6284  -4.5685  -4.5621  -4.5421  -4.5312  -4.4889  -4.4791  -4.4524
     1.8906   1.9488   1.9567   2.0269   2.5047   2.6158   2.6476   2.6985
     3.3150   3.3586   3.4015   3.4730   3.8016   3.8697   3.8771   3.9365
     4.3450   4.4075   4.4690   4.5012   5.1477   5.1923   5.2786   5.3239
     7.2500   7.2698   7.3406   7.3506   9.1157   9.1404   9.1934   9.2194
    10.2583  10.2837  10.3244  10.3819  10.8365  10.8869

     the Fermi energy is     8.4055 ev

!    total energy              =   -1978.36733891 Ry
     total all-electron energy =    -38771.688184 Ry
     estimated scf accuracy    <          9.8E-09 Ry
     smearing contrib. (-TS)   =       0.00006735 Ry
     internal energy E=F+TS    =   -1978.36740626 Ry

     The total energy is F=E-TS. E is the sum of the following terms:
     one-electron contribution =   -1436.17886246 Ry
     hartree contribution      =     760.34694101 Ry
     xc contribution           =    -119.24669554 Ry
     ewald contribution        =      86.56389796 Ry
     one-center paw contrib.   =   -1269.85268723 Ry

     convergence has been achieved in  13 iterations

     Forces acting on atoms (cartesian axes, Ry/au):

     atom    1 type  2   force =     0.00000000    0.00000000    0.00113751
     atom    2 type  1   force =     0.00000000    0.00000000    0.00113332
     atom    3 type  2   force =     0.00000000    0.00000000    0.00120657
     atom    4 type  2   force =     0.00000000    0.00000000   -0.00423518
     atom    5 type  1   force =     0.00000000    0.00000000   -0.00248122
     atom    6 type  2   force =     0.00000000    0.00000000   -0.00093980
     atom    7 type  2   force =     0.00000000    0.00000000    0.00079951
     atom    8 type  1   force =     0.00000000    0.00000000    0.00265679
     atom    9 type  2   force =     0.00000000    0.00000000    0.00430726
     atom   10 type  2   force =     0.00000000    0.00000000   -0.00136287
     atom   11 type  1   force =     0.00000000    0.00000000   -0.00115682
     atom   12 type  2   force =     0.00000000    0.00000000   -0.00106507

     Total force =     0.007720     Total SCF correction =     0.000406
     Energy error            =      7.4E-05 Ry
     Gradient error          =      4.3E-03 Ry/Bohr

     number of scf cycles    =   2
     number of bfgs steps    =   1

     energy             old  =   -1978.3672646144 Ry
     energy             new  =   -1978.3673389067 Ry

     CASE: energy            _new < energy            _old


     WARNING: bfgs curvature condition failed, Theta= 0.965
     new trust radius        =       0.0062277963 bohr
     new conv_thr            =       0.0000000010 Ry


ATOMIC_POSITIONS (crystal)
S                0.3333330000        0.6666670000       -0.1163718670
Mo               0.0000000000        0.0000000000       -0.0639284953
S                0.3333330000        0.6666670000       -0.0114180058
S                0.6666670000        0.3333330000        0.1070429628
Mo               0.3333330000        0.6666670000        0.1594926348
S                0.6666670000        0.3333330000        0.2117925757
S                0.0000000000        0.0000000000        0.3062372777
Mo               0.6666670000        0.3333330000        0.3586057613
S                0.0000000000        0.0000000000        0.4110015124
S                0.3333330000        0.6666670000        0.5316944804
Mo               0.0000000000        0.0000000000        0.5842067254
S                0.3333330000        0.6666670000        0.6366444376



     Writing config-only to output data dir ./tmp/relax2/mos2_slab2.save/ :
     XML data file
     NEW-OLD atomic charge density approx. for the potential

     total cpu time spent up to now is     6809.8 secs

     Self-consistent Calculation

     iteration #  1     ecut=    80.00 Ry     beta= 0.20
     Davidson diagonalization with overlap
     ethr =  1.00E-06,  avg # of iterations =  3.1

     Threshold (ethr) on eigenvalues was too large:
     Diagonalizing with lowered threshold

     Davidson diagonalization with overlap
     ethr =  7.64E-09,  avg # of iterations =  4.7

     total cpu time spent up to now is     7137.6 secs

     total energy              =   -1978.36741869 Ry
     estimated scf accuracy    <       0.00000648 Ry

     iteration #  2     ecut=    80.00 Ry     beta= 0.20
     Davidson diagonalization with overlap
     ethr =  6.23E-09,  avg # of iterations =  1.1

     total cpu time spent up to now is     7237.5 secs

     total energy              =   -1978.36741727 Ry
     estimated scf accuracy    <       0.00000478 Ry

     iteration #  3     ecut=    80.00 Ry     beta= 0.20
     Davidson diagonalization with overlap
     ethr =  4.60E-09,  avg # of iterations =  2.5

     total cpu time spent up to now is     7354.3 secs

     total energy              =   -1978.36741776 Ry
     estimated scf accuracy    <       0.00000046 Ry

     iteration #  4     ecut=    80.00 Ry     beta= 0.20
     Davidson diagonalization with overlap
     ethr =  4.39E-10,  avg # of iterations =  2.3

     total cpu time spent up to now is     7468.0 secs

     total energy              =   -1978.36741778 Ry
     estimated scf accuracy    <       0.00000031 Ry

     iteration #  5     ecut=    80.00 Ry     beta= 0.20
     Davidson diagonalization with overlap
     ethr =  2.99E-10,  avg # of iterations =  2.6

     total cpu time spent up to now is     7584.0 secs

     total energy              =   -1978.36741779 Ry
     estimated scf accuracy    <       0.00000013 Ry

     iteration #  6     ecut=    80.00 Ry     beta= 0.20
     Davidson diagonalization with overlap
     ethr =  1.28E-10,  avg # of iterations =  2.4

     total cpu time spent up to now is     7696.3 secs

     total energy              =   -1978.36741780 Ry
     estimated scf accuracy    <       0.00000003 Ry

     iteration #  7     ecut=    80.00 Ry     beta= 0.20
     Davidson diagonalization with overlap
     ethr =  2.95E-11,  avg # of iterations =  4.5

     total cpu time spent up to now is     7831.8 secs

     total energy              =   -1978.36741781 Ry
     estimated scf accuracy    <       0.00000009 Ry

     iteration #  8     ecut=    80.00 Ry     beta= 0.20
     Davidson diagonalization with overlap
     ethr =  2.95E-11,  avg # of iterations =  2.5

     total cpu time spent up to now is     7946.0 secs

     total energy              =   -1978.36741781 Ry
     estimated scf accuracy    <       0.00000003 Ry

     iteration #  9     ecut=    80.00 Ry     beta= 0.20
     Davidson diagonalization with overlap
     ethr =  2.95E-11,  avg # of iterations =  2.0

     total cpu time spent up to now is     8054.7 secs

     total energy              =   -1978.36741781 Ry
     estimated scf accuracy    <       0.00000002 Ry

     iteration # 10     ecut=    80.00 Ry     beta= 0.20
     Davidson diagonalization with overlap
     ethr =  1.51E-11,  avg # of iterations =  1.4

     total cpu time spent up to now is     8158.1 secs

     total energy              =   -1978.36741781 Ry
     estimated scf accuracy    <       0.00000001 Ry

     iteration # 11     ecut=    80.00 Ry     beta= 0.20
     Davidson diagonalization with overlap
     ethr =  1.28E-11,  avg # of iterations =  1.0

     total cpu time spent up to now is     8257.4 secs

     total energy              =   -1978.36741780 Ry
     estimated scf accuracy    <       0.00000002 Ry

     iteration # 12     ecut=    80.00 Ry     beta= 0.20
     Davidson diagonalization with overlap
     ethr =  1.28E-11,  avg # of iterations =  1.4

     total cpu time spent up to now is     8361.1 secs

     total energy              =   -1978.36741780 Ry
     estimated scf accuracy    <          8.8E-09 Ry

     iteration # 13     ecut=    80.00 Ry     beta= 0.20
     Davidson diagonalization with overlap
     ethr =  8.45E-12,  avg # of iterations =  3.0

     total cpu time spent up to now is     8478.8 secs

     total energy              =   -1978.36741780 Ry
     estimated scf accuracy    <          6.8E-09 Ry

     iteration # 14     ecut=    80.00 Ry     beta= 0.20
     Davidson diagonalization with overlap
     ethr =  6.49E-12,  avg # of iterations =  2.0

     total cpu time spent up to now is     8595.2 secs

     total energy              =   -1978.36741780 Ry
     estimated scf accuracy    <          2.7E-09 Ry

     iteration # 15     ecut=    80.00 Ry     beta= 0.20
     Davidson diagonalization with overlap
     ethr =  2.61E-12,  avg # of iterations =  1.2

     total cpu time spent up to now is     8696.7 secs

     total energy              =   -1978.36741781 Ry
     estimated scf accuracy    <          2.4E-09 Ry

     iteration # 16     ecut=    80.00 Ry     beta= 0.20
     Davidson diagonalization with overlap
     ethr =  2.28E-12,  avg # of iterations =  2.0

     total cpu time spent up to now is     8811.7 secs

     total energy              =   -1978.36741781 Ry
     estimated scf accuracy    <          1.9E-09 Ry

     iteration # 17     ecut=    80.00 Ry     beta= 0.20
     Davidson diagonalization with overlap
     ethr =  1.83E-12,  avg # of iterations =  2.3

     total cpu time spent up to now is     8925.9 secs

     total energy              =   -1978.36741781 Ry
     estimated scf accuracy    <          1.6E-09 Ry

     iteration # 18     ecut=    80.00 Ry     beta= 0.20
     Davidson diagonalization with overlap
     ethr =  1.54E-12,  avg # of iterations =  1.2

     total cpu time spent up to now is     9027.0 secs

     total energy              =   -1978.36741781 Ry
     estimated scf accuracy    <          1.1E-09 Ry

     iteration # 19     ecut=    80.00 Ry     beta= 0.20
     Davidson diagonalization with overlap
     ethr =  1.10E-12,  avg # of iterations =  2.1

     total cpu time spent up to now is     9139.3 secs

     End of self-consistent calculation

          k = 0.0000 0.0000 0.0000 ( 21311 PWs)   bands (ev):

   -53.4928 -53.4885 -53.4163 -53.4125 -27.6680 -27.6617 -27.5919 -27.5857
   -27.4310 -27.4310 -27.4249 -27.4249 -27.3545 -27.3545 -27.3490 -27.3490
    -6.8957  -6.7583  -6.6943  -6.6501  -5.6436  -5.4773  -5.4093  -5.3009
     1.2929   1.6752   1.7723   2.0638   4.7594   4.7635   4.7635   4.7947
     4.7947   4.8390   4.8390   4.8707   4.8707   5.3285   5.5907   5.8791
     5.8791   5.9108   5.9108   5.9582   5.9583   5.9868   5.9868   6.2705
     6.9714   7.3409   7.4902   7.9751  10.1042  10.1042  10.1572  10.1573
    10.2042  10.2042  10.2326  10.2326  10.3437  10.3440

          k = 0.0000 0.0722 0.0000 ( 21283 PWs)   bands (ev):

   -53.4913 -53.4869 -53.4148 -53.4110 -27.6649 -27.6587 -27.5889 -27.5827
   -27.4465 -27.4405 -27.4345 -27.4285 -27.3701 -27.3645 -27.3580 -27.3525
    -6.8361  -6.6989  -6.6350  -6.5910  -5.6153  -5.4521  -5.3841  -5.2783
     1.3610   1.7438   1.8407   2.1312   4.6221   4.6286   4.6605   4.7040
     4.7361   4.8255   4.8571   4.9014   4.9332   5.1083   5.2872   5.5833
     5.7814   5.8142   5.8621   5.8902   5.9868   6.0745   6.1591   6.4902
     6.9748   7.3205   7.4554   7.8778  10.0442  10.0687  10.1210  10.1447
    10.1709  10.1849  10.2165  10.2540  10.2621  10.2984

          k = 0.0000 0.1443 0.0000 ( 21263 PWs)   bands (ev):

   -53.4868 -53.4825 -53.4103 -53.4065 -27.6562 -27.6501 -27.5802 -27.5740
   -27.4907 -27.4845 -27.4446 -27.4385 -27.4143 -27.4086 -27.3681 -27.3626
    -6.6622  -6.5259  -6.4621  -6.4189  -5.5329  -5.3787  -5.3110  -5.2124
     1.5502   1.9333   2.0292   2.3147   4.2746   4.3005   4.3203   4.3596
     4.3902   4.6976   4.8226   5.0036   5.0370   5.0742   5.0810   5.1130
     5.5293   5.5642   5.6132   5.6404   6.0469   6.1977   6.3150   6.6337
     6.9484   7.2124   7.3139   7.5764   9.7528   9.8256   9.8823   9.9247
     9.9845   9.9975  10.0412  10.0762  10.1226  10.1535

          k = 0.0000 0.2165 0.0000 ( 21233 PWs)   bands (ev):

   -53.4802 -53.4759 -53.4037 -53.3999 -27.6432 -27.6371 -27.5672 -27.5611
   -27.5562 -27.5498 -27.4798 -27.4739 -27.4596 -27.4535 -27.3831 -27.3775
    -6.3886  -6.2547  -6.1911  -6.1498  -5.4034  -5.2641  -5.1966  -5.1101
     1.8057   2.1812   2.2727   2.5372   3.8357   3.8738   3.9022   3.9492
     3.9904   4.2410   4.3351   4.5315   5.1936   5.2399   5.2687   5.3011
     5.3120   5.3166   5.3619   5.3882   5.9599   6.1451   6.2661   6.5481
     6.8074   6.9515   7.0199   7.1269   9.3735   9.5069   9.6265   9.8225
     9.8356   9.9057   9.9592   9.9727  10.0144  10.0771

          k = 0.0000 0.2887 0.0000 ( 21197 PWs)   bands (ev):

   -53.4723 -53.4680 -53.3958 -53.3921 -27.6327 -27.6278 -27.6261 -27.6218
   -27.5563 -27.5517 -27.5501 -27.5457 -27.4772 -27.4711 -27.4008 -27.3951
    -6.0406  -5.9116  -5.8486  -5.8109  -5.2394  -5.1202  -5.0531  -4.9830
     2.0032   2.3307   2.4087   2.5927   3.4268   3.5029   3.5761   3.6085
     3.6847   3.7808   3.8643   4.0006   4.8697   4.9128   4.9621   4.9892
     5.5996   5.6403   5.6893   5.7167   5.7430   5.9497   6.0573   6.3035
     6.5330   6.6002   6.6572   6.7048   9.2379   9.4175   9.5591   9.6363
     9.7144   9.7813   9.8216   9.8418  10.1725  10.3389

          k = 0.0000 0.3608 0.0000 ( 21187 PWs)   bands (ev):

   -53.4644 -53.4602 -53.3879 -53.3842 -27.7082 -27.7014 -27.6318 -27.6255
   -27.6124 -27.6064 -27.5363 -27.5303 -27.4948 -27.4886 -27.4183 -27.4127
    -5.6562  -5.5360  -5.4744  -5.4423  -5.0602  -4.9654  -4.8992  -4.8483
     1.9768   2.1949   2.2552   2.3325   3.0455   3.2226   3.2831   3.3772
     3.4464   3.5169   3.5803   3.6948   4.5807   4.6254   4.6754   4.7020
     5.5059   5.7215   5.8107   5.9142   5.9672   6.0213   6.0287   6.0451
     6.3133   6.3730   6.4317   6.4748   9.3549   9.5367   9.5372   9.6002
     9.6627   9.6666   9.6981   9.9318  10.5009  10.6709

          k = 0.0000 0.4330 0.0000 ( 21140 PWs)   bands (ev):

   -53.4577 -53.4535 -53.3812 -53.3775 -27.7716 -27.7646 -27.6952 -27.6887
   -27.5992 -27.5933 -27.5232 -27.5173 -27.5096 -27.5034 -27.4332 -27.4275
    -5.2897  -5.1833  -5.1258  -5.0985  -4.8919  -4.8240  -4.7599  -4.7280
     1.7579   1.8977   1.9398   1.9877   2.7066   2.8701   2.9102   2.9826
     3.3193   3.4367   3.4970   3.5995   4.3594   4.4054   4.4557   4.4820
     5.3289   5.5416   5.6197   5.8142   6.1632   6.2326   6.2929   6.3152
     6.3311   6.4122   6.4667   6.5285   9.5378   9.5798   9.6169   9.6451
     9.6650   9.7691   9.8602  10.0635  10.8111  10.9634

          k = 0.0000 0.5052 0.0000 ( 21078 PWs)   bands (ev):

   -53.4532 -53.4490 -53.3768 -53.3730 -27.8136 -27.8065 -27.7372 -27.7306
   -27.5905 -27.5846 -27.5195 -27.5144 -27.5133 -27.5085 -27.4431 -27.4374
    -5.0131  -4.9240  -4.8761  -4.8457  -4.7672  -4.7238  -4.6658  -4.6421
     1.5352   1.6464   1.6754   1.7268   2.4685   2.6071   2.6459   2.7036
     3.2084   3.3350   3.3975   3.4836   4.2214   4.2681   4.3186   4.3448
     5.2318   5.4373   5.5105   5.6842   6.3131   6.3969   6.4607   6.4870
     6.5192   6.6033   6.6551   6.7140   9.5924   9.6173   9.6809   9.6951
     9.9085  10.0133  10.0719  10.1887  11.0074  11.1350

          k = 0.0000-0.5774 0.0000 ( 21006 PWs)   bands (ev):

   -53.4517 -53.4475 -53.3752 -53.3715 -27.8282 -27.8211 -27.7519 -27.7452
   -27.5874 -27.5815 -27.5230 -27.5168 -27.5113 -27.5054 -27.4466 -27.4408
    -4.9063  -4.8272  -4.7868  -4.7510  -4.7205  -4.6877  -4.6341  -4.6093
     1.4441   1.5500   1.5761   1.6288   2.3827   2.5122   2.5514   2.6050
     3.1586   3.2862   3.3495   3.4305   4.1745   4.2215   4.2721   4.2982
     5.2024   5.4039   5.4757   5.6405   6.3616   6.4510   6.5157   6.5449
     6.6368   6.7066   6.7525   6.7999   9.6232   9.6423   9.7054   9.7188
    10.0639  10.1242  10.1858  10.2244  11.0708  11.1863

          k = 0.0625 0.1083 0.0000 ( 21269 PWs)   bands (ev):

   -53.4883 -53.4840 -53.4118 -53.4080 -27.6591 -27.6529 -27.5830 -27.5768
   -27.4760 -27.4698 -27.4418 -27.4357 -27.3995 -27.3939 -27.3653 -27.3598
    -6.7193  -6.5827  -6.5189  -6.4754  -5.5600  -5.4028  -5.3350  -5.2340
     1.4901   1.8735   1.9698   2.2575   4.3860   4.4061   4.4253   4.4649
     4.4977   4.8253   4.9440   4.9642   4.9763   5.0204   5.0522   5.2389
     5.5665   5.5992   5.6471   5.6754   6.0837   6.2147   6.3231   6.6380
     6.9647   7.2575   7.3681   7.6784   9.8753   9.9081   9.9348   9.9675
    10.0023  10.0128  10.0597  10.1252  10.1383  10.1700

          k = 0.0625 0.1804 0.0000 ( 21194 PWs)   bands (ev):

   -53.4827 -53.4784 -53.4062 -53.4024 -27.6482 -27.6421 -27.5721 -27.5660
   -27.5296 -27.5233 -27.4555 -27.4531 -27.4494 -27.4473 -27.3790 -27.3735
    -6.4954  -6.3605  -6.2967  -6.2546  -5.4538  -5.3086  -5.2410  -5.1497
     1.7164   2.0976   2.1915   2.4684   4.0000   4.0354   4.0655   4.1049
     4.1341   4.4453   4.5525   4.7831   5.1537   5.1929   5.1974   5.2334
     5.2435   5.2682   5.2874   5.3098   6.1361   6.2897   6.4023   6.6730
     6.8843   7.0719   7.1500   7.2998   9.4825   9.5902   9.6797   9.8124
     9.8513   9.9185   9.9404   9.9787   9.9949  10.0494

          k = 0.0625 0.2526 0.0000 ( 21202 PWs)   bands (ev):

   -53.4754 -53.4712 -53.3990 -53.3952 -27.6340 -27.6279 -27.5989 -27.5924
   -27.5579 -27.5519 -27.5225 -27.5165 -27.4735 -27.4673 -27.3970 -27.3914
    -6.1840  -6.0527  -5.9893  -5.9500  -5.3064  -5.1787  -5.1114  -5.0343
     1.9556   2.3143   2.3998   2.6310   3.6067   3.6487   3.6896   3.7355
     3.8119   4.0160   4.1006   4.2598   4.8245   4.8606   4.9100   4.9398
     5.4256   5.4644   5.5108   5.5406   6.0339   6.1950   6.2967   6.5171
     6.6748   6.7563   6.8141   6.8622   9.2162   9.3794   9.4941   9.6586
     9.7706   9.8167   9.8698   9.8838   9.9783  10.1027

          k = 0.0625 0.3248 0.0000 ( 21194 PWs)   bands (ev):

   -53.4676 -53.4633 -53.3911 -53.3873 -27.6731 -27.6664 -27.6186 -27.6126
   -27.5967 -27.5905 -27.5425 -27.5365 -27.4929 -27.4867 -27.4164 -27.4108
    -5.8163  -5.6918  -5.6294  -5.5947  -5.1335  -5.0280  -4.9613  -4.9020
     2.0485   2.3215   2.3896   2.5099   3.2469   3.3754   3.4683   3.5182
     3.5878   3.5925   3.6836   3.7814   4.5175   4.5695   4.6224   4.6557
     5.6550   5.7052   5.7422   5.7805   5.8255   5.9770   6.0625   6.2503
     6.4443   6.4855   6.5439   6.5716   9.1786   9.3552   9.4499   9.5707
     9.7048   9.7610   9.7946   9.9213  10.2321  10.3957

          k = 0.0625 0.3969 0.0000 ( 21151 PWs)   bands (ev):

   -53.4603 -53.4560 -53.3838 -53.3801 -27.7409 -27.7340 -27.6645 -27.6581
   -27.6043 -27.5983 -27.5282 -27.5223 -27.5107 -27.5045 -27.4343 -27.4286
    -5.4377  -5.3245  -5.2647  -5.2357  -4.9573  -4.8776  -4.8123  -4.7725
     1.9087   2.0806   2.1327   2.1864   2.8744   3.0364   3.0760   3.1522
     3.3969   3.5014   3.5596   3.6676   4.3160   4.3743   4.4273   4.4595
     5.5526   5.7261   5.7831   5.8154   5.8492   5.8968   5.9255   6.0058
     6.4545   6.4884   6.5427   6.5685   9.3120   9.4564   9.5181   9.6012
     9.7489   9.8055   9.8493  10.0081  10.5708  10.7249

          k = 0.0625 0.4691 0.0000 ( 21105 PWs)   bands (ev):

   -53.4547 -53.4505 -53.3782 -53.3745 -27.7923 -27.7853 -27.7159 -27.7094
   -27.5933 -27.5874 -27.5244 -27.5181 -27.5173 -27.5114 -27.4479 -27.4422
    -5.1108  -5.0138  -4.9610  -4.9333  -4.8072  -4.7541  -4.6928  -4.6675
     1.6807   1.8033   1.8381   1.8870   2.5588   2.6919   2.7273   2.7859
     3.2807   3.4099   3.4708   3.5607   4.2060   4.2591   4.3072   4.3388
     5.3605   5.5376   5.6052   5.7541   5.9207   5.9867   6.0495   6.0807
     6.6267   6.6684   6.7190   6.7521   9.5052   9.5864   9.6299   9.6776
     9.8843   9.9541  10.0062  10.1324  10.8853  11.0224

          k = 0.0625 0.5413 0.0000 ( 21084 PWs)   bands (ev):

   -53.4517 -53.4475 -53.3752 -53.3715 -27.8200 -27.8129 -27.7436 -27.7370
   -27.5874 -27.5815 -27.5317 -27.5255 -27.5113 -27.5055 -27.4553 -27.4495
    -4.9128  -4.8317  -4.7901  -4.7552  -4.7180  -4.6842  -4.6300  -4.6055
     1.5232   1.6311   1.6576   1.7103   2.3795   2.4973   2.5341   2.5861
     3.1876   3.3206   3.3831   3.4638   4.1612   4.2068   4.2502   4.2839
     5.2548   5.4349   5.5033   5.6497   6.0037   6.0881   6.1532   6.1778
     6.7790   6.8308   6.8808   6.9178   9.6219   9.6465   9.6953   9.7194
    10.0587  10.1248  10.1800  10.2401  11.1111  11.2145

          k = 0.1250 0.2165 0.0000 ( 21179 PWs)   bands (ev):

   -53.4765 -53.4723 -53.4001 -53.3963 -27.6362 -27.6301 -27.5849 -27.5784
   -27.5601 -27.5540 -27.5084 -27.5025 -27.4743 -27.4682 -27.3979 -27.3923
    -6.2333  -6.1012  -6.0378  -5.9979  -5.3293  -5.1987  -5.1313  -5.0519
     1.9365   2.3051   2.3932   2.6407   3.6795   3.7164   3.7479   3.7964
     3.8982   4.1704   4.2614   4.4452   4.6914   4.7175   4.7730   4.7985
     5.3459   5.3842   5.4292   5.4604   6.2214   6.3580   6.4534   6.6459
     6.7411   6.8253   6.8885   6.9271   9.2031   9.3577   9.4588   9.6255
     9.7498   9.8184   9.8329   9.8635   9.9089   9.9761

          k = 0.1250 0.2887 0.0000 ( 21199 PWs)   bands (ev):

   -53.4693 -53.4650 -53.3928 -53.3890 -27.6483 -27.6417 -27.6219 -27.6159
   -27.5719 -27.5657 -27.5459 -27.5398 -27.4977 -27.4915 -27.4212 -27.4156
    -5.9005  -5.7739  -5.7112  -5.6753  -5.1714  -5.0603  -4.9935  -4.9297
     2.0928   2.4044   2.4784   2.6377   3.4174   3.4820   3.5585   3.6068
     3.6907   3.7897   3.8675   3.9340   4.2583   4.3275   4.3913   4.4852
     5.4451   5.4934   5.5389   5.5698   6.1479   6.2678   6.3438   6.4816
     6.5523   6.5696   6.6211   6.6471   9.0436   9.2265   9.3308   9.4997
     9.7543   9.8016   9.8324   9.8901   9.9879  10.1176

          k = 0.1250 0.3608 0.0000 ( 21195 PWs)   bands (ev):

   -53.4620 -53.4578 -53.3855 -53.3818 -27.7107 -27.7039 -27.6343 -27.6280
   -27.6076 -27.6017 -27.5316 -27.5256 -27.5214 -27.5152 -27.4450 -27.4392
    -5.5345  -5.4173  -5.3564  -5.3258  -4.9981  -4.9108  -4.8449  -4.7994
     2.0570   2.2683   2.3283   2.4005   3.0802   3.2054   3.2461   3.3152
     3.4958   3.5735   3.6315   3.7227   4.0601   4.1776   4.2474   4.3555
     5.3855   5.4423   5.4914   5.5189   5.9242   6.0358   6.0917   6.2039
     6.5055   6.5307   6.5932   6.6075   9.0802   9.2760   9.3833   9.5673
     9.8333   9.8743   9.9078   9.9853  10.2280  10.3770

          k = 0.1250 0.4330 0.0000 ( 21113 PWs)   bands (ev):

   -53.4558 -53.4516 -53.3793 -53.3756 -27.7629 -27.7560 -27.6865 -27.6801
   -27.5955 -27.5896 -27.5416 -27.5353 -27.5195 -27.5136 -27.4652 -27.4594
    -5.1878  -5.0848  -5.0289  -5.0019  -4.8346  -4.7736  -4.7104  -4.6817
     1.8882   2.0341   2.0801   2.1264   2.6711   2.7718   2.7935   2.8537
     3.4005   3.5367   3.5950   3.6768   4.0280   4.1450   4.2107   4.2904
     5.3241   5.4091   5.4643   5.4964   5.6526   5.7553   5.8109   5.9132
     6.6456   6.6712   6.7333   6.7494   9.2880   9.4700   9.5671   9.7339
     9.9461   9.9751  10.0236  10.0703  10.5385  10.6736

          k = 0.1250 0.5052 0.0000 ( 21081 PWs)   bands (ev):

   -53.4517 -53.4475 -53.3752 -53.3715 -27.7976 -27.7905 -27.7212 -27.7146
   -27.5874 -27.5815 -27.5551 -27.5488 -27.5113 -27.5055 -27.4787 -27.4729
    -4.9280  -4.8425  -4.7980  -4.7653  -4.7124  -4.6759  -4.6201  -4.5961
     1.7296   1.8468   1.8777   1.9283   2.3758   2.4631   2.4923   2.5437
     3.2767   3.4237   3.4847   3.5591   4.0723   4.1669   4.2224   4.2654
     5.3111   5.4239   5.4614   5.5154   5.5362   5.5648   5.5920   5.7044
     6.8309   6.8700   6.9277   6.9538   9.5100   9.6090   9.6640   9.7304
    10.0926  10.1493  10.2001  10.2713  10.8072  10.9197

          k = 0.1250 0.5774 0.0000 ( 21108 PWs)   bands (ev):

   -53.4502 -53.4460 -53.3738 -53.3700 -27.8097 -27.8026 -27.7333 -27.7267
   -27.5846 -27.5787 -27.5599 -27.5536 -27.5085 -27.5026 -27.4834 -27.4776
    -4.8279  -4.7526  -4.7172  -4.6783  -4.6651  -4.6407  -4.5892  -4.5633
     1.6668   1.7765   1.8012   1.8557   2.2705   2.3543   2.3865   2.4352
     3.2165   3.3629   3.4248   3.4985   4.1181   4.1836   4.2241   4.2649
     5.2624   5.4068   5.4362   5.4883   5.4999   5.5569   5.5689   5.6467
     6.9219   6.9706   7.0277   7.0596   9.5905   9.6141   9.6608   9.6886
    10.2022  10.2725  10.3273  10.3657  10.9086  11.0433

          k = 0.1875 0.3248 0.0000 ( 21195 PWs)   bands (ev):

   -53.4626 -53.4584 -53.3861 -53.3824 -27.6971 -27.6903 -27.6207 -27.6144
   -27.6088 -27.6029 -27.5328 -27.5282 -27.5268 -27.5219 -27.4517 -27.4460
    -5.5681  -5.4496  -5.3884  -5.3572  -5.0120  -4.9220  -4.8560  -4.8084
     2.1199   2.3508   2.4138   2.4986   3.2139   3.2938   3.3455   3.4064
     3.5391   3.5972   3.6702   3.7164   3.9218   4.0546   4.1369   4.3039
     5.2108   5.2684   5.3162   5.3456   6.0861   6.1823   6.2224   6.3128
     6.5084   6.5408   6.6066   6.6180   8.9918   9.2037   9.3240   9.5447
     9.8537   9.8873   9.9217   9.9677  10.0834  10.2181

          k = 0.1875 0.3969 0.0000 ( 21153 PWs)   bands (ev):

   -53.4564 -53.4522 -53.3799 -53.3762 -27.7391 -27.7322 -27.6627 -27.6563
   -27.5967 -27.5908 -27.5591 -27.5527 -27.5206 -27.5147 -27.4826 -27.4768
    -5.2300  -5.1238  -5.0666  -5.0393  -4.8483  -4.7829  -4.7189  -4.6877
     2.0442   2.2144   2.2699   2.3202   2.7727   2.8322   2.8360   2.9070
     3.5175   3.6512   3.7212   3.7693   3.9255   4.0410   4.1231   4.2763
     4.8917   4.9590   5.0156   5.0402   5.8509   5.9312   5.9763   6.0321
     6.6127   6.6460   6.7135   6.7298   9.1455   9.3733   9.5011   9.7781
     9.9728   9.9901  10.0435  10.0656  10.2663  10.3989

          k = 0.1875 0.4691 0.0000 ( 21101 PWs)   bands (ev):

   -53.4517 -53.4475 -53.3752 -53.3715 -27.7696 -27.7627 -27.6933 -27.6868
   -27.5874 -27.5840 -27.5815 -27.5777 -27.5114 -27.5076 -27.5055 -27.5017
    -4.9426  -4.8530  -4.8061  -4.7752  -4.7071  -4.6677  -4.6102  -4.5865
     1.9617   2.1008   2.1447   2.1882   2.3772   2.4307   2.4527   2.5067
     3.4353   3.5998   3.6557   3.6991   3.9800   4.1151   4.1855   4.2874
     4.6974   4.8080   4.8730   4.9245   5.5578   5.6362   5.6986   5.7440
     6.8172   6.8424   6.9103   6.9227   9.3647   9.5238   9.6023   9.7332
    10.1331  10.1845  10.2318  10.3052  10.4793  10.5652

          k = 0.1875 0.5413 0.0000 ( 21112 PWs)   bands (ev):

   -53.4491 -53.4449 -53.3726 -53.3689 -27.7857 -27.7787 -27.7093 -27.7027
   -27.5980 -27.5916 -27.5824 -27.5765 -27.5216 -27.5156 -27.5063 -27.5005
    -4.7701  -4.6969  -4.6661  -4.6270  -4.6165  -4.6023  -4.5520  -4.5255
     1.9199   2.0455   2.0735   2.1278   2.1640   2.2130   2.2486   2.2910
     3.2971   3.4570   3.5185   3.5783   4.0996   4.2074   4.2598   4.3106
     4.6473   4.7891   4.8548   4.9146   5.3626   5.4293   5.4884   5.5460
     6.9998   7.0353   7.0981   7.1206   9.4385   9.4866   9.5356   9.5708
    10.3151  10.4135  10.4683  10.5443  10.5997  10.6559

          k = 0.2500 0.4330 0.0000 ( 21125 PWs)   bands (ev):

   -53.4517 -53.4475 -53.3752 -53.3715 -27.7551 -27.7482 -27.6787 -27.6723
   -27.5990 -27.5926 -27.5874 -27.5816 -27.5226 -27.5166 -27.5114 -27.5055
    -4.9485  -4.8574  -4.8094  -4.7792  -4.7049  -4.6643  -4.6061  -4.5824
     2.0670   2.2208   2.2734   2.3092   2.3826   2.4185   2.4405   2.4923
     3.5925   3.7051   3.7864   3.8263   3.9933   4.0996   4.1782   4.3211
     4.4077   4.4474   4.5014   4.5224   5.6162   5.6797   5.7602   5.7675
     6.8009   6.8247   6.8954   6.9055   9.3035   9.4826   9.5704   9.7253
    10.1441  10.1901  10.2382  10.3116  10.3536  10.4364

          k = 0.2500 0.5052 0.0000 ( 21117 PWs)   bands (ev):

   -53.4485 -53.4443 -53.3720 -53.3683 -27.7599 -27.7529 -27.6835 -27.6770
   -27.6316 -27.6251 -27.5812 -27.5754 -27.5552 -27.5492 -27.5052 -27.4993
    -4.7420  -4.6689  -4.6400  -4.6003  -4.5891  -4.5793  -4.5295  -4.5028
     2.0500   2.1190   2.1261   2.1988   2.2238   2.3125   2.3570   2.3993
     3.4610   3.6233   3.6664   3.6959   4.0112   4.1159   4.1817   4.2285
     4.2458   4.2928   4.3479   4.4257   5.3498   5.4078   5.4866   5.5176
     7.0432   7.0639   7.1334   7.1430   9.3035   9.3716   9.4224   9.4706
    10.2867  10.3351  10.4138  10.4278  10.5603  10.5943

          k = 0.2500 0.5774 0.0000 ( 21116 PWs)   bands (ev):

   -53.4474 -53.4432 -53.3709 -53.3672 -27.7597 -27.7528 -27.6833 -27.6768
   -27.6449 -27.6384 -27.5791 -27.5732 -27.5685 -27.5624 -27.5030 -27.4972
    -4.6619  -4.6002  -4.5853  -4.5592  -4.5492  -4.5239  -4.4982  -4.4731
     1.9605   2.0210   2.0260   2.0957   2.2990   2.3801   2.4009   2.4580
     3.3165   3.4633   3.5231   3.5618   3.9533   4.1334   4.1758   4.2257
     4.3085   4.3551   4.4067   4.4457   5.2410   5.2726   5.3528   5.3834
     7.1686   7.1946   7.2612   7.2764   9.2371   9.2579   9.3121   9.3334
    10.3065  10.3737  10.4157  10.4629  10.7360  10.7465

          k = 0.3125 0.5413 0.0000 ( 21100 PWs)   bands (ev):

   -53.4468 -53.4426 -53.3703 -53.3666 -27.7387 -27.7317 -27.6733 -27.6668
   -27.6623 -27.6558 -27.5969 -27.5909 -27.5779 -27.5720 -27.5018 -27.4960
    -4.6226  -4.5663  -4.5585  -4.5381  -4.5297  -4.4902  -4.4762  -4.4539
     1.8977   1.9505   1.9621   2.0252   2.5090   2.6172   2.6503   2.6973
     3.3191   3.3625   3.4030   3.4713   3.8047   3.8712   3.8808   3.9348
     4.3457   4.4086   4.4682   4.5008   5.1467   5.1931   5.2769   5.3217
     7.2531   7.2712   7.3419   7.3492   9.1203   9.1421   9.1965   9.2181
    10.2538  10.2787  10.3250  10.3796  10.8315  10.8820

     the Fermi energy is     8.4024 ev

!    total energy              =   -1978.36741781 Ry
     total all-electron energy =    -38771.688263 Ry
     estimated scf accuracy    <          8.9E-10 Ry
     smearing contrib. (-TS)   =       0.00006635 Ry
     internal energy E=F+TS    =   -1978.36748416 Ry

     The total energy is F=E-TS. E is the sum of the following terms:
     one-electron contribution =   -1435.67433157 Ry
     hartree contribution      =     760.09639140 Ry
     xc contribution           =    -119.24229280 Ry
     ewald contribution        =      86.30496554 Ry
     one-center paw contrib.   =   -1269.85221673 Ry

     convergence has been achieved in  19 iterations

     Forces acting on atoms (cartesian axes, Ry/au):

     atom    1 type  2   force =     0.00000000   -0.00000000    0.00114835
     atom    2 type  1   force =     0.00000000   -0.00000000    0.00120913
     atom    3 type  2   force =     0.00000000    0.00000000    0.00117035
     atom    4 type  2   force =     0.00000000    0.00000000   -0.00311385
     atom    5 type  1   force =     0.00000000    0.00000000   -0.00278268
     atom    6 type  2   force =     0.00000000   -0.00000000   -0.00176215
     atom    7 type  2   force =     0.00000000    0.00000000    0.00192975
     atom    8 type  1   force =     0.00000000    0.00000000    0.00240480
     atom    9 type  2   force =     0.00000000    0.00000000    0.00337814
     atom   10 type  2   force =     0.00000000    0.00000000   -0.00122218
     atom   11 type  1   force =     0.00000000   -0.00000000   -0.00127339
     atom   12 type  2   force =     0.00000000   -0.00000000   -0.00108626

     Total force =     0.007065     Total SCF correction =     0.000123
     Energy error            =      7.9E-05 Ry
     Gradient error          =      3.4E-03 Ry/Bohr

     number of scf cycles    =   3
     number of bfgs steps    =   2

     energy             old  =   -1978.3673389067 Ry
     energy             new  =   -1978.3674178064 Ry

     CASE: energy            _new < energy            _old

     new trust radius        =       0.0093416944 bohr
     new conv_thr            =       0.0000000010 Ry


ATOMIC_POSITIONS (crystal)
S                0.3333330000        0.6666670000       -0.1163251388
Mo               0.0000000000        0.0000000000       -0.0638810774
S                0.3333330000        0.6666670000       -0.0113687058
S                0.6666670000        0.3333330000        0.1068783510
Mo               0.3333330000        0.6666670000        0.1593933237
S                0.6666670000        0.3333330000        0.2117444685
S                0.0000000000        0.0000000000        0.3062777593
Mo               0.6666670000        0.3333330000        0.3587149160
S                0.0000000000        0.0000000000        0.4111662928
S                0.3333330000        0.6666670000        0.5316392559
Mo              -0.0000000000       -0.0000000000        0.5841599584
S                0.3333330000        0.6666670000        0.6366005965



     Writing config-only to output data dir ./tmp/relax2/mos2_slab2.save/ :
     XML data file
     NEW-OLD atomic charge density approx. for the potential

     total cpu time spent up to now is     9194.3 secs

     Self-consistent Calculation

     iteration #  1     ecut=    80.00 Ry     beta= 0.20
     Davidson diagonalization with overlap
     ethr =  1.00E-06,  avg # of iterations =  4.6

     Threshold (ethr) on eigenvalues was too large:
     Diagonalizing with lowered threshold

     Davidson diagonalization with overlap
     c_bands:  2 eigenvalues not converged
     ethr =  9.76E-09,  avg # of iterations =  5.2

     total cpu time spent up to now is     9536.4 secs

     total energy              =   -1978.36753042 Ry
     estimated scf accuracy    <       0.00001479 Ry

     iteration #  2     ecut=    80.00 Ry     beta= 0.20
     Davidson diagonalization with overlap
     ethr =  1.42E-08,  avg # of iterations =  1.2

     total cpu time spent up to now is     9636.8 secs

     total energy              =   -1978.36752704 Ry
     estimated scf accuracy    <       0.00001079 Ry

     iteration #  3     ecut=    80.00 Ry     beta= 0.20
     Davidson diagonalization with overlap
     ethr =  1.04E-08,  avg # of iterations =  2.6

     total cpu time spent up to now is     9754.9 secs

     total energy              =   -1978.36752818 Ry
     estimated scf accuracy    <       0.00000080 Ry

     iteration #  4     ecut=    80.00 Ry     beta= 0.20
     Davidson diagonalization with overlap
     ethr =  7.65E-10,  avg # of iterations =  2.6

     total cpu time spent up to now is     9871.0 secs

     total energy              =   -1978.36752822 Ry
     estimated scf accuracy    <       0.00000047 Ry

     iteration #  5     ecut=    80.00 Ry     beta= 0.20
     Davidson diagonalization with overlap
     ethr =  4.53E-10,  avg # of iterations =  2.9

     total cpu time spent up to now is     9988.5 secs

     total energy              =   -1978.36752824 Ry
     estimated scf accuracy    <       0.00000022 Ry

     iteration #  6     ecut=    80.00 Ry     beta= 0.20
     Davidson diagonalization with overlap
     ethr =  2.14E-10,  avg # of iterations =  2.6

     total cpu time spent up to now is    10103.3 secs

     total energy              =   -1978.36752826 Ry
     estimated scf accuracy    <       0.00000007 Ry

     iteration #  7     ecut=    80.00 Ry     beta= 0.20
     Davidson diagonalization with overlap
     ethr =  6.36E-11,  avg # of iterations =  4.0

     total cpu time spent up to now is    10227.6 secs

     total energy              =   -1978.36752824 Ry
     estimated scf accuracy    <       0.00000014 Ry

     iteration #  8     ecut=    80.00 Ry     beta= 0.20
     Davidson diagonalization with overlap
     ethr =  6.36E-11,  avg # of iterations =  3.2

     total cpu time spent up to now is    10349.9 secs

     total energy              =   -1978.36752825 Ry
     estimated scf accuracy    <       0.00000003 Ry

     iteration #  9     ecut=    80.00 Ry     beta= 0.20
     Davidson diagonalization with overlap
     ethr =  3.06E-11,  avg # of iterations =  4.8

     total cpu time spent up to now is    10482.5 secs

     total energy              =   -1978.36752825 Ry
     estimated scf accuracy    <       0.00000011 Ry

     iteration # 10     ecut=    80.00 Ry     beta= 0.20
     Davidson diagonalization with overlap
     ethr =  3.06E-11,  avg # of iterations =  2.6

     total cpu time spent up to now is    10598.2 secs

     total energy              =   -1978.36752824 Ry
     estimated scf accuracy    <       0.00000004 Ry

     iteration # 11     ecut=    80.00 Ry     beta= 0.20
     Davidson diagonalization with overlap
     ethr =  3.06E-11,  avg # of iterations =  1.9

     total cpu time spent up to now is    10705.7 secs

     total energy              =   -1978.36752822 Ry
     estimated scf accuracy    <       0.00000002 Ry

     iteration # 12     ecut=    80.00 Ry     beta= 0.20
     Davidson diagonalization with overlap
     ethr =  1.82E-11,  avg # of iterations =  3.1

     total cpu time spent up to now is    10824.9 secs

     total energy              =   -1978.36752822 Ry
     estimated scf accuracy    <          4.4E-09 Ry

     iteration # 13     ecut=    80.00 Ry     beta= 0.20
     Davidson diagonalization with overlap
     ethr =  4.26E-12,  avg # of iterations =  2.6

     total cpu time spent up to now is    10936.1 secs

     total energy              =   -1978.36752822 Ry
     estimated scf accuracy    <          3.9E-09 Ry

     iteration # 14     ecut=    80.00 Ry     beta= 0.20
     Davidson diagonalization with overlap
     ethr =  3.79E-12,  avg # of iterations =  2.2

     total cpu time spent up to now is    11046.5 secs

     total energy              =   -1978.36752822 Ry
     estimated scf accuracy    <          4.8E-09 Ry

     iteration # 15     ecut=    80.00 Ry     beta= 0.20
     Davidson diagonalization with overlap
     ethr =  3.79E-12,  avg # of iterations =  1.0

     total cpu time spent up to now is    11145.6 secs

     total energy              =   -1978.36752822 Ry
     estimated scf accuracy    <          3.6E-09 Ry

     iteration # 16     ecut=    80.00 Ry     beta= 0.20
     Davidson diagonalization with overlap
     ethr =  3.45E-12,  avg # of iterations =  1.0

     total cpu time spent up to now is    11244.4 secs

     total energy              =   -1978.36752823 Ry
     estimated scf accuracy    <          3.2E-09 Ry

     iteration # 17     ecut=    80.00 Ry     beta= 0.20
     Davidson diagonalization with overlap
     ethr =  3.04E-12,  avg # of iterations =  2.0

     total cpu time spent up to now is    11356.1 secs

     total energy              =   -1978.36752823 Ry
     estimated scf accuracy    <          2.6E-09 Ry

     iteration # 18     ecut=    80.00 Ry     beta= 0.20
     Davidson diagonalization with overlap
     ethr =  2.53E-12,  avg # of iterations =  1.0

     total cpu time spent up to now is    11455.4 secs

     total energy              =   -1978.36752823 Ry
     estimated scf accuracy    <          2.3E-09 Ry

     iteration # 19     ecut=    80.00 Ry     beta= 0.20
     Davidson diagonalization with overlap
     ethr =  2.19E-12,  avg # of iterations =  1.0

     total cpu time spent up to now is    11554.3 secs

     total energy              =   -1978.36752823 Ry
     estimated scf accuracy    <          2.1E-09 Ry

     iteration # 20     ecut=    80.00 Ry     beta= 0.20
     Davidson diagonalization with overlap
     ethr =  2.03E-12,  avg # of iterations =  2.5

     total cpu time spent up to now is    11673.6 secs

     total energy              =   -1978.36752823 Ry
     estimated scf accuracy    <          3.2E-09 Ry

     iteration # 21     ecut=    80.00 Ry     beta= 0.20
     Davidson diagonalization with overlap
     ethr =  2.03E-12,  avg # of iterations =  2.4

     total cpu time spent up to now is    11786.8 secs

     total energy              =   -1978.36752823 Ry
     estimated scf accuracy    <          1.9E-09 Ry

     iteration # 22     ecut=    80.00 Ry     beta= 0.20
     Davidson diagonalization with overlap
     ethr =  1.83E-12,  avg # of iterations =  1.2

     total cpu time spent up to now is    11888.4 secs

     total energy              =   -1978.36752824 Ry
     estimated scf accuracy    <          1.4E-09 Ry

     iteration # 23     ecut=    80.00 Ry     beta= 0.20
     Davidson diagonalization with overlap
     ethr =  1.34E-12,  avg # of iterations =  2.0

     total cpu time spent up to now is    11998.3 secs

     End of self-consistent calculation

          k = 0.0000 0.0000 0.0000 ( 21311 PWs)   bands (ev):

   -53.4921 -53.4889 -53.4165 -53.4129 -27.6667 -27.6621 -27.5915 -27.5860
   -27.4293 -27.4293 -27.4253 -27.4253 -27.3538 -27.3538 -27.3493 -27.3493
    -6.8883  -6.7580  -6.6931  -6.6453  -5.6422  -5.4777  -5.4097  -5.3007
     1.2994   1.6751   1.7729   2.0686   4.7562   4.7757   4.7757   4.7953
     4.7953   4.8496   4.8496   4.8706   4.8706   5.3256   5.5910   5.8887
     5.8888   5.9112   5.9112   5.9665   5.9666   5.9867   5.9867   6.2683
     6.9677   7.3406   7.4898   7.9675  10.1046  10.1046  10.1567  10.1568
    10.2041  10.2041  10.2322  10.2322  10.3397  10.3400

          k = 0.0000 0.0722 0.0000 ( 21283 PWs)   bands (ev):

   -53.4905 -53.4874 -53.4149 -53.4113 -27.6636 -27.6591 -27.5885 -27.5830
   -27.4449 -27.4408 -27.4328 -27.4288 -27.3693 -27.3648 -27.3573 -27.3528
    -6.8288  -6.6986  -6.6338  -6.5862  -5.6139  -5.4525  -5.3845  -5.2780
     1.3675   1.7437   1.8413   2.1361   4.6212   4.6400   4.6610   4.7143
     4.7360   4.8376   4.8577   4.9119   4.9331   5.1068   5.2882   5.5884
     5.7910   5.8146   5.8704   5.8902   5.9922   6.0757   6.1593   6.4899
     6.9715   7.3203   7.4550   7.8711  10.0445  10.0682  10.1202  10.1444
    10.1696  10.1836  10.2131  10.2517  10.2610  10.2943

          k = 0.0000 0.1443 0.0000 ( 21263 PWs)   bands (ev):

   -53.4861 -53.4830 -53.4105 -53.4069 -27.6550 -27.6505 -27.5798 -27.5743
   -27.4890 -27.4848 -27.4429 -27.4388 -27.4135 -27.4089 -27.3674 -27.3629
    -6.6549  -6.5257  -6.4609  -6.4143  -5.5312  -5.3791  -5.3113  -5.2119
     1.5570   1.9332   2.0297   2.3199   4.2849   4.3024   4.3216   4.3683
     4.3902   4.6971   4.8238   5.0155   5.0376   5.0789   5.0913   5.1130
     5.5389   5.5647   5.6214   5.6405   6.0497   6.1971   6.3148   6.6331
     6.9457   7.2120   7.3134   7.5719   9.7504   9.8235   9.8809   9.9242
     9.9835   9.9972  10.0384  10.0752  10.1217  10.1493

          k = 0.0000 0.2165 0.0000 ( 21233 PWs)   bands (ev):

   -53.4795 -53.4763 -53.4039 -53.4002 -27.6420 -27.6375 -27.5668 -27.5614
   -27.5544 -27.5502 -27.4789 -27.4742 -27.4579 -27.4538 -27.3824 -27.3778
    -6.3815  -6.2544  -6.1898  -6.1454  -5.4012  -5.2643  -5.1968  -5.1091
     1.8132   2.1813   2.2732   2.5430   3.8447   3.8763   3.9068   3.9510
     3.9929   4.2412   4.3364   4.5361   5.2037   5.2404   5.2782   5.3093
     5.3130   5.3175   5.3716   5.3885   5.9602   6.1438   6.2657   6.5469
     6.8056   6.9509   7.0194   7.1246   9.3701   9.5051   9.6250   9.8204
     9.8331   9.9049   9.9580   9.9715  10.0118  10.0763

          k = 0.0000 0.2887 0.0000 ( 21197 PWs)   bands (ev):

   -53.4716 -53.4685 -53.3960 -53.3924 -27.6307 -27.6266 -27.6264 -27.6222
   -27.5553 -27.5514 -27.5504 -27.5460 -27.4755 -27.4714 -27.4000 -27.3954
    -6.0336  -5.9113  -5.8471  -5.8067  -5.2367  -5.1203  -5.0533  -4.9813
     2.0119   2.3313   2.4093   2.5997   3.4326   3.5072   3.5777   3.6100
     3.6859   3.7821   3.8659   4.0048   4.8794   4.9133   4.9702   4.9895
     5.6102   5.6410   5.6982   5.7171   5.7417   5.9482   6.0569   6.3016
     6.5325   6.6000   6.6567   6.7040   9.2341   9.4156   9.5578   9.6351
     9.7137   9.7803   9.8198   9.8382  10.1709  10.3368

          k = 0.0000 0.3608 0.0000 ( 21187 PWs)   bands (ev):

   -53.4637 -53.4606 -53.3881 -53.3845 -27.7062 -27.7017 -27.6307 -27.6258
   -27.6112 -27.6068 -27.5360 -27.5307 -27.4931 -27.4890 -27.4176 -27.4130
    -5.6492  -5.5358  -5.4724  -5.4387  -5.0569  -4.9654  -4.8991  -4.8461
     1.9862   2.1958   2.2569   2.3384   3.0501   3.2242   3.2839   3.3789
     3.4480   3.5188   3.5814   3.6983   4.5905   4.6260   4.6834   4.7024
     5.5038   5.7199   5.8102   5.9237   5.9678   6.0263   6.0283   6.0465
     6.3139   6.3732   6.4315   6.4750   9.3516   9.5348   9.5372   9.5997
     9.6617   9.6659   9.6973   9.9285  10.4985  10.6694

          k = 0.0000 0.4330 0.0000 ( 21140 PWs)   bands (ev):

   -53.4570 -53.4539 -53.3814 -53.3778 -27.7695 -27.7649 -27.6940 -27.6890
   -27.5981 -27.5937 -27.5229 -27.5176 -27.5079 -27.5038 -27.4324 -27.4278
    -5.2825  -5.1830  -5.1223  -5.0962  -4.8880  -4.8239  -4.7593  -4.7255
     1.7663   1.8984   1.9442   1.9897   2.7106   2.8701   2.9115   2.9839
     3.3234   3.4372   3.4974   3.6028   4.3692   4.4059   4.4637   4.4825
     5.3266   5.5401   5.6190   5.8116   6.1714   6.2330   6.2970   6.3184
     6.3320   6.4123   6.4667   6.5294   9.5391   9.5795   9.6146   9.6450
     9.6651   9.7676   9.8595  10.0613  10.8080  10.9616

          k = 0.0000 0.5052 0.0000 ( 21078 PWs)   bands (ev):

   -53.4526 -53.4495 -53.3770 -53.3734 -27.8114 -27.8068 -27.7360 -27.7309
   -27.5893 -27.5850 -27.5178 -27.5141 -27.5137 -27.5088 -27.4423 -27.4377
    -5.0058  -4.9237  -4.8707  -4.8453  -4.7628  -4.7235  -4.6636  -4.6406
     1.5421   1.6468   1.6804   1.7272   2.4721   2.6068   2.6473   2.7043
     3.2136   3.3354   3.3981   3.4873   4.2312   4.2686   4.3266   4.3453
     5.2294   5.4359   5.5097   5.6814   6.3204   6.3972   6.4628   6.4912
     6.5200   6.6032   6.6552   6.7147   9.5949   9.6172   9.6820   9.6954
     9.9074  10.0124  10.0713  10.1879  11.0042  11.1338

          k = 0.0000-0.5774 0.0000 ( 21006 PWs)   bands (ev):

   -53.4510 -53.4479 -53.3754 -53.3718 -27.8261 -27.8215 -27.7507 -27.7455
   -27.5863 -27.5819 -27.5213 -27.5171 -27.5111 -27.5058 -27.4457 -27.4411
    -4.8989  -4.8269  -4.7810  -4.7509  -4.7158  -4.6873  -4.6311  -4.6085
     1.4504   1.5502   1.5809   1.6290   2.3861   2.5119   2.5527   2.6055
     3.1643   3.2866   3.3501   3.4344   4.1844   4.2220   4.2800   4.2987
     5.2000   5.4026   5.4749   5.6376   6.3684   6.4513   6.5172   6.5491
     6.6375   6.7064   6.7525   6.8003   9.6262   9.6423   9.7072   9.7189
    10.0636  10.1238  10.1853  10.2240  11.0676  11.1843

          k = 0.0625 0.1083 0.0000 ( 21269 PWs)   bands (ev):

   -53.4875 -53.4844 -53.4119 -53.4083 -27.6578 -27.6533 -27.5826 -27.5771
   -27.4742 -27.4701 -27.4401 -27.4360 -27.3987 -27.3942 -27.3646 -27.3601
    -6.7121  -6.5824  -6.5176  -6.4707  -5.5583  -5.4031  -5.3353  -5.2335
     1.4968   1.8733   1.9703   2.2626   4.3963   4.4077   4.4259   4.4746
     4.4976   4.8245   4.9558   4.9656   4.9769   5.0307   5.0521   5.2437
     5.5760   5.5996   5.6553   5.6753   6.0875   6.2146   6.3229   6.6377
     6.9618   7.2573   7.3676   7.6732   9.8734   9.9065   9.9344   9.9664
    10.0010  10.0124  10.0591  10.1214  10.1346  10.1690

          k = 0.0625 0.1804 0.0000 ( 21194 PWs)   bands (ev):

   -53.4820 -53.4789 -53.4064 -53.4028 -27.6470 -27.6425 -27.5718 -27.5663
   -27.5278 -27.5236 -27.4538 -27.4523 -27.4498 -27.4476 -27.3783 -27.3738
    -6.4882  -6.3602  -6.2955  -6.2501  -5.4518  -5.3088  -5.2413  -5.1489
     1.7236   2.0976   2.1920   2.4739   4.0103   4.0364   4.0721   4.1071
     4.1359   4.4451   4.5538   4.7878   5.1654   5.1936   5.2063   5.2339
     5.2529   5.2684   5.2954   5.3099   6.1378   6.2889   6.4019   6.6723
     6.8823   7.0715   7.1495   7.2968   9.4793   9.5884   9.6782   9.8115
     9.8492   9.9173   9.9393   9.9780   9.9935  10.0464

          k = 0.0625 0.2526 0.0000 ( 21202 PWs)   bands (ev):

   -53.4747 -53.4716 -53.3991 -53.3955 -27.6328 -27.6283 -27.5970 -27.5927
   -27.5576 -27.5522 -27.5215 -27.5168 -27.4718 -27.4677 -27.3963 -27.3917
    -6.1770  -6.0524  -5.9879  -5.9457  -5.3040  -5.1788  -5.1116  -5.0329
     1.9637   2.3147   2.4003   2.6375   3.6143   3.6523   3.6932   3.7362
     3.8144   4.0166   4.1019   4.2645   4.8323   4.8618   4.9156   4.9413
     5.4362   5.4650   5.5200   5.5407   6.0340   6.1939   6.2963   6.5161
     6.6738   6.7560   6.8135   6.8612   9.2125   9.3775   9.4928   9.6562
     9.7693   9.8153   9.8677   9.8831   9.9769  10.1018

          k = 0.0625 0.3248 0.0000 ( 21194 PWs)   bands (ev):

   -53.4669 -53.4638 -53.3913 -53.3877 -27.6711 -27.6667 -27.6174 -27.6130
   -27.5957 -27.5908 -27.5422 -27.5368 -27.4911 -27.4870 -27.4156 -27.4111
    -5.8093  -5.6915  -5.6276  -5.5908  -5.1304  -5.0280  -4.9613  -4.9000
     2.0578   2.3223   2.3906   2.5168   3.2520   3.3787   3.4696   3.5183
     3.5898   3.5929   3.6864   3.7857   4.5246   4.5709   4.6261   4.6590
     5.6637   5.7056   5.7486   5.7807   5.8262   5.9758   6.0621   6.2486
     6.4453   6.4859   6.5440   6.5719   9.1749   9.3533   9.4490   9.5693
     9.7038   9.7598   9.7938   9.9189  10.2304  10.3927

          k = 0.0625 0.3969 0.0000 ( 21151 PWs)   bands (ev):

   -53.4596 -53.4565 -53.3840 -53.3804 -27.7388 -27.7343 -27.6634 -27.6584
   -27.6031 -27.5987 -27.5279 -27.5226 -27.5090 -27.5049 -27.4335 -27.4289
    -5.4306  -5.3242  -5.2619  -5.2327  -4.9536  -4.8775  -4.8120  -4.7701
     1.9177   2.0814   2.1357   2.1904   2.8790   3.0369   3.0777   3.1537
     3.4006   3.5022   3.5602   3.6710   4.3233   4.3755   4.4313   4.4625
     5.5515   5.7252   5.7838   5.8205   5.8496   5.8984   5.9269   6.0055
     6.4575   6.4893   6.5441   6.5696   9.3093   9.4550   9.5176   9.6008
     9.7486   9.8050   9.8487  10.0059  10.5683  10.7231

          k = 0.0625 0.4691 0.0000 ( 21105 PWs)   bands (ev):

   -53.4540 -53.4509 -53.3784 -53.3748 -27.7902 -27.7856 -27.7148 -27.7097
   -27.5922 -27.5878 -27.5226 -27.5185 -27.5170 -27.5117 -27.4471 -27.4425
    -5.1037  -5.0136  -4.9564  -4.9322  -4.8030  -4.7539  -4.6914  -4.6655
     1.6883   1.8038   1.8430   1.8879   2.5630   2.6918   2.7294   2.7868
     3.2857   3.4103   3.4714   3.5642   4.2139   4.2599   4.3131   4.3401
     5.3588   5.5364   5.6044   5.7517   5.9262   5.9869   6.0509   6.0832
     6.6299   6.6692   6.7205   6.7534   9.5047   9.5860   9.6299   9.6779
     9.8845   9.9537  10.0057  10.1313  10.8821  11.0147

          k = 0.0625 0.5413 0.0000 ( 21084 PWs)   bands (ev):

   -53.4510 -53.4479 -53.3754 -53.3718 -27.8178 -27.8132 -27.7424 -27.7372
   -27.5863 -27.5819 -27.5299 -27.5258 -27.5111 -27.5058 -27.4544 -27.4498
    -4.9055  -4.8314  -4.7844  -4.7551  -4.7134  -4.6839  -4.6271  -4.6046
     1.5297   1.6313   1.6624   1.7105   2.3835   2.4971   2.5362   2.5866
     3.1934   3.3209   3.3838   3.4677   4.1698   4.2071   4.2575   4.2839
     5.2527   5.4337   5.5024   5.6470   6.0090   6.0881   6.1543   6.1801
     6.7819   6.8313   6.8820   6.9190   9.6236   9.6467   9.6966   9.7194
    10.0587  10.1244  10.1795  10.2398  11.1076  11.2117

          k = 0.1250 0.2165 0.0000 ( 21179 PWs)   bands (ev):

   -53.4759 -53.4727 -53.4002 -53.3966 -27.6349 -27.6305 -27.5830 -27.5787
   -27.5598 -27.5543 -27.5075 -27.5028 -27.4726 -27.4685 -27.3971 -27.3926
    -6.2262  -6.1009  -6.0364  -5.9935  -5.3270  -5.1988  -5.1315  -5.0505
     1.9444   2.3053   2.3937   2.6471   3.6881   3.7181   3.7539   3.7965
     3.9007   4.1707   4.2627   4.4505   4.6983   4.7191   4.7776   4.8004
     5.3565   5.3847   5.4384   5.4604   6.2219   6.3570   6.4529   6.6453
     6.7400   6.8251   6.8880   6.9260   9.1993   9.3558   9.4575   9.6228
     9.7492   9.8168   9.8321   9.8619   9.9085   9.9753

          k = 0.1250 0.2887 0.0000 ( 21199 PWs)   bands (ev):

   -53.4686 -53.4655 -53.3930 -53.3894 -27.6464 -27.6420 -27.6207 -27.6163
   -27.5709 -27.5660 -27.5455 -27.5402 -27.4959 -27.4918 -27.4204 -27.4159
    -5.8935  -5.7737  -5.7096  -5.6712  -5.1685  -5.0604  -4.9936  -4.9278
     2.1019   2.4051   2.4791   2.6450   3.4234   3.4855   3.5599   3.6080
     3.6922   3.7911   3.8691   3.9400   4.2638   4.3288   4.3920   4.4897
     5.4537   5.4938   5.5462   5.5699   6.1476   6.2667   6.3434   6.4810
     6.5531   6.5698   6.6216   6.6470   9.0396   9.2246   9.3297   9.4975
     9.7535   9.8003   9.8315   9.8894   9.9867  10.1163

          k = 0.1250 0.3608 0.0000 ( 21195 PWs)   bands (ev):

   -53.4613 -53.4582 -53.3857 -53.3821 -27.7087 -27.7042 -27.6332 -27.6283
   -27.6065 -27.6021 -27.5313 -27.5260 -27.5196 -27.5155 -27.4441 -27.4395
    -5.5275  -5.4171  -5.3541  -5.3225  -4.9947  -4.9108  -4.8448  -4.7971
     2.0665   2.2692   2.3301   2.4063   3.0856   3.2081   3.2481   3.3161
     3.4996   3.5746   3.6325   3.7261   4.0645   4.1784   4.2482   4.3599
     5.3919   5.4425   5.4963   5.5192   5.9234   6.0348   6.0911   6.2024
     6.5097   6.5306   6.5957   6.6076   9.0765   9.2740   9.3825   9.5658
     9.8331   9.8741   9.9072   9.9843  10.2262  10.3751

          k = 0.1250 0.4330 0.0000 ( 21113 PWs)   bands (ev):

   -53.4551 -53.4520 -53.3795 -53.3759 -27.7608 -27.7563 -27.6854 -27.6803
   -27.5944 -27.5900 -27.5398 -27.5357 -27.5192 -27.5139 -27.4643 -27.4597
    -5.1807  -5.0845  -5.0250  -5.0001  -4.8306  -4.7734  -4.7096  -4.6794
     1.8966   2.0347   2.0841   2.1288   2.6766   2.7721   2.7979   2.8541
     3.4055   3.5370   3.5957   3.6799   4.0324   4.1457   4.2115   4.2947
     5.3293   5.4092   5.4664   5.4981   5.6517   5.7544   5.8101   5.9114
     6.6500   6.6715   6.7360   6.7499   9.2851   9.4684   9.5665   9.7332
     9.9467   9.9756  10.0236  10.0700  10.5358  10.6712

          k = 0.1250 0.5052 0.0000 ( 21081 PWs)   bands (ev):

   -53.4510 -53.4479 -53.3754 -53.3718 -27.7954 -27.7908 -27.7200 -27.7149
   -27.5863 -27.5819 -27.5533 -27.5492 -27.5111 -27.5058 -27.4778 -27.4732
    -4.9208  -4.8422  -4.7925  -4.7651  -4.7078  -4.6756  -4.6175  -4.5949
     1.7365   1.8472   1.8824   1.9287   2.3813   2.4631   2.4965   2.5440
     3.2826   3.4240   3.4854   3.5628   4.0773   4.1674   4.2243   4.2684
     5.3138   5.4247   5.4613   5.5150   5.5357   5.5665   5.5917   5.7025
     6.8344   6.8705   6.9293   6.9552   9.5094   9.6085   9.6639   9.7311
    10.0935  10.1493  10.1998  10.2710  10.8032  10.9168

          k = 0.1250 0.5774 0.0000 ( 21108 PWs)   bands (ev):

   -53.4496 -53.4464 -53.3739 -53.3704 -27.8075 -27.8029 -27.7321 -27.7270
   -27.5834 -27.5791 -27.5581 -27.5539 -27.5082 -27.5030 -27.4826 -27.4779
    -4.8206  -4.7523  -4.7115  -4.6777  -4.6609  -4.6403  -4.5858  -4.5627
     1.6730   1.7766   1.8058   1.8558   2.2759   2.3543   2.3906   2.4355
     3.2227   3.3632   3.4256   3.5026   4.1238   4.1841   4.2283   4.2656
     5.2624   5.4095   5.4352   5.4883   5.4990   5.5566   5.5694   5.6467
     6.9252   6.9711   7.0289   7.0612   9.5923   9.6143   9.6619   9.6887
    10.2020  10.2721  10.3269  10.3653  10.9035  11.0417

          k = 0.1875 0.3248 0.0000 ( 21195 PWs)   bands (ev):

   -53.4619 -53.4588 -53.3863 -53.3827 -27.6951 -27.6906 -27.6196 -27.6147
   -27.6077 -27.6033 -27.5325 -27.5271 -27.5264 -27.5223 -27.4509 -27.4463
    -5.5611  -5.4493  -5.3862  -5.3538  -5.0086  -4.9220  -4.8558  -4.8061
     2.1294   2.3517   2.4152   2.5050   3.2199   3.2991   3.3469   3.4066
     3.5434   3.5987   3.6715   3.7194   3.9245   4.0553   4.1379   4.3069
     5.2171   5.2686   5.3210   5.3458   6.0852   6.1813   6.2216   6.3116
     6.5127   6.5407   6.6087   6.6186   8.9876   9.2017   9.3232   9.5427
     9.8535   9.8873   9.9213   9.9671  10.0821  10.2177

          k = 0.1875 0.3969 0.0000 ( 21153 PWs)   bands (ev):

   -53.4557 -53.4526 -53.3801 -53.3765 -27.7370 -27.7325 -27.6616 -27.6566
   -27.5956 -27.5912 -27.5573 -27.5531 -27.5204 -27.5151 -27.4818 -27.4771
    -5.2229  -5.1235  -5.0630  -5.0372  -4.8444  -4.7827  -4.7183  -4.6852
     2.0531   2.2151   2.2725   2.3243   2.7800   2.8330   2.8421   2.9069
     3.5225   3.6527   3.7217   3.7709   3.9271   4.0417   4.1241   4.2788
     4.8970   4.9591   5.0186   5.0414   5.8499   5.9304   5.9749   6.0307
     6.6174   6.6462   6.7150   6.7317   9.1416   9.3712   9.5003   9.7755
     9.9751   9.9899  10.0449  10.0654  10.2641  10.3970

          k = 0.1875 0.4691 0.0000 ( 21101 PWs)   bands (ev):

   -53.4510 -53.4479 -53.3754 -53.3718 -27.7675 -27.7630 -27.6921 -27.6870
   -27.5863 -27.5822 -27.5820 -27.5780 -27.5111 -27.5067 -27.5058 -27.5020
    -4.9354  -4.8528  -4.8007  -4.7749  -4.7027  -4.6673  -4.6079  -4.5850
     1.9694   2.1012   2.1487   2.1896   2.3844   2.4310   2.4589   2.5066
     3.4407   3.6002   3.6570   3.7015   3.9825   4.1153   4.1859   4.2899
     4.7022   4.8080   4.8735   4.9275   5.5564   5.6354   5.6975   5.7420
     6.8216   6.8426   6.9123   6.9238   9.3628   9.5226   9.6020   9.7336
    10.1345  10.1844  10.2315  10.3048  10.4763  10.5633

          k = 0.1875 0.5413 0.0000 ( 21112 PWs)   bands (ev):

   -53.4484 -53.4453 -53.3728 -53.3693 -27.7835 -27.7790 -27.7081 -27.7030
   -27.5962 -27.5919 -27.5813 -27.5769 -27.5207 -27.5159 -27.5061 -27.5008
    -4.7628  -4.6966  -4.6606  -4.6245  -4.6142  -4.6017  -4.5484  -4.5250
     1.9265   2.0458   2.0779   2.1280   2.1709   2.2132   2.2543   2.2911
     3.3033   3.4573   3.5194   3.5822   4.1028   4.2075   4.2608   4.3121
     4.6517   4.7891   4.8550   4.9173   5.3609   5.4285   5.4873   5.5437
     7.0034   7.0357   7.0994   7.1222   9.4404   9.4869   9.5367   9.5718
    10.3138  10.4120  10.4667  10.5433  10.5955  10.6541

          k = 0.2500 0.4330 0.0000 ( 21125 PWs)   bands (ev):

   -53.4510 -53.4479 -53.3754 -53.3718 -27.7530 -27.7485 -27.6776 -27.6726
   -27.5971 -27.5929 -27.5863 -27.5820 -27.5217 -27.5169 -27.5111 -27.5058
    -4.9413  -4.8571  -4.8042  -4.7788  -4.7006  -4.6640  -4.6040  -4.5808
     2.0750   2.2214   2.2768   2.3116   2.3905   2.4187   2.4474   2.4921
     3.5970   3.7085   3.7868   3.8261   3.9946   4.0999   4.1789   4.3229
     4.4121   4.4478   4.5055   4.5223   5.6150   5.6789   5.7594   5.7653
     6.8055   6.8248   6.8971   6.9069   9.3011   9.4812   9.5700   9.7256
    10.1456  10.1894  10.2379  10.3112  10.3515  10.4343

          k = 0.2500 0.5052 0.0000 ( 21117 PWs)   bands (ev):

   -53.4478 -53.4447 -53.3722 -53.3687 -27.7578 -27.7532 -27.6823 -27.6773
   -27.6297 -27.6254 -27.5801 -27.5758 -27.5543 -27.5495 -27.5049 -27.4997
    -4.7347  -4.6685  -4.6346  -4.5974  -4.5874  -4.5785  -4.5260  -4.5024
     2.0584   2.1229   2.1297   2.1987   2.2298   2.3129   2.3602   2.4010
     3.4666   3.6238   3.6702   3.6961   4.0155   4.1183   4.1817   4.2287
     4.2457   4.2935   4.3496   4.4272   5.3482   5.4069   5.4858   5.5152
     7.0473   7.0640   7.1355   7.1438   9.3055   9.3718   9.4233   9.4724
    10.2832  10.3308  10.4123  10.4258  10.5574  10.5927

          k = 0.2500 0.5774 0.0000 ( 21116 PWs)   bands (ev):

   -53.4467 -53.4436 -53.3711 -53.3675 -27.7576 -27.7531 -27.6822 -27.6771
   -27.6430 -27.6387 -27.5780 -27.5736 -27.5675 -27.5627 -27.5028 -27.4975
    -4.6545  -4.5997  -4.5803  -4.5540  -4.5487  -4.5239  -4.4941  -4.4730
     1.9690   2.0213   2.0331   2.0954   2.3046   2.3803   2.4051   2.4581
     3.3225   3.4637   3.5245   3.5652   3.9582   4.1341   4.1772   4.2261
     4.3086   4.3561   4.4070   4.4470   5.2394   5.2718   5.3523   5.3806
     7.1721   7.1948   7.2625   7.2776   9.2418   9.2581   9.3157   9.3334
    10.3011  10.3681  10.4144  10.4613  10.7303  10.7444

          k = 0.3125 0.5413 0.0000 ( 21100 PWs)   bands (ev):

   -53.4461 -53.4430 -53.3705 -53.3669 -27.7365 -27.7320 -27.6714 -27.6671
   -27.6611 -27.6561 -27.5960 -27.5912 -27.5768 -27.5724 -27.5016 -27.4963
    -4.6152  -4.5656  -4.5537  -4.5327  -4.5295  -4.4902  -4.4718  -4.4540
     1.9065   1.9507   1.9696   2.0250   2.5146   2.6172   2.6540   2.6975
     3.3248   3.3676   3.4032   3.4709   3.8092   3.8713   3.8852   3.9344
     4.3465   4.4085   4.4682   4.5012   5.1452   5.1923   5.2765   5.3188
     7.2566   7.2711   7.3439   7.3494   9.1257   9.1426   9.2007   9.2183
    10.2478  10.2727  10.3237  10.3783  10.8183  10.8546

     the Fermi energy is     8.3979 ev

!    total energy              =   -1978.36752823 Ry
     total all-electron energy =    -38771.688373 Ry
     estimated scf accuracy    <          8.0E-10 Ry
     smearing contrib. (-TS)   =       0.00006495 Ry
     internal energy E=F+TS    =   -1978.36759319 Ry

     The total energy is F=E-TS. E is the sum of the following terms:
     one-electron contribution =   -1435.01568974 Ry
     hartree contribution      =     759.76949511 Ry
     xc contribution           =    -119.23655871 Ry
     ewald contribution        =      85.96675905 Ry
     one-center paw contrib.   =   -1269.85159889 Ry

     convergence has been achieved in  23 iterations

     Forces acting on atoms (cartesian axes, Ry/au):

     atom    1 type  2   force =     0.00000000    0.00000000    0.00115981
     atom    2 type  1   force =     0.00000000    0.00000000    0.00122897
     atom    3 type  2   force =     0.00000000    0.00000000    0.00112347
     atom    4 type  2   force =     0.00000000    0.00000000   -0.00171827
     atom    5 type  1   force =     0.00000000   -0.00000000   -0.00299640
     atom    6 type  2   force =     0.00000000    0.00000000   -0.00282404
     atom    7 type  2   force =     0.00000000    0.00000000    0.00332150
     atom    8 type  1   force =     0.00000000   -0.00000000    0.00216869
     atom    9 type  2   force =     0.00000000    0.00000000    0.00213808
     atom   10 type  2   force =     0.00000000    0.00000000   -0.00105474
     atom   11 type  1   force =     0.00000000   -0.00000000   -0.00137550
     atom   12 type  2   force =     0.00000000    0.00000000   -0.00117157

     Total force =     0.006979     Total SCF correction =     0.000119
     Energy error            =      1.1E-04 Ry
     Gradient error          =      3.3E-03 Ry/Bohr

     number of scf cycles    =   4
     number of bfgs steps    =   3

     energy             old  =   -1978.3674178064 Ry
     energy             new  =   -1978.3675282319 Ry

     CASE: energy            _new < energy            _old

     new trust radius        =       0.0140125416 bohr
     new conv_thr            =       0.0000000011 Ry


ATOMIC_POSITIONS (crystal)
S                0.3333330000        0.6666670000       -0.1162283152
Mo               0.0000000000        0.0000000000       -0.0637877074
S                0.3333330000        0.6666670000       -0.0112702664
S                0.6666670000        0.3333330000        0.1066311804
Mo               0.3333330000        0.6666670000        0.1591934296
S                0.6666670000        0.3333330000        0.2115689709
S                0.0000000000        0.0000000000        0.3064498448
Mo               0.6666670000        0.3333330000        0.3589330538
S                0.0000000000        0.0000000000        0.4114122130
S                0.3333330000        0.6666670000        0.5315353660
Mo               0.0000000000        0.0000000000        0.5840622688
S                0.3333330000        0.6666670000        0.6364999615



     Writing config-only to output data dir ./tmp/relax2/mos2_slab2.save/ :
     XML data file
     NEW-OLD atomic charge density approx. for the potential

     total cpu time spent up to now is    12053.2 secs

     Self-consistent Calculation

     iteration #  1     ecut=    80.00 Ry     beta= 0.20
     Davidson diagonalization with overlap
     ethr =  1.00E-06,  avg # of iterations =  5.9

     Threshold (ethr) on eigenvalues was too large:
     Diagonalizing with lowered threshold

     Davidson diagonalization with overlap
     ethr =  2.63E-08,  avg # of iterations =  4.4

     total cpu time spent up to now is    12410.2 secs

     total energy              =   -1978.36774440 Ry
     estimated scf accuracy    <       0.00005282 Ry

     iteration #  2     ecut=    80.00 Ry     beta= 0.20
     Davidson diagonalization with overlap
     ethr =  5.08E-08,  avg # of iterations =  1.0

     total cpu time spent up to now is    12508.8 secs

     total energy              =   -1978.36773250 Ry
     estimated scf accuracy    <       0.00003925 Ry

     iteration #  3     ecut=    80.00 Ry     beta= 0.20
     Davidson diagonalization with overlap
     ethr =  3.77E-08,  avg # of iterations =  2.8

     total cpu time spent up to now is    12626.0 secs

     total energy              =   -1978.36773626 Ry
     estimated scf accuracy    <       0.00000157 Ry

     iteration #  4     ecut=    80.00 Ry     beta= 0.20
     Davidson diagonalization with overlap
     ethr =  1.51E-09,  avg # of iterations =  4.1

     total cpu time spent up to now is    12757.8 secs

     total energy              =   -1978.36773653 Ry
     estimated scf accuracy    <       0.00000062 Ry

     iteration #  5     ecut=    80.00 Ry     beta= 0.20
     Davidson diagonalization with overlap
     ethr =  5.95E-10,  avg # of iterations =  2.0

     total cpu time spent up to now is    12870.4 secs

     total energy              =   -1978.36773652 Ry
     estimated scf accuracy    <       0.00000035 Ry

     iteration #  6     ecut=    80.00 Ry     beta= 0.20
     Davidson diagonalization with overlap
     ethr =  3.40E-10,  avg # of iterations =  1.9

     total cpu time spent up to now is    12978.5 secs

     total energy              =   -1978.36773652 Ry
     estimated scf accuracy    <       0.00000009 Ry

     iteration #  7     ecut=    80.00 Ry     beta= 0.20
     Davidson diagonalization with overlap
     ethr =  8.23E-11,  avg # of iterations =  2.8

     total cpu time spent up to now is    13096.1 secs

     total energy              =   -1978.36773653 Ry
     estimated scf accuracy    <       0.00000003 Ry

     iteration #  8     ecut=    80.00 Ry     beta= 0.20
     Davidson diagonalization with overlap
     ethr =  3.24E-11,  avg # of iterations =  1.8

     total cpu time spent up to now is    13202.7 secs

     total energy              =   -1978.36773653 Ry
     estimated scf accuracy    <       0.00000003 Ry

     iteration #  9     ecut=    80.00 Ry     beta= 0.20
     Davidson diagonalization with overlap
     ethr =  2.51E-11,  avg # of iterations =  2.2

     total cpu time spent up to now is    13319.5 secs

     total energy              =   -1978.36773655 Ry
     estimated scf accuracy    <       0.00000002 Ry

     iteration # 10     ecut=    80.00 Ry     beta= 0.20
     Davidson diagonalization with overlap
     ethr =  1.71E-11,  avg # of iterations =  2.4

     total cpu time spent up to now is    13436.3 secs

     total energy              =   -1978.36773653 Ry
     estimated scf accuracy    <       0.00000002 Ry

     iteration # 11     ecut=    80.00 Ry     beta= 0.20
     Davidson diagonalization with overlap
     ethr =  1.57E-11,  avg # of iterations =  2.5

     total cpu time spent up to now is    13559.2 secs

     total energy              =   -1978.36773652 Ry
     estimated scf accuracy    <       0.00000001 Ry

     iteration # 12     ecut=    80.00 Ry     beta= 0.20
     Davidson diagonalization with overlap
     ethr =  1.30E-11,  avg # of iterations =  2.1

     total cpu time spent up to now is    13670.4 secs

     total energy              =   -1978.36773652 Ry
     estimated scf accuracy    <          3.8E-09 Ry

     iteration # 13     ecut=    80.00 Ry     beta= 0.20
     Davidson diagonalization with overlap
     ethr =  3.63E-12,  avg # of iterations =  2.4

     total cpu time spent up to now is    13784.1 secs

     total energy              =   -1978.36773652 Ry
     estimated scf accuracy    <          2.4E-09 Ry

     iteration # 14     ecut=    80.00 Ry     beta= 0.20
     Davidson diagonalization with overlap
     ethr =  2.35E-12,  avg # of iterations =  2.0

     total cpu time spent up to now is    13895.9 secs

     total energy              =   -1978.36773652 Ry
     estimated scf accuracy    <          1.7E-09 Ry

     iteration # 15     ecut=    80.00 Ry     beta= 0.20
     Davidson diagonalization with overlap
     ethr =  1.64E-12,  avg # of iterations =  2.3

     total cpu time spent up to now is    14013.5 secs

     total energy              =   -1978.36773653 Ry
     estimated scf accuracy    <          2.0E-09 Ry

     iteration # 16     ecut=    80.00 Ry     beta= 0.20
     Davidson diagonalization with overlap
     ethr =  1.64E-12,  avg # of iterations =  1.9

     total cpu time spent up to now is    14121.3 secs

     total energy              =   -1978.36773652 Ry
     estimated scf accuracy    <          1.4E-09 Ry

     iteration # 17     ecut=    80.00 Ry     beta= 0.20
     Davidson diagonalization with overlap
     ethr =  1.33E-12,  avg # of iterations =  1.1

     total cpu time spent up to now is    14220.8 secs

     total energy              =   -1978.36773652 Ry
     estimated scf accuracy    <          1.1E-09 Ry

     iteration # 18     ecut=    80.00 Ry     beta= 0.20
     Davidson diagonalization with overlap
     ethr =  1.06E-12,  avg # of iterations =  1.2

     total cpu time spent up to now is    14321.1 secs

     total energy              =   -1978.36773652 Ry
     estimated scf accuracy    <          1.2E-09 Ry

     iteration # 19     ecut=    80.00 Ry     beta= 0.20
     Davidson diagonalization with overlap
     ethr =  1.06E-12,  avg # of iterations =  2.2

     total cpu time spent up to now is    14434.0 secs

     End of self-consistent calculation

          k = 0.0000 0.0000 0.0000 ( 21311 PWs)   bands (ev):

   -53.4909 -53.4886 -53.4177 -53.4136 -27.6651 -27.6618 -27.5924 -27.5868
   -27.4275 -27.4275 -27.4249 -27.4249 -27.3544 -27.3544 -27.3501 -27.3500
    -6.8809  -6.7575  -6.6935  -6.6431  -5.6390  -5.4775  -5.4107  -5.3025
     1.3067   1.6739   1.7732   2.0696   4.7555   4.7839   4.7839   4.7959
     4.7959   4.8552   4.8552   4.8700   4.8700   5.3216   5.5929   5.8955
     5.8956   5.9118   5.9118   5.9707   5.9708   5.9861   5.9861   6.2655
     6.9653   7.3410   7.4911   7.9568  10.1066  10.1067  10.1570  10.1570
    10.2041  10.2042  10.2314  10.2314  10.3374  10.3376

          k = 0.0000 0.0722 0.0000 ( 21283 PWs)   bands (ev):

   -53.4893 -53.4871 -53.4161 -53.4121 -27.6621 -27.6588 -27.5893 -27.5837
   -27.4431 -27.4405 -27.4311 -27.4285 -27.3700 -27.3656 -27.3579 -27.3536
    -6.8214  -6.6982  -6.6341  -6.5840  -5.6106  -5.4522  -5.3855  -5.2796
     1.3750   1.7425   1.8416   2.1372   4.6215   4.6481   4.6617   4.7198
     4.7354   4.8458   4.8584   4.9174   4.9325   5.1042   5.2898   5.5908
     5.7978   5.8153   5.8745   5.8897   5.9956   6.0760   6.1594   6.4892
     6.9692   7.3208   7.4561   7.8619  10.0458  10.0685  10.1200  10.1436
    10.1716  10.1832  10.2113  10.2470  10.2597  10.2703

          k = 0.0000 0.1443 0.0000 ( 21263 PWs)   bands (ev):

   -53.4849 -53.4826 -53.4117 -53.4076 -27.6534 -27.6501 -27.5807 -27.5751
   -27.4871 -27.4845 -27.4411 -27.4385 -27.4140 -27.4096 -27.3680 -27.3636
    -6.6476  -6.5252  -6.4612  -6.4121  -5.5279  -5.3788  -5.3123  -5.2132
     1.5648   1.9321   2.0299   2.3212   4.2914   4.3047   4.3232   4.3728
     4.3898   4.6958   4.8252   5.0237   5.0383   5.0805   5.0966   5.1124
     5.5457   5.5654   5.6254   5.6401   6.0515   6.1959   6.3149   6.6327
     6.9439   7.2127   7.3138   7.5663   9.7494   9.8217   9.8803   9.9245
     9.9824   9.9982  10.0391  10.0737  10.1217  10.1449

          k = 0.0000 0.2165 0.0000 ( 21233 PWs)   bands (ev):

   -53.4783 -53.4760 -53.4050 -53.4010 -27.6405 -27.6372 -27.5677 -27.5621
   -27.5525 -27.5498 -27.4794 -27.4749 -27.4561 -27.4535 -27.3830 -27.3786
    -6.3742  -6.2540  -6.1901  -6.1433  -5.3980  -5.2639  -5.1978  -5.1100
     1.8216   2.1803   2.2733   2.5450   3.8513   3.8780   3.9102   3.9513
     3.9943   4.2410   4.3374   4.5373   5.2112   5.2410   5.2838   5.3118
     5.3140   5.3196   5.3765   5.3886   5.9605   6.1421   6.2659   6.5460
     6.8045   6.9515   7.0189   7.1223   9.3680   9.5036   9.6245   9.8212
     9.8317   9.9051   9.9571   9.9699  10.0094  10.0768

          k = 0.0000 0.2887 0.0000 ( 21197 PWs)   bands (ev):

   -53.4704 -53.4681 -53.3972 -53.3931 -27.6288 -27.6260 -27.6251 -27.6218
   -27.5558 -27.5523 -27.5512 -27.5468 -27.4737 -27.4711 -27.4006 -27.3962
    -6.0264  -5.9109  -5.8472  -5.8048  -5.2335  -5.1199  -5.0542  -4.9817
     2.0210   2.3309   2.4092   2.6029   3.4378   3.5103   3.5786   3.6103
     3.6861   3.7837   3.8668   4.0053   4.8865   4.9140   4.9740   4.9893
     5.6175   5.6417   5.7024   5.7172   5.7413   5.9465   6.0571   6.2999
     6.5326   6.6007   6.6560   6.7027   9.2318   9.4138   9.5577   9.6363
     9.7139   9.7788   9.8177   9.8355  10.1700  10.3358

          k = 0.0000 0.3608 0.0000 ( 21187 PWs)   bands (ev):

   -53.4625 -53.4603 -53.3893 -53.3853 -27.7042 -27.7014 -27.6312 -27.6265
   -27.6097 -27.6065 -27.5369 -27.5314 -27.4912 -27.4886 -27.4181 -27.4137
    -5.6421  -5.5353  -5.4723  -5.4369  -5.0536  -4.9649  -4.8999  -4.8459
     1.9951   2.1962   2.2571   2.3417   3.0553   3.2250   3.2840   3.3803
     3.4486   3.5206   3.5817   3.6983   4.5976   4.6266   4.6872   4.7023
     5.5034   5.7182   5.8101   5.9306   5.9685   6.0239   6.0310   6.0474
     6.3149   6.3741   6.4308   6.4742   9.3495   9.5330   9.5388   9.6000
     9.6618   9.6646   9.6959   9.9256  10.4972  10.6683

          k = 0.0000 0.4330 0.0000 ( 21140 PWs)   bands (ev):

   -53.4559 -53.4536 -53.3826 -53.3786 -27.7674 -27.7646 -27.6944 -27.6897
   -27.5966 -27.5934 -27.5238 -27.5184 -27.5061 -27.5034 -27.4330 -27.4286
    -5.2755  -5.1826  -5.1214  -5.0950  -4.8848  -4.8232  -4.7598  -4.7248
     1.7739   1.8989   1.9462   1.9909   2.7155   2.8702   2.9119   2.9846
     3.3267   3.4379   3.4970   3.6033   4.3763   4.4066   4.4674   4.4825
     5.3262   5.5387   5.6186   5.8088   6.1779   6.2337   6.2978   6.3203
     6.3330   6.4129   6.4663   6.5292   9.5412   9.5799   9.6134   9.6440
     9.6645   9.7661   9.8594  10.0591  10.8063  10.9603

          k = 0.0000 0.5052 0.0000 ( 21078 PWs)   bands (ev):

   -53.4514 -53.4491 -53.3782 -53.3741 -27.8093 -27.8064 -27.7363 -27.7316
   -27.5879 -27.5846 -27.5159 -27.5151 -27.5133 -27.5096 -27.4429 -27.4384
    -4.9990  -4.9233  -4.8682  -4.8454  -4.7596  -4.7227  -4.6633  -4.6401
     1.5488   1.6472   1.6832   1.7271   2.4768   2.6069   2.6475   2.7044
     3.2180   3.3359   3.3976   3.4881   4.2383   4.2693   4.3302   4.3453
     5.2291   5.4349   5.5089   5.6783   6.3265   6.3979   6.4628   6.4931
     6.5209   6.6035   6.6548   6.7146   9.5973   9.6177   9.6817   9.6949
     9.9073  10.0119  10.0706  10.1865  11.0023  11.1329

          k = 0.0000-0.5774 0.0000 ( 21006 PWs)   bands (ev):

   -53.4498 -53.4476 -53.3766 -53.3726 -27.8240 -27.8211 -27.7510 -27.7462
   -27.5848 -27.5816 -27.5194 -27.5168 -27.5120 -27.5065 -27.4463 -27.4419
    -4.8922  -4.8265  -4.7780  -4.7514  -4.7127  -4.6866  -4.6302  -4.6084
     1.4567   1.5506   1.5838   1.6286   2.3908   2.5120   2.5529   2.6054
     3.1690   3.2871   3.3496   3.4354   4.1915   4.2227   4.2836   4.2988
     5.1998   5.4017   5.4740   5.6344   6.3745   6.4519   6.5171   6.5510
     6.6384   6.7067   6.7521   6.8000   9.6288   9.6428   9.7073   9.7183
    10.0642  10.1242  10.1840  10.2228  11.0656  11.1827

          k = 0.0625 0.1083 0.0000 ( 21269 PWs)   bands (ev):

   -53.4863 -53.4841 -53.4131 -53.4091 -27.6563 -27.6529 -27.5835 -27.5779
   -27.4724 -27.4698 -27.4383 -27.4357 -27.3993 -27.3949 -27.3652 -27.3608
    -6.7047  -6.5820  -6.5180  -6.4685  -5.5551  -5.4029  -5.3363  -5.2350
     1.5045   1.8722   1.9706   2.2639   4.4016   4.4114   4.4269   4.4796
     4.4970   4.8229   4.9635   4.9677   4.9775   5.0361   5.0515   5.2453
     5.5828   5.6001   5.6595   5.6746   6.0898   6.2137   6.3230   6.6374
     6.9599   7.2580   7.3683   7.6666   9.8729   9.9060   9.9350   9.9651
    10.0013  10.0119  10.0580  10.1184  10.1335  10.1691

          k = 0.0625 0.1804 0.0000 ( 21194 PWs)   bands (ev):

   -53.4808 -53.4785 -53.4076 -53.4035 -27.6454 -27.6421 -27.5726 -27.5671
   -27.5259 -27.5232 -27.4528 -27.4520 -27.4494 -27.4484 -27.3789 -27.3745
    -6.4809  -6.3597  -6.2958  -6.2480  -5.4486  -5.3085  -5.2422  -5.1500
     1.7317   2.0965   2.1922   2.4756   4.0174   4.0372   4.0763   4.1077
     4.1372   4.4444   4.5550   4.7890   5.1739   5.1941   5.2121   5.2345
     5.2576   5.2677   5.2998   5.3095   6.1389   6.2875   6.4018   6.6721
     6.8809   7.0722   7.1493   7.2936   9.4776   9.5870   9.6777   9.8118
     9.8482   9.9167   9.9399   9.9784   9.9923  10.0441

          k = 0.0625 0.2526 0.0000 ( 21202 PWs)   bands (ev):

   -53.4736 -53.4713 -53.4003 -53.3963 -27.6313 -27.6280 -27.5951 -27.5924
   -27.5585 -27.5529 -27.5220 -27.5175 -27.4700 -27.4673 -27.3969 -27.3925
    -6.1697  -6.0519  -5.9882  -5.9437  -5.3007  -5.1784  -5.1125  -5.0335
     1.9726   2.3139   2.4003   2.6402   3.6200   3.6548   3.6959   3.7358
     3.8156   4.0171   4.1027   4.2657   4.8376   4.8633   4.9178   4.9420
     5.4436   5.4657   5.5247   5.5404   6.0343   6.1924   6.2963   6.5153
     6.6733   6.7567   6.8129   6.8600   9.2102   9.3758   9.4928   9.6550
     9.7693   9.8148   9.8660   9.8826   9.9756  10.1023

          k = 0.0625 0.3248 0.0000 ( 21194 PWs)   bands (ev):

   -53.4657 -53.4634 -53.3925 -53.3884 -27.6691 -27.6664 -27.6159 -27.6126
   -27.5961 -27.5915 -27.5431 -27.5376 -27.4893 -27.4867 -27.4162 -27.4118
    -5.8021  -5.6910  -5.6277  -5.5889  -5.1272  -5.0275  -4.9622  -4.9001
     2.0671   2.3225   2.3904   2.5204   3.2572   3.3811   3.4689   3.5188
     3.5904   3.5947   3.6880   3.7859   4.5294   4.5723   4.6272   4.6608
     5.6700   5.7063   5.7520   5.7804   5.8267   5.9744   6.0621   6.2470
     6.4466   6.4869   6.5434   6.5713   9.1728   9.3516   9.4491   9.5686
     9.7036   9.7590   9.7928   9.9172  10.2293  10.3897

          k = 0.0625 0.3969 0.0000 ( 21151 PWs)   bands (ev):

   -53.4584 -53.4562 -53.3852 -53.3812 -27.7368 -27.7340 -27.6638 -27.6591
   -27.6017 -27.5984 -27.5288 -27.5234 -27.5071 -27.5045 -27.4341 -27.4296
    -5.4235  -5.3238  -5.2615  -5.2312  -4.9504  -4.8769  -4.8127  -4.7695
     1.9261   2.0820   2.1367   2.1928   2.8840   3.0373   3.0786   3.1546
     3.4032   3.5029   3.5599   3.6716   4.3283   4.3767   4.4326   4.4642
     5.5518   5.7243   5.7840   5.8250   5.8502   5.8985   5.9272   6.0044
     6.4598   6.4906   6.5442   6.5696   9.3081   9.4540   9.5176   9.6004
     9.7487   9.8045   9.8481  10.0040  10.5669  10.7220

          k = 0.0625 0.4691 0.0000 ( 21105 PWs)   bands (ev):

   -53.4528 -53.4506 -53.3796 -53.3756 -27.7881 -27.7852 -27.7151 -27.7104
   -27.5907 -27.5875 -27.5208 -27.5181 -27.5179 -27.5125 -27.4477 -27.4432
    -5.0967  -5.0131  -4.9546  -4.9317  -4.7998  -4.7532  -4.6916  -4.6647
     1.6954   1.8043   1.8456   1.8883   2.5678   2.6920   2.7302   2.7871
     3.2899   3.4107   3.4709   3.5651   4.2197   4.2609   4.3155   4.3406
     5.3588   5.5355   5.6035   5.7492   5.9311   5.9874   6.0508   6.0840
     6.6323   6.6703   6.7205   6.7536   9.5048   9.5861   9.6296   9.6776
     9.8849   9.9534  10.0051  10.1299  10.8804  11.0139

          k = 0.0625 0.5413 0.0000 ( 21084 PWs)   bands (ev):

   -53.4498 -53.4476 -53.3766 -53.3726 -27.8157 -27.8128 -27.7427 -27.7380
   -27.5848 -27.5816 -27.5281 -27.5254 -27.5120 -27.5065 -27.4550 -27.4506
    -4.8987  -4.8310  -4.7814  -4.7556  -4.7103  -4.6831  -4.6263  -4.6044
     1.5360   1.6317   1.6652   1.7102   2.3883   2.4972   2.5369   2.5865
     3.1983   3.3214   3.3833   3.4688   4.1763   4.2077   4.2611   4.2833
     5.2526   5.4330   5.5015   5.6440   6.0141   6.0885   6.1538   6.1808
     6.7842   6.8321   6.8819   6.9191   9.6253   9.6474   9.6965   9.7188
    10.0594  10.1247  10.1784  10.2388  11.1058  11.2101

          k = 0.1250 0.2165 0.0000 ( 21179 PWs)   bands (ev):

   -53.4747 -53.4724 -53.4014 -53.3974 -27.6334 -27.6301 -27.5811 -27.5784
   -27.5606 -27.5551 -27.5080 -27.5035 -27.4708 -27.4682 -27.3977 -27.3933
    -6.2190  -6.1005  -6.0367  -5.9915  -5.3237  -5.1985  -5.1325  -5.0513
     1.9532   2.3045   2.3938   2.6495   3.6944   3.7193   3.7578   3.7959
     3.9024   4.1708   4.2637   4.4521   4.7027   4.7210   4.7791   4.8012
     5.3639   5.3853   5.4432   5.4599   6.2223   6.3556   6.4527   6.6454
     6.7391   6.8260   6.8874   6.9249   9.1972   9.3542   9.4574   9.6208
     9.7502   9.8156   9.8321   9.8602   9.9078   9.9765

          k = 0.1250 0.2887 0.0000 ( 21199 PWs)   bands (ev):

   -53.4674 -53.4651 -53.3942 -53.3901 -27.6444 -27.6416 -27.6192 -27.6160
   -27.5714 -27.5668 -27.5464 -27.5409 -27.4941 -27.4915 -27.4210 -27.4166
    -5.8864  -5.7732  -5.7097  -5.6693  -5.1653  -5.0599  -4.9944  -4.9280
     2.1113   2.4049   2.4790   2.6485   3.4287   3.4882   3.5602   3.6089
     3.6926   3.7928   3.8699   3.9424   4.2673   4.3301   4.3919   4.4909
     5.4601   5.4944   5.5497   5.5696   6.1476   6.2656   6.3432   6.4808
     6.5540   6.5708   6.6215   6.6462   9.0373   9.2228   9.3298   9.4957
     9.7539   9.7993   9.8307   9.8896   9.9855  10.1172

          k = 0.1250 0.3608 0.0000 ( 21195 PWs)   bands (ev):

   -53.4601 -53.4579 -53.3869 -53.3829 -27.7067 -27.7038 -27.6336 -27.6290
   -27.6050 -27.6018 -27.5322 -27.5267 -27.5178 -27.5151 -27.4447 -27.4403
    -5.5204  -5.4166  -5.3539  -5.3208  -4.9914  -4.9102  -4.8455  -4.7967
     2.0755   2.2696   2.3303   2.4096   3.0908   3.2100   3.2498   3.3163
     3.5017   3.5755   3.6326   3.7277   4.0673   4.1794   4.2483   4.3609
     5.3971   5.4430   5.4984   5.5189   5.9236   6.0339   6.0906   6.2010
     6.5133   6.5311   6.5961   6.6071   9.0744   9.2723   9.3826   9.5644
     9.8336   9.8740   9.9064   9.9838  10.2250  10.3746

          k = 0.1250 0.4330 0.0000 ( 21113 PWs)   bands (ev):

   -53.4540 -53.4517 -53.3807 -53.3767 -27.7588 -27.7559 -27.6858 -27.6811
   -27.5929 -27.5897 -27.5380 -27.5353 -27.5201 -27.5146 -27.4649 -27.4604
    -5.1737  -5.0841  -5.0238  -4.9992  -4.8274  -4.7728  -4.7100  -4.6786
     1.9044   2.0352   2.0857   2.1302   2.6817   2.7725   2.8005   2.8539
     3.4100   3.5372   3.5954   3.6813   4.0355   4.1465   4.2114   4.2962
     5.3342   5.4097   5.4668   5.4987   5.6517   5.7540   5.8091   5.9093
     6.6534   6.6722   6.7364   6.7497   9.2837   9.4669   9.5664   9.7324
     9.9477   9.9763  10.0229  10.0691  10.5345  10.6696

          k = 0.1250 0.5052 0.0000 ( 21081 PWs)   bands (ev):

   -53.4498 -53.4476 -53.3766 -53.3726 -27.7933 -27.7905 -27.7204 -27.7156
   -27.5848 -27.5816 -27.5515 -27.5488 -27.5120 -27.5066 -27.4784 -27.4739
    -4.9140  -4.8417  -4.7897  -4.7655  -4.7048  -4.6748  -4.6169  -4.5946
     1.7433   1.8476   1.8851   1.9286   2.3864   2.4635   2.4986   2.5437
     3.2879   3.4243   3.4850   3.5642   4.0813   4.1682   4.2246   4.2698
     5.3178   5.4262   5.4618   5.5144   5.5353   5.5661   5.5909   5.7000
     6.8372   6.8715   6.9293   6.9554   9.5096   9.6083   9.6635   9.7312
    10.0945  10.1496  10.1989  10.2701  10.8022  10.9153

          k = 0.1250 0.5774 0.0000 ( 21108 PWs)   bands (ev):

   -53.4484 -53.4461 -53.3751 -53.3711 -27.8054 -27.8026 -27.7324 -27.7277
   -27.5820 -27.5788 -27.5562 -27.5535 -27.5092 -27.5037 -27.4831 -27.4787
    -4.8139  -4.7518  -4.7082  -4.6781  -4.6581  -4.6395  -4.5847  -4.5628
     1.6794   1.7770   1.8087   1.8553   2.2809   2.3546   2.3925   2.4351
     3.2282   3.3636   3.4252   3.5041   4.1283   4.1847   4.2301   4.2655
     5.2645   5.4126   5.4349   5.4888   5.4978   5.5556   5.5685   5.6452
     6.9278   6.9719   7.0286   7.0615   9.5939   9.6150   9.6619   9.6882
    10.2025  10.2725  10.3258  10.3644  10.9029  11.0411

          k = 0.1875 0.3248 0.0000 ( 21195 PWs)   bands (ev):

   -53.4607 -53.4585 -53.3875 -53.3835 -27.6931 -27.6903 -27.6201 -27.6154
   -27.6062 -27.6029 -27.5334 -27.5279 -27.5246 -27.5219 -27.4515 -27.4470
    -5.5540  -5.4489  -5.3860  -5.3520  -5.0054  -4.9214  -4.8566  -4.8057
     2.1387   2.3521   2.4152   2.5085   3.2253   3.3032   3.3484   3.4060
     3.5457   3.6000   3.6715   3.7217   3.9257   4.0563   4.1384   4.3063
     5.2223   5.2691   5.3232   5.3455   6.0855   6.1803   6.2213   6.3106
     6.5165   6.5412   6.6086   6.6184   8.9853   9.1997   9.3233   9.5409
     9.8542   9.8871   9.9209   9.9669  10.0809  10.2186

          k = 0.1875 0.3969 0.0000 ( 21153 PWs)   bands (ev):

   -53.4546 -53.4523 -53.3813 -53.3773 -27.7350 -27.7322 -27.6620 -27.6573
   -27.5941 -27.5909 -27.5554 -27.5527 -27.5213 -27.5158 -27.4823 -27.4778
    -5.2159  -5.1231  -5.0621  -5.0361  -4.8413  -4.7821  -4.7188  -4.6845
     2.0615   2.2157   2.2731   2.3268   2.7856   2.8337   2.8463   2.9062
     3.5279   3.6535   3.7211   3.7723   3.9276   4.0427   4.1245   4.2780
     4.9018   4.9596   5.0194   5.0417   5.8507   5.9305   5.9731   6.0290
     6.6211   6.6468   6.7147   6.7320   9.1396   9.3690   9.5004   9.7733
     9.9773   9.9903  10.0451  10.0646  10.2628  10.3961

          k = 0.1875 0.4691 0.0000 ( 21101 PWs)   bands (ev):

   -53.4498 -53.4476 -53.3766 -53.3726 -27.7655 -27.7626 -27.6925 -27.6878
   -27.5849 -27.5816 -27.5803 -27.5776 -27.5120 -27.5073 -27.5066 -27.5028
    -4.9286  -4.8523  -4.7982  -4.7750  -4.6997  -4.6666  -4.6076  -4.5845
     1.9769   2.1017   2.1505   2.1904   2.3900   2.4315   2.4624   2.5060
     3.4465   3.6005   3.6570   3.7030   3.9842   4.1157   4.1856   4.2903
     4.7071   4.8085   4.8728   4.9285   5.5567   5.6355   5.6957   5.7396
     6.8250   6.8432   6.9123   6.9238   9.3622   9.5216   9.6018   9.7334
    10.1360  10.1847  10.2305  10.3040  10.4752  10.5630

          k = 0.1875 0.5413 0.0000 ( 21112 PWs)   bands (ev):

   -53.4473 -53.4450 -53.3740 -53.3700 -27.7815 -27.7786 -27.7085 -27.7038
   -27.5943 -27.5916 -27.5799 -27.5766 -27.5212 -27.5167 -27.5070 -27.5016
    -4.7561  -4.6961  -4.6572  -4.6241  -4.6125  -4.6007  -4.5472  -4.5251
     1.9336   2.0462   2.0807   2.1276   2.1762   2.2137   2.2571   2.2907
     3.3092   3.4576   3.5189   3.5840   4.1059   4.2079   4.2608   4.3128
     4.6567   4.7895   4.8541   4.9181   5.3602   5.4285   5.4857   5.5409
     7.0063   7.0366   7.0991   7.1224   9.4421   9.4875   9.5365   9.5719
    10.3140  10.4112  10.4649  10.5422  10.5945  10.6537

          k = 0.2500 0.4330 0.0000 ( 21125 PWs)   bands (ev):

   -53.4498 -53.4476 -53.3766 -53.3726 -27.7510 -27.7481 -27.6780 -27.6733
   -27.5953 -27.5925 -27.5849 -27.5816 -27.5222 -27.5177 -27.5121 -27.5066
    -4.9345  -4.8567  -4.8017  -4.7789  -4.6976  -4.6632  -4.6038  -4.5803
     2.0829   2.2219   2.2779   2.3131   2.3964   2.4192   2.4514   2.4913
     3.6033   3.7112   3.7874   3.8252   3.9949   4.1007   4.1791   4.3220
     4.4153   4.4485   4.5072   4.5217   5.6162   5.6788   5.7576   5.7627
     6.8091   6.8254   6.8970   6.9071   9.3003   9.4799   9.5698   9.7253
    10.1472  10.1892  10.2366  10.3105  10.3509  10.4342

          k = 0.2500 0.5052 0.0000 ( 21117 PWs)   bands (ev):

   -53.4467 -53.4444 -53.3734 -53.3694 -27.7557 -27.7529 -27.6827 -27.6780
   -27.6278 -27.6251 -27.5787 -27.5755 -27.5548 -27.5502 -27.5059 -27.5004
    -4.7280  -4.6680  -4.6313  -4.5968  -4.5862  -4.5773  -4.5247  -4.5025
     2.0660   2.1241   2.1339   2.1979   2.2343   2.3134   2.3614   2.4017
     3.4726   3.6242   3.6724   3.6960   4.0205   4.1202   4.1820   4.2288
     4.2448   4.2932   4.3500   4.4267   5.3487   5.4070   5.4845   5.5119
     7.0505   7.0646   7.1354   7.1437   9.3073   9.3723   9.4231   9.4730
    10.2822  10.3289  10.4116  10.4234  10.5556  10.5918

          k = 0.2500 0.5774 0.0000 ( 21116 PWs)   bands (ev):

   -53.4456 -53.4433 -53.3723 -53.3683 -27.7556 -27.7527 -27.6826 -27.6779
   -27.6411 -27.6383 -27.5765 -27.5733 -27.5680 -27.5635 -27.5037 -27.4982
    -4.6479  -4.5991  -4.5769  -4.5514  -4.5474  -4.5247  -4.4924  -4.4734
     1.9760   2.0218   2.0379   2.0946   2.3096   2.3807   2.4077   2.4575
     3.3281   3.4641   3.5244   3.5670   3.9649   4.1346   4.1782   4.2262
     4.3083   4.3561   4.4066   4.4472   5.2394   5.2718   5.3512   5.3767
     7.1750   7.1955   7.2622   7.2775   9.2452   9.2589   9.3170   9.3329
    10.2991  10.3651  10.4142  10.4592  10.7266  10.7428

          k = 0.3125 0.5413 0.0000 ( 21100 PWs)   bands (ev):

   -53.4450 -53.4427 -53.3717 -53.3677 -27.7345 -27.7316 -27.6695 -27.6668
   -27.6615 -27.6568 -27.5965 -27.5919 -27.5753 -27.5721 -27.5025 -27.4971
    -4.6085  -4.5650  -4.5503  -4.5301  -4.5284  -4.4909  -4.4698  -4.4545
     1.9134   1.9512   1.9743   2.0242   2.5206   2.6175   2.6560   2.6972
     3.3305   3.3718   3.4036   3.4699   3.8137   3.8718   3.8872   3.9332
     4.3470   4.4088   4.4673   4.5009   5.1457   5.1923   5.2756   5.3144
     7.2596   7.2715   7.3438   7.3490   9.1295   9.1435   9.2023   9.2179
    10.2453  10.2694  10.3235  10.3765  10.8168  10.8537

     the Fermi energy is     8.3931 ev

!    total energy              =   -1978.36773652 Ry
     total all-electron energy =    -38771.688581 Ry
     estimated scf accuracy    <          1.1E-09 Ry
     smearing contrib. (-TS)   =       0.00006220 Ry
     internal energy E=F+TS    =   -1978.36779871 Ry

     The total energy is F=E-TS. E is the sum of the following terms:
     one-electron contribution =   -1434.53752966 Ry
     hartree contribution      =     759.53148711 Ry
     xc contribution           =    -119.23273203 Ry
     ewald contribution        =      85.72218691 Ry
     one-center paw contrib.   =   -1269.85121105 Ry

     convergence has been achieved in  19 iterations

     Forces acting on atoms (cartesian axes, Ry/au):

     atom    1 type  2   force =     0.00000000   -0.00000000    0.00109917
     atom    2 type  1   force =     0.00000000    0.00000000    0.00138148
     atom    3 type  2   force =     0.00000000    0.00000000    0.00101997
     atom    4 type  2   force =     0.00000000   -0.00000000   -0.00073106
     atom    5 type  1   force =     0.00000000    0.00000000   -0.00336485
     atom    6 type  2   force =     0.00000000    0.00000000   -0.00314105
     atom    7 type  2   force =     0.00000000    0.00000000    0.00404427
     atom    8 type  1   force =     0.00000000    0.00000000    0.00178089
     atom    9 type  2   force =     0.00000000    0.00000000    0.00150228
     atom   10 type  2   force =     0.00000000    0.00000000   -0.00093706
     atom   11 type  1   force =     0.00000000    0.00000000   -0.00152780
     atom   12 type  2   force =     0.00000000   -0.00000000   -0.00112624

     Total force =     0.007221     Total SCF correction =     0.000111
     Energy error            =      2.1E-04 Ry
     Gradient error          =      4.0E-03 Ry/Bohr

     number of scf cycles    =   5
     number of bfgs steps    =   4

     energy             old  =   -1978.3675282319 Ry
     energy             new  =   -1978.3677365162 Ry

     CASE: energy            _new < energy            _old


     WARNING: bfgs curvature condition failed, Theta= 0.893
     new trust radius        =       0.0210188124 bohr
     new conv_thr            =       0.0000000021 Ry


ATOMIC_POSITIONS (crystal)
S                0.3333330000        0.6666670000       -0.1160621586
Mo               0.0000000000        0.0000000000       -0.0636212508
S                0.3333330000        0.6666670000       -0.0111040321
S                0.6666670000        0.3333330000        0.1062686427
Mo               0.3333330000        0.6666670000        0.1588362696
S                0.6666670000        0.3333330000        0.2112256321
S                0.0000000000        0.0000000000        0.3068041852
Mo               0.6666670000        0.3333330000        0.3592962241
S                0.0000000000        0.0000000000        0.4117829689
S                0.3333330000        0.6666670000        0.5313624754
Mo               0.0000000000        0.0000000000        0.5838873556
S                0.3333330000        0.6666670000        0.6363236878



     Writing config-only to output data dir ./tmp/relax2/mos2_slab2.save/ :
     XML data file
     NEW-OLD atomic charge density approx. for the potential

     total cpu time spent up to now is    14488.9 secs

     Self-consistent Calculation

     iteration #  1     ecut=    80.00 Ry     beta= 0.20
     Davidson diagonalization with overlap
     ethr =  1.00E-06,  avg # of iterations =  6.0

     total cpu time spent up to now is    14734.4 secs

     total energy              =   -1978.36810615 Ry
     estimated scf accuracy    <       0.00011722 Ry

     iteration #  2     ecut=    80.00 Ry     beta= 0.20
     Davidson diagonalization with overlap
     ethr =  1.13E-07,  avg # of iterations =  2.7

     total cpu time spent up to now is    14845.9 secs

     total energy              =   -1978.36808199 Ry
     estimated scf accuracy    <       0.00009897 Ry

     iteration #  3     ecut=    80.00 Ry     beta= 0.20
     Davidson diagonalization with overlap
     ethr =  9.52E-08,  avg # of iterations =  2.0

     total cpu time spent up to now is    14956.2 secs

     total energy              =   -1978.36808697 Ry
     estimated scf accuracy    <       0.00001384 Ry

     iteration #  4     ecut=    80.00 Ry     beta= 0.20
     Davidson diagonalization with overlap
     ethr =  1.33E-08,  avg # of iterations =  4.1

     total cpu time spent up to now is    15074.5 secs

     total energy              =   -1978.36808803 Ry
     estimated scf accuracy    <       0.00000245 Ry

     iteration #  5     ecut=    80.00 Ry     beta= 0.20
     Davidson diagonalization with overlap
     ethr =  2.35E-09,  avg # of iterations =  2.3

     total cpu time spent up to now is    15185.4 secs

     total energy              =   -1978.36808776 Ry
     estimated scf accuracy    <       0.00000228 Ry

     iteration #  6     ecut=    80.00 Ry     beta= 0.20
     Davidson diagonalization with overlap
     ethr =  2.19E-09,  avg # of iterations =  2.0

     total cpu time spent up to now is    15307.1 secs

     total energy              =   -1978.36808779 Ry
     estimated scf accuracy    <       0.00000062 Ry

     iteration #  7     ecut=    80.00 Ry     beta= 0.20
     Davidson diagonalization with overlap
     ethr =  5.93E-10,  avg # of iterations =  2.9

     total cpu time spent up to now is    15416.8 secs

     total energy              =   -1978.36808780 Ry
     estimated scf accuracy    <       0.00000025 Ry

     iteration #  8     ecut=    80.00 Ry     beta= 0.20
     Davidson diagonalization with overlap
     ethr =  2.40E-10,  avg # of iterations =  2.7

     total cpu time spent up to now is    15528.4 secs

     total energy              =   -1978.36808779 Ry
     estimated scf accuracy    <       0.00000015 Ry

     iteration #  9     ecut=    80.00 Ry     beta= 0.20
     Davidson diagonalization with overlap
     ethr =  1.41E-10,  avg # of iterations =  3.4

     total cpu time spent up to now is    15646.4 secs

     total energy              =   -1978.36808780 Ry
     estimated scf accuracy    <       0.00000005 Ry

     iteration # 10     ecut=    80.00 Ry     beta= 0.20
     Davidson diagonalization with overlap
     ethr =  4.46E-11,  avg # of iterations =  2.1

     total cpu time spent up to now is    15757.0 secs

     total energy              =   -1978.36808779 Ry
     estimated scf accuracy    <       0.00000005 Ry

     iteration # 11     ecut=    80.00 Ry     beta= 0.20
     Davidson diagonalization with overlap
     ethr =  4.34E-11,  avg # of iterations =  2.0

     total cpu time spent up to now is    15867.4 secs

     total energy              =   -1978.36808778 Ry
     estimated scf accuracy    <       0.00000002 Ry

     iteration # 12     ecut=    80.00 Ry     beta= 0.20
     Davidson diagonalization with overlap
     ethr =  2.19E-11,  avg # of iterations =  1.9

     total cpu time spent up to now is    15976.2 secs

     total energy              =   -1978.36808778 Ry
     estimated scf accuracy    <       0.00000002 Ry

     iteration # 13     ecut=    80.00 Ry     beta= 0.20
     Davidson diagonalization with overlap
     ethr =  1.52E-11,  avg # of iterations =  3.6

     total cpu time spent up to now is    16095.8 secs

     total energy              =   -1978.36808778 Ry
     estimated scf accuracy    <       0.00000002 Ry

     iteration # 14     ecut=    80.00 Ry     beta= 0.20
     Davidson diagonalization with overlap
     ethr =  1.52E-11,  avg # of iterations =  2.0

     total cpu time spent up to now is    16206.0 secs

     total energy              =   -1978.36808778 Ry
     estimated scf accuracy    <          9.8E-09 Ry

     iteration # 15     ecut=    80.00 Ry     beta= 0.20
     Davidson diagonalization with overlap
     ethr =  9.43E-12,  avg # of iterations =  2.7

     total cpu time spent up to now is    16322.8 secs

     total energy              =   -1978.36808778 Ry
     estimated scf accuracy    <          2.2E-09 Ry

     iteration # 16     ecut=    80.00 Ry     beta= 0.20
     Davidson diagonalization with overlap
     ethr =  2.11E-12,  avg # of iterations =  2.2

     total cpu time spent up to now is    16437.3 secs

     End of self-consistent calculation

          k = 0.0000 0.0000 0.0000 ( 21311 PWs)   bands (ev):

   -53.4896 -53.4882 -53.4194 -53.4143 -27.6638 -27.6614 -27.5940 -27.5875
   -27.4260 -27.4260 -27.4245 -27.4245 -27.3560 -27.3560 -27.3507 -27.3507
    -6.8733  -6.7574  -6.6949  -6.6439  -5.6335  -5.4772  -5.4119  -5.3061
     1.3157   1.6710   1.7738   2.0663   4.7580   4.7873   4.7873   4.7961
     4.7961   4.8557   4.8557   4.8693   4.8693   5.3157   5.5968   5.8988
     5.8988   5.9120   5.9120   5.9708   5.9709   5.9854   5.9854   6.2619
     6.9643   7.3418   7.4957   7.9416  10.1108  10.1108  10.1574  10.1574
    10.2042  10.2042  10.2307  10.2308  10.3377  10.3378

          k = 0.0000 0.0722 0.0000 ( 21283 PWs)   bands (ev):

   -53.4880 -53.4866 -53.4179 -53.4128 -27.6607 -27.6584 -27.5909 -27.5844
   -27.4416 -27.4400 -27.4296 -27.4280 -27.3715 -27.3663 -27.3595 -27.3543
    -6.8138  -6.6980  -6.6356  -6.5848  -5.6052  -5.4520  -5.3868  -5.2832
     1.3841   1.7396   1.8421   2.1340   4.6240   4.6515   4.6618   4.7203
     4.7347   4.8492   4.8585   4.9180   4.9317   5.0999   5.2924   5.5901
     5.8011   5.8155   5.8746   5.8890   5.9964   6.0752   6.1597   6.4880
     6.9683   7.3219   7.4602   7.8491  10.0485  10.0690  10.1203  10.1429
    10.1778  10.1835  10.2114  10.2473  10.2586  10.2712

          k = 0.0000 0.1443 0.0000 ( 21263 PWs)   bands (ev):

   -53.4836 -53.4822 -53.4135 -53.4083 -27.6521 -27.6497 -27.5823 -27.5758
   -27.4856 -27.4841 -27.4396 -27.4381 -27.4156 -27.4103 -27.3696 -27.3643
    -6.6399  -6.5250  -6.4627  -6.4128  -5.5228  -5.3785  -5.3135  -5.2166
     1.5742   1.9291   2.0304   2.3183   4.2944   4.3065   4.3247   4.3731
     4.3892   4.6932   4.8272   5.0271   5.0384   5.0785   5.0972   5.1117
     5.5489   5.5657   5.6253   5.6394   6.0521   6.1940   6.3155   6.6323
     6.9432   7.2140   7.3163   7.5592   9.7495   9.8212   9.8802   9.9248
     9.9818  10.0001  10.0437  10.0738  10.1222  10.1392

          k = 0.0000 0.2165 0.0000 ( 21233 PWs)   bands (ev):

   -53.4770 -53.4755 -53.4068 -53.4017 -27.6391 -27.6367 -27.5693 -27.5628
   -27.5510 -27.5494 -27.4810 -27.4756 -27.4546 -27.4530 -27.3846 -27.3793
    -6.3665  -6.2538  -6.1916  -6.1439  -5.3933  -5.2636  -5.1990  -5.1130
     1.8316   2.1774   2.2734   2.5427   3.8547   3.8790   3.9121   3.9506
     3.9946   4.2400   4.3386   4.5346   5.2155   5.2412   5.2860   5.3117
     5.3139   5.3203   5.3763   5.3880   5.9610   6.1399   6.2667   6.5454
     6.8042   6.9526   7.0195   7.1199   9.3671   9.5026   9.6251   9.8254
     9.8313   9.9056   9.9567   9.9682  10.0076  10.0783

          k = 0.0000 0.2887 0.0000 ( 21197 PWs)   bands (ev):

   -53.4691 -53.4677 -53.3990 -53.3938 -27.6273 -27.6256 -27.6238 -27.6214
   -27.5573 -27.5539 -27.5519 -27.5475 -27.4722 -27.4706 -27.4022 -27.3969
    -6.0188  -5.9107  -5.8487  -5.8053  -5.2294  -5.1194  -5.0555  -4.9842
     2.0314   2.3289   2.4086   2.6020   3.4423   3.5121   3.5786   3.6095
     3.6855   3.7850   3.8675   4.0014   4.8903   4.9143   4.9739   4.9888
     5.6210   5.6421   5.7023   5.7167   5.7420   5.9443   6.0581   6.2986
     6.5334   6.6019   6.6552   6.7013   9.2307   9.4123   9.5589   9.6402
     9.7145   9.7772   9.8160   9.8340  10.1697  10.3356

          k = 0.0000 0.3608 0.0000 ( 21187 PWs)   bands (ev):

   -53.4612 -53.4598 -53.3911 -53.3860 -27.7026 -27.7010 -27.6327 -27.6272
   -27.6084 -27.6060 -27.5386 -27.5321 -27.4898 -27.4882 -27.4197 -27.4144
    -5.6346  -5.5351  -5.4737  -5.4372  -5.0503  -4.9644  -4.9012  -4.8476
     2.0040   2.1956   2.2560   2.3423   3.0613   3.2247   3.2835   3.3816
     3.4482   3.5219   3.5815   3.6944   4.6014   4.6269   4.6869   4.7018
     5.5046   5.7161   5.8110   5.9345   5.9689   6.0219   6.0303   6.0471
     6.3160   6.3752   6.4298   6.4726   9.3488   9.5313   9.5421   9.6006
     9.6630   9.6631   9.6945   9.9236  10.4966  10.6676

          k = 0.0000 0.4330 0.0000 ( 21140 PWs)   bands (ev):

   -53.4546 -53.4532 -53.3844 -53.3793 -27.7659 -27.7642 -27.6959 -27.6904
   -27.5953 -27.5930 -27.5255 -27.5191 -27.5046 -27.5030 -27.4346 -27.4292
    -5.2685  -5.1824  -5.1225  -5.0951  -4.8824  -4.8227  -4.7612  -4.7258
     1.7810   1.8989   1.9461   1.9912   2.7217   2.8698   2.9116   2.9849
     3.3288   3.4381   3.4960   3.6011   4.3802   4.4069   4.4671   4.4820
     5.3281   5.5369   5.6189   5.8061   6.1824   6.2341   6.2967   6.3199
     6.3339   6.4135   6.4656   6.5280   9.5438   9.5805   9.6133   9.6425
     9.6636   9.7646   9.8602  10.0572  10.8055  10.9593

          k = 0.0000 0.5052 0.0000 ( 21078 PWs)   bands (ev):

   -53.4501 -53.4487 -53.3799 -53.3748 -27.8078 -27.8060 -27.7378 -27.7323
   -27.5865 -27.5842 -27.5167 -27.5145 -27.5129 -27.5103 -27.4444 -27.4391
    -4.9924  -4.9231  -4.8684  -4.8457  -4.7580  -4.7222  -4.6644  -4.6406
     1.5552   1.6473   1.6840   1.7267   2.4831   2.6068   2.6469   2.7042
     3.2213   3.3360   3.3963   3.4862   4.2422   4.2696   4.3299   4.3449
     5.2316   5.4336   5.5086   5.6751   6.3314   6.3982   6.4615   6.4925
     6.5219   6.6038   6.6540   6.7139   9.5994   9.6183   9.6804   9.6942
     9.9080  10.0113  10.0704  10.1850  11.0014  11.1322

          k = 0.0000-0.5774 0.0000 ( 21006 PWs)   bands (ev):

   -53.4485 -53.4471 -53.3784 -53.3733 -27.8224 -27.8207 -27.7525 -27.7469
   -27.5835 -27.5812 -27.5179 -27.5163 -27.5137 -27.5072 -27.4479 -27.4426
    -4.8860  -4.8263  -4.7773  -4.7520  -4.7114  -4.6860  -4.6311  -4.6089
     1.4630   1.5507   1.5847   1.6281   2.3970   2.5119   2.5522   2.6051
     3.1726   3.2872   3.3483   3.4335   4.1954   4.2230   4.2833   4.2984
     5.2025   5.4007   5.4734   5.6310   6.3796   6.4523   6.5157   6.5502
     6.6393   6.7070   6.7514   6.7996   9.6307   9.6434   9.7061   9.7176
    10.0655  10.1248  10.1825  10.2214  11.0647  11.1815

          k = 0.0625 0.1083 0.0000 ( 21269 PWs)   bands (ev):

   -53.4850 -53.4836 -53.4149 -53.4098 -27.6549 -27.6525 -27.5851 -27.5786
   -27.4709 -27.4694 -27.4368 -27.4353 -27.4009 -27.3956 -27.3668 -27.3615
    -6.6971  -6.5818  -6.5194  -6.4693  -5.5498  -5.4026  -5.3376  -5.2384
     1.5138   1.8692   1.9711   2.2608   4.4044   4.4139   4.4278   4.4801
     4.4963   4.8198   4.9665   4.9702   4.9777   5.0367   5.0508   5.2434
     5.5861   5.6003   5.6596   5.6739   6.0905   6.2120   6.3234   6.6371
     6.9592   7.2594   7.3713   7.6578   9.8737   9.9075   9.9355   9.9645
    10.0026  10.0113  10.0571  10.1165  10.1352  10.1697

          k = 0.0625 0.1804 0.0000 ( 21194 PWs)   bands (ev):

   -53.4795 -53.4781 -53.4094 -53.4042 -27.6441 -27.6417 -27.5743 -27.5678
   -27.5244 -27.5228 -27.4544 -27.4505 -27.4491 -27.4490 -27.3805 -27.3752
    -6.4733  -6.3596  -6.2973  -6.2487  -5.4437  -5.3082  -5.2435  -5.1531
     1.7416   2.0935   2.1924   2.4730   4.0209   4.0375   4.0779   4.1073
     4.1381   4.4426   4.5566   4.7864   5.1780   5.1942   5.2151   5.2347
     5.2583   5.2670   5.2993   5.3088   6.1392   6.2855   6.4022   6.6719
     6.8804   7.0737   7.1506   7.2898   9.4773   9.5865   9.6785   9.8123
     9.8489   9.9168   9.9418   9.9793   9.9923  10.0423

          k = 0.0625 0.2526 0.0000 ( 21202 PWs)   bands (ev):

   -53.4723 -53.4708 -53.4021 -53.3970 -27.6299 -27.6276 -27.5936 -27.5920
   -27.5601 -27.5536 -27.5236 -27.5182 -27.4685 -27.4669 -27.3984 -27.3931
    -6.1621  -6.0518  -5.9896  -5.9442  -5.2964  -5.1780  -5.1138  -5.0362
     1.9830   2.3114   2.4001   2.6385   3.6235   3.6562   3.6974   3.7349
     3.8158   4.0171   4.1035   4.2628   4.8399   4.8642   4.9174   4.9416
     5.4471   5.4659   5.5248   5.5398   6.0347   6.1905   6.2969   6.5150
     6.6735   6.7580   6.8126   6.8589   9.2095   9.3746   9.4942   9.6553
     9.7705   9.8149   9.8648   9.8823   9.9749  10.1042

          k = 0.0625 0.3248 0.0000 ( 21194 PWs)   bands (ev):

   -53.4644 -53.4630 -53.3942 -53.3891 -27.6676 -27.6659 -27.6145 -27.6122
   -27.5976 -27.5922 -27.5447 -27.5383 -27.4878 -27.4863 -27.4178 -27.4125
    -5.7946  -5.6909  -5.6291  -5.5893  -5.1235  -5.0270  -4.9635  -4.9021
     2.0770   2.3212   2.3895   2.5204   3.2627   3.3823   3.4667   3.5190
     3.5898   3.5976   3.6894   3.7811   4.5315   4.5732   4.6264   4.6606
     5.6738   5.7066   5.7526   5.7797   5.8267   5.9728   6.0628   6.2459
     6.4478   6.4880   6.5423   6.5703   9.1724   9.3502   9.4505   9.5689
     9.7040   9.7586   9.7919   9.9165  10.2288  10.3902

          k = 0.0625 0.3969 0.0000 ( 21151 PWs)   bands (ev):

   -53.4571 -53.4557 -53.3870 -53.3818 -27.7353 -27.7336 -27.6653 -27.6598
   -27.6003 -27.5980 -27.5305 -27.5241 -27.5057 -27.5041 -27.4356 -27.4303
    -5.4163  -5.3236  -5.2628  -5.2313  -4.9476  -4.8764  -4.8140  -4.7709
     1.9340   2.0818   2.1359   2.1935   2.8898   3.0369   3.0788   3.1552
     3.4044   3.5032   3.5592   3.6697   4.3308   4.3775   4.4318   4.4640
     5.5535   5.7229   5.7842   5.8283   5.8507   5.8979   5.9266   6.0024
     6.4610   6.4916   6.5431   6.5688   9.3082   9.4531   9.5182   9.6003
     9.7488   9.8041   9.8479  10.0025  10.5665  10.7213

          k = 0.0625 0.4691 0.0000 ( 21105 PWs)   bands (ev):

   -53.4515 -53.4501 -53.3814 -53.3763 -27.7866 -27.7848 -27.7166 -27.7111
   -27.5894 -27.5871 -27.5196 -27.5193 -27.5177 -27.5132 -27.4492 -27.4439
    -5.0899  -5.0130  -4.9553  -4.9318  -4.7980  -4.7526  -4.6929  -4.6654
     1.7021   1.8044   1.8460   1.8882   2.5736   2.6919   2.7300   2.7870
     3.2932   3.4107   3.4697   3.5634   4.2228   4.2614   4.3151   4.3403
     5.3609   5.5344   5.6031   5.7467   5.9353   5.9878   6.0495   6.0832
     6.6335   6.6712   6.7196   6.7529   9.5057   9.5863   9.6290   9.6773
     9.8854   9.9531  10.0048  10.1284  10.8802  11.0134

          k = 0.0625 0.5413 0.0000 ( 21084 PWs)   bands (ev):

   -53.4485 -53.4471 -53.3784 -53.3733 -27.8142 -27.8124 -27.7442 -27.7387
   -27.5835 -27.5812 -27.5266 -27.5250 -27.5137 -27.5072 -27.4566 -27.4513
    -4.8924  -4.8308  -4.7808  -4.7561  -4.7090  -4.6825  -4.6272  -4.6049
     1.5425   1.6318   1.6662   1.7097   2.3940   2.4972   2.5364   2.5862
     3.2022   3.3215   3.3820   3.4671   4.1801   4.2079   4.2611   4.2826
     5.2549   5.4322   5.5008   5.6410   6.0191   6.0888   6.1522   6.1798
     6.7855   6.8328   6.8809   6.9184   9.6266   9.6481   9.6957   9.7180
    10.0604  10.1251  10.1772  10.2375  11.1060  11.2098

          k = 0.1250 0.2165 0.0000 ( 21179 PWs)   bands (ev):

   -53.4734 -53.4719 -53.4032 -53.3981 -27.6321 -27.6297 -27.5796 -27.5780
   -27.5623 -27.5558 -27.5096 -27.5042 -27.4693 -27.4678 -27.3993 -27.3940
    -6.2113  -6.1003  -6.0381  -5.9921  -5.3193  -5.1981  -5.1338  -5.0540
     1.9636   2.3018   2.3937   2.6475   3.6979   3.7196   3.7593   3.7951
     3.9039   4.1700   4.2649   4.4496   4.7044   4.7221   4.7784   4.8006
     5.3675   5.3855   5.4434   5.4592   6.2224   6.3539   6.4529   6.6455
     6.7389   6.8276   6.8873   6.9241   9.1968   9.3532   9.4589   9.6200
     9.7522   9.8146   9.8324   9.8591   9.9070   9.9799

          k = 0.1250 0.2887 0.0000 ( 21199 PWs)   bands (ev):

   -53.4661 -53.4647 -53.3959 -53.3908 -27.6429 -27.6412 -27.6179 -27.6155
   -27.5729 -27.5675 -27.5481 -27.5416 -27.4926 -27.4911 -27.4226 -27.4173
    -5.8788  -5.7731  -5.7112  -5.6698  -5.1614  -5.0595  -4.9957  -4.9302
     2.1218   2.4032   2.4782   2.6478   3.4331   3.4899   3.5596   3.6092
     3.6922   3.7944   3.8704   3.9407   4.2683   4.3308   4.3913   4.4888
     5.4640   5.4946   5.5497   5.5689   6.1479   6.2643   6.3436   6.4808
     6.5552   6.5720   6.6208   6.6454   9.0369   9.2213   9.3312   9.4947
     9.7551   9.7985   9.8301   9.8900   9.9847  10.1197

          k = 0.1250 0.3608 0.0000 ( 21195 PWs)   bands (ev):

   -53.4588 -53.4574 -53.3887 -53.3836 -27.7051 -27.7034 -27.6352 -27.6297
   -27.6037 -27.6013 -27.5339 -27.5274 -27.5163 -27.5147 -27.4463 -27.4410
    -5.5131  -5.4164  -5.3552  -5.3210  -4.9884  -4.9097  -4.8468  -4.7983
     2.0844   2.2691   2.3291   2.4100   3.0960   3.2109   3.2509   3.3164
     3.5019   3.5757   3.6320   3.7275   4.0685   4.1799   4.2480   4.3584
     5.4011   5.4433   5.4979   5.5183   5.9246   6.0330   6.0907   6.2001
     6.5158   6.5314   6.5949   6.6063   9.0742   9.2705   9.3838   9.5634
     9.8343   9.8738   9.9058   9.9839  10.2244  10.3751

          k = 0.1250 0.4330 0.0000 ( 21113 PWs)   bands (ev):

   -53.4527 -53.4513 -53.3825 -53.3774 -27.7572 -27.7555 -27.6873 -27.6818
   -27.5916 -27.5893 -27.5365 -27.5349 -27.5218 -27.5153 -27.4665 -27.4611
    -5.1667  -5.0839  -5.0248  -4.9992  -4.8253  -4.7722  -4.7113  -4.6794
     1.9118   2.0352   2.0852   2.1306   2.6864   2.7727   2.8014   2.8535
     3.4139   3.5369   3.5942   3.6810   4.0372   4.1470   4.2108   4.2948
     5.3387   5.4100   5.4658   5.4985   5.6525   5.7536   5.8083   5.9074
     6.6554   6.6728   6.7352   6.7489   9.2840   9.4653   9.5672   9.7317
     9.9485   9.9768  10.0219  10.0681  10.5347  10.6690

          k = 0.1250 0.5052 0.0000 ( 21081 PWs)   bands (ev):

   -53.4485 -53.4471 -53.3784 -53.3733 -27.7918 -27.7901 -27.7219 -27.7163
   -27.5835 -27.5812 -27.5500 -27.5484 -27.5137 -27.5073 -27.4800 -27.4746
    -4.9075  -4.8416  -4.7894  -4.7659  -4.7036  -4.6742  -4.6179  -4.5951
     1.7502   1.8476   1.8858   1.9283   2.3910   2.4636   2.4989   2.5432
     3.2926   3.4242   3.4836   3.5633   4.0839   4.1686   4.2237   4.2697
     5.3235   5.4284   5.4621   5.5132   5.5350   5.5635   5.5900   5.6973
     6.8388   6.8723   6.9281   6.9546   9.5103   9.6082   9.6631   9.7308
    10.0955  10.1500  10.1978  10.2690  10.8047  10.9150

          k = 0.1250 0.5774 0.0000 ( 21108 PWs)   bands (ev):

   -53.4471 -53.4457 -53.3769 -53.3718 -27.8039 -27.8021 -27.7339 -27.7284
   -27.5806 -27.5783 -27.5547 -27.5531 -27.5108 -27.5044 -27.4847 -27.4794
    -4.8078  -4.7517  -4.7071  -4.6788  -4.6572  -4.6389  -4.5855  -4.5634
     1.6862   1.7770   1.8097   1.8548   2.2856   2.3547   2.3925   2.4345
     3.2330   3.3636   3.4238   3.5030   4.1314   4.1851   4.2299   4.2651
     5.2691   5.4159   5.4346   5.4891   5.4965   5.5542   5.5662   5.6423
     6.9294   6.9726   7.0274   7.0607   9.5950   9.6156   9.6611   9.6875
    10.2036  10.2730  10.3244  10.3634  10.9075  11.0409

          k = 0.1875 0.3248 0.0000 ( 21195 PWs)   bands (ev):

   -53.4594 -53.4580 -53.3893 -53.3842 -27.6916 -27.6899 -27.6216 -27.6161
   -27.6048 -27.6025 -27.5350 -27.5286 -27.5231 -27.5215 -27.4530 -27.4477
    -5.5466  -5.4487  -5.3874  -5.3522  -5.0023  -4.9209  -4.8579  -4.8074
     2.1480   2.3514   2.4140   2.5087   3.2300   3.3061   3.3494   3.4050
     3.5465   3.6005   3.6703   3.7228   3.9256   4.0571   4.1390   4.3012
     5.2263   5.2693   5.3227   5.3449   6.0869   6.1794   6.2216   6.3100
     6.5190   6.5415   6.6071   6.6176   8.9850   9.1977   9.3247   9.5397
     9.8553   9.8868   9.9208   9.9670  10.0801  10.2205

          k = 0.1875 0.3969 0.0000 ( 21153 PWs)   bands (ev):

   -53.4533 -53.4519 -53.3831 -53.3780 -27.7335 -27.7318 -27.6635 -27.6580
   -27.5928 -27.5905 -27.5539 -27.5523 -27.5230 -27.5165 -27.4839 -27.4785
    -5.2088  -5.1229  -5.0632  -5.0361  -4.8390  -4.7815  -4.7201  -4.6854
     2.0695   2.2155   2.2720   2.3273   2.7892   2.8339   2.8486   2.9052
     3.5342   3.6533   3.7196   3.7732   3.9272   4.0437   4.1251   4.2732
     4.9058   4.9599   5.0182   5.0412   5.8535   5.9308   5.9712   6.0275
     6.6235   6.6474   6.7134   6.7309   9.1398   9.3668   9.5017   9.7719
     9.9790   9.9907  10.0444  10.0639  10.2624  10.3964

          k = 0.1875 0.4691 0.0000 ( 21101 PWs)   bands (ev):

   -53.4485 -53.4471 -53.3784 -53.3733 -27.7639 -27.7622 -27.6940 -27.6885
   -27.5835 -27.5812 -27.5788 -27.5772 -27.5137 -27.5088 -27.5073 -27.5035
    -4.9220  -4.8522  -4.7982  -4.7753  -4.6984  -4.6660  -4.6087  -4.5850
     1.9845   2.1017   2.1502   2.1906   2.3937   2.4317   2.4633   2.5051
     3.4529   3.6003   3.6558   3.7036   3.9853   4.1160   4.1851   4.2885
     4.7122   4.8087   4.8713   4.9273   5.5587   5.6360   5.6937   5.7373
     6.8271   6.8438   6.9110   6.9228   9.3631   9.5205   9.6020   9.7327
    10.1372  10.1850  10.2294  10.3032  10.4761  10.5640

          k = 0.1875 0.5413 0.0000 ( 21112 PWs)   bands (ev):

   -53.4460 -53.4446 -53.3758 -53.3707 -27.7799 -27.7782 -27.7100 -27.7045
   -27.5928 -27.5911 -27.5785 -27.5762 -27.5227 -27.5174 -27.5087 -27.5023
    -4.7502  -4.6960  -4.6557  -4.6247  -4.6120  -4.6001  -4.5479  -4.5257
     1.9416   2.0461   2.0817   2.1271   2.1796   2.2139   2.2572   2.2900
     3.3150   3.4575   3.5176   3.5836   4.1088   4.2081   4.2601   4.3129
     4.6627   4.7896   4.8527   4.9169   5.3603   5.4289   5.4840   5.5381
     7.0080   7.0373   7.0978   7.1214   9.4433   9.4881   9.5356   9.5714
    10.3157  10.4108  10.4637  10.5417  10.5971  10.6540

          k = 0.2500 0.4330 0.0000 ( 21125 PWs)   bands (ev):

   -53.4485 -53.4471 -53.3784 -53.3733 -27.7494 -27.7477 -27.6795 -27.6740
   -27.5937 -27.5921 -27.5835 -27.5812 -27.5237 -27.5184 -27.5137 -27.5073
    -4.9278  -4.8565  -4.8018  -4.7791  -4.6963  -4.6626  -4.6049  -4.5808
     2.0910   2.2219   2.2771   2.3139   2.3997   2.4194   2.4522   2.4903
     3.6123   3.7127   3.7875   3.8237   3.9948   4.1015   4.1795   4.3179
     4.4172   4.4490   4.5062   4.5210   5.6201   5.6788   5.7547   5.7607
     6.8113   6.8259   6.8957   6.9060   9.3012   9.4784   9.5701   9.7247
    10.1487  10.1893  10.2351  10.3099  10.3513  10.4358

          k = 0.2500 0.5052 0.0000 ( 21117 PWs)   bands (ev):

   -53.4454 -53.4440 -53.3752 -53.3701 -27.7542 -27.7525 -27.6842 -27.6787
   -27.6263 -27.6247 -27.5773 -27.5750 -27.5563 -27.5509 -27.5075 -27.5011
    -4.7221  -4.6679  -4.6296  -4.5974  -4.5860  -4.5766  -4.5254  -4.5031
     2.0724   2.1244   2.1370   2.1969   2.2373   2.3137   2.3607   2.4016
     3.4795   3.6243   3.6729   3.6960   4.0267   4.1216   4.1821   4.2284
     4.2434   4.2922   4.3495   4.4238   5.3515   5.4071   5.4828   5.5081
     7.0525   7.0651   7.1341   7.1427   9.3086   9.3727   9.4222   9.4725
    10.2840  10.3294  10.4112  10.4214  10.5551  10.5920

          k = 0.2500 0.5774 0.0000 ( 21116 PWs)   bands (ev):

   -53.4443 -53.4429 -53.3741 -53.3690 -27.7540 -27.7523 -27.6841 -27.6786
   -27.6396 -27.6379 -27.5752 -27.5729 -27.5696 -27.5642 -27.5054 -27.4989
    -4.6425  -4.5990  -4.5749  -4.5506  -4.5465  -4.5255  -4.4934  -4.4742
     1.9810   2.0218   2.0406   2.0936   2.3139   2.3809   2.4089   2.4568
     3.3335   3.4642   3.5231   3.5673   3.9739   4.1343   4.1787   4.2263
     4.3071   4.3551   4.4056   4.4463   5.2411   5.2720   5.3500   5.3720
     7.1767   7.1962   7.2609   7.2765   9.2469   9.2595   9.3163   9.3322
    10.3013  10.3654  10.4144  10.4570  10.7245  10.7420

          k = 0.3125 0.5413 0.0000 ( 21100 PWs)   bands (ev):

   -53.4437 -53.4423 -53.3735 -53.3684 -27.7329 -27.7312 -27.6680 -27.6663
   -27.6630 -27.6575 -27.5980 -27.5926 -27.5740 -27.5717 -27.5042 -27.4978
    -4.6034  -4.5648  -4.5482  -4.5294  -4.5268  -4.4918  -4.4710  -4.4554
     1.9178   1.9512   1.9766   2.0232   2.5268   2.6177   2.6563   2.6968
     3.3364   3.3749   3.4039   3.4686   3.8189   3.8721   3.8862   3.9317
     4.3473   4.4093   4.4658   4.5001   5.1482   5.1925   5.2747   5.3086
     7.2616   7.2719   7.3423   7.3480   9.1313   9.1441   9.2016   9.2173
    10.2467  10.2699  10.3236  10.3745  10.8160  10.8538

     the Fermi energy is     8.3878 ev

!    total energy              =   -1978.36808778 Ry
     total all-electron energy =    -38771.688933 Ry
     estimated scf accuracy    <          1.6E-09 Ry
     smearing contrib. (-TS)   =       0.00005774 Ry
     internal energy E=F+TS    =   -1978.36814552 Ry

     The total energy is F=E-TS. E is the sum of the following terms:
     one-electron contribution =   -1434.35904211 Ry
     hartree contribution      =     759.44209048 Ry
     xc contribution           =    -119.23105525 Ry
     ewald contribution        =      85.63094257 Ry
     one-center paw contrib.   =   -1269.85108122 Ry

     convergence has been achieved in  16 iterations

     Forces acting on atoms (cartesian axes, Ry/au):

     atom    1 type  2   force =     0.00000000   -0.00000000    0.00109902
     atom    2 type  1   force =     0.00000000   -0.00000000    0.00138102
     atom    3 type  2   force =     0.00000000    0.00000000    0.00100004
     atom    4 type  2   force =     0.00000000    0.00000000   -0.00056335
     atom    5 type  1   force =     0.00000000   -0.00000000   -0.00319940
     atom    6 type  2   force =     0.00000000    0.00000000   -0.00293677
     atom    7 type  2   force =     0.00000000    0.00000000    0.00380654
     atom    8 type  1   force =     0.00000000    0.00000000    0.00165046
     atom    9 type  2   force =     0.00000000    0.00000000    0.00133525
     atom   10 type  2   force =     0.00000000   -0.00000000   -0.00097578
     atom   11 type  1   force =     0.00000000    0.00000000   -0.00150057
     atom   12 type  2   force =     0.00000000    0.00000000   -0.00109646

     Total force =     0.006833     Total SCF correction =     0.000138
     Energy error            =      3.5E-04 Ry
     Gradient error          =      3.8E-03 Ry/Bohr

     number of scf cycles    =   6
     number of bfgs steps    =   5

     energy             old  =   -1978.3677365162 Ry
     energy             new  =   -1978.3680877825 Ry

     CASE: energy            _new < energy            _old

     new trust radius        =       0.0315282186 bohr
     new conv_thr            =       0.0000000035 Ry


ATOMIC_POSITIONS (crystal)
S                0.3333330000        0.6666670000       -0.1158092665
Mo               0.0000000000        0.0000000000       -0.0633675282
S                0.3333330000        0.6666670000       -0.0108517531
S                0.6666670000        0.3333330000        0.1057260821
Mo               0.3333330000        0.6666670000        0.1582955972
S                0.6666670000        0.3333330000        0.2107052727
S                0.0000000000        0.0000000000        0.3073419430
Mo               0.6666670000        0.3333330000        0.3598443910
S                0.0000000000        0.0000000000        0.4123391027
S                0.3333330000        0.6666670000        0.5310988676
Mo               0.0000000000        0.0000000000        0.5836212541
S                0.3333330000        0.6666670000        0.6360560374



     Writing config-only to output data dir ./tmp/relax2/mos2_slab2.save/ :
     XML data file
     NEW-OLD atomic charge density approx. for the potential

     total cpu time spent up to now is    16492.2 secs

     Self-consistent Calculation

     iteration #  1     ecut=    80.00 Ry     beta= 0.20
     Davidson diagonalization with overlap
     ethr =  1.00E-06,  avg # of iterations =  7.0

     total cpu time spent up to now is    16765.6 secs

     total energy              =   -1978.36862566 Ry
     estimated scf accuracy    <       0.00030560 Ry

     iteration #  2     ecut=    80.00 Ry     beta= 0.20
     Davidson diagonalization with overlap
     ethr =  2.94E-07,  avg # of iterations =  1.3

     total cpu time spent up to now is    16867.6 secs

     total energy              =   -1978.36855404 Ry
     estimated scf accuracy    <       0.00023881 Ry

     iteration #  3     ecut=    80.00 Ry     beta= 0.20
     Davidson diagonalization with overlap
     ethr =  2.30E-07,  avg # of iterations =  2.8

     total cpu time spent up to now is    16983.8 secs

     total energy              =   -1978.36857761 Ry
     estimated scf accuracy    <       0.00000793 Ry

     iteration #  4     ecut=    80.00 Ry     beta= 0.20
     Davidson diagonalization with overlap
     ethr =  7.63E-09,  avg # of iterations =  4.0

     total cpu time spent up to now is    17116.3 secs

     total energy              =   -1978.36857849 Ry
     estimated scf accuracy    <       0.00000548 Ry

     iteration #  5     ecut=    80.00 Ry     beta= 0.20
     Davidson diagonalization with overlap
     ethr =  5.27E-09,  avg # of iterations =  1.6

     total cpu time spent up to now is    17218.0 secs

     total energy              =   -1978.36857736 Ry
     estimated scf accuracy    <       0.00000511 Ry

     iteration #  6     ecut=    80.00 Ry     beta= 0.20
     Davidson diagonalization with overlap
     ethr =  4.91E-09,  avg # of iterations =  2.0

     total cpu time spent up to now is    17339.2 secs

     total energy              =   -1978.36857783 Ry
     estimated scf accuracy    <       0.00000083 Ry

     iteration #  7     ecut=    80.00 Ry     beta= 0.20
     Davidson diagonalization with overlap
     ethr =  7.97E-10,  avg # of iterations =  1.8

     total cpu time spent up to now is    17443.8 secs

     total energy              =   -1978.36857774 Ry
     estimated scf accuracy    <       0.00000063 Ry

     iteration #  8     ecut=    80.00 Ry     beta= 0.20
     Davidson diagonalization with overlap
     ethr =  6.04E-10,  avg # of iterations =  3.6

     total cpu time spent up to now is    17572.2 secs

     total energy              =   -1978.36857786 Ry
     estimated scf accuracy    <       0.00000040 Ry

     iteration #  9     ecut=    80.00 Ry     beta= 0.20
     Davidson diagonalization with overlap
     ethr =  3.88E-10,  avg # of iterations =  1.8

     total cpu time spent up to now is    17679.1 secs

     total energy              =   -1978.36857777 Ry
     estimated scf accuracy    <       0.00000044 Ry

     iteration # 10     ecut=    80.00 Ry     beta= 0.20
     Davidson diagonalization with overlap
     ethr =  3.88E-10,  avg # of iterations =  1.2

     total cpu time spent up to now is    17779.9 secs

     total energy              =   -1978.36857779 Ry
     estimated scf accuracy    <       0.00000019 Ry

     iteration # 11     ecut=    80.00 Ry     beta= 0.20
     Davidson diagonalization with overlap
     ethr =  1.81E-10,  avg # of iterations =  1.7

     total cpu time spent up to now is    17884.9 secs

     total energy              =   -1978.36857780 Ry
     estimated scf accuracy    <       0.00000009 Ry

     iteration # 12     ecut=    80.00 Ry     beta= 0.20
     Davidson diagonalization with overlap
     ethr =  8.27E-11,  avg # of iterations =  1.3

     total cpu time spent up to now is    17986.9 secs

     total energy              =   -1978.36857777 Ry
     estimated scf accuracy    <       0.00000010 Ry

     iteration # 13     ecut=    80.00 Ry     beta= 0.20
     Davidson diagonalization with overlap
     ethr =  8.27E-11,  avg # of iterations =  2.4

     total cpu time spent up to now is    18101.4 secs

     total energy              =   -1978.36857779 Ry
     estimated scf accuracy    <       0.00000002 Ry

     iteration # 14     ecut=    80.00 Ry     beta= 0.20
     Davidson diagonalization with overlap
     ethr =  1.84E-11,  avg # of iterations =  5.5

     total cpu time spent up to now is    18249.2 secs

     total energy              =   -1978.36857777 Ry
     estimated scf accuracy    <       0.00000009 Ry

     iteration # 15     ecut=    80.00 Ry     beta= 0.20
     Davidson diagonalization with overlap
     ethr =  1.84E-11,  avg # of iterations =  4.9

     total cpu time spent up to now is    18389.2 secs

     total energy              =   -1978.36857778 Ry
     estimated scf accuracy    <          7.6E-09 Ry

     iteration # 16     ecut=    80.00 Ry     beta= 0.20
     Davidson diagonalization with overlap
     ethr =  7.26E-12,  avg # of iterations =  2.0

     total cpu time spent up to now is    18501.9 secs

     total energy              =   -1978.36857778 Ry
     estimated scf accuracy    <          4.2E-09 Ry

     iteration # 17     ecut=    80.00 Ry     beta= 0.20
     Davidson diagonalization with overlap
     ethr =  4.03E-12,  avg # of iterations =  3.1

     total cpu time spent up to now is    18614.6 secs

     total energy              =   -1978.36857779 Ry
     estimated scf accuracy    <          4.6E-09 Ry

     iteration # 18     ecut=    80.00 Ry     beta= 0.20
     Davidson diagonalization with overlap
     ethr =  4.03E-12,  avg # of iterations =  2.5

     total cpu time spent up to now is    18738.8 secs

     End of self-consistent calculation

          k = 0.0000 0.0000 0.0000 ( 21311 PWs)   bands (ev):

   -53.4879 -53.4877 -53.4221 -53.4149 -27.6618 -27.6611 -27.5965 -27.5881
   -27.4242 -27.4242 -27.4240 -27.4240 -27.3585 -27.3585 -27.3513 -27.3513
    -6.8629  -6.7575  -6.6970  -6.6451  -5.6257  -5.4773  -5.4135  -5.3112
     1.3283   1.6660   1.7752   2.0614   4.7617   4.7915   4.7915   4.7961
     4.7961   4.8558   4.8558   4.8686   4.8686   5.3066   5.6031   5.9029
     5.9029   5.9121   5.9121   5.9705   5.9705   5.9847   5.9847   6.2570
     6.9630   7.3425   7.5032   7.9200  10.1165  10.1165  10.1577  10.1577
    10.2039  10.2040  10.2301  10.2301  10.3386  10.3387

          k = 0.0000 0.0722 0.0000 ( 21283 PWs)   bands (ev):

   -53.4863 -53.4862 -53.4206 -53.4134 -27.6588 -27.6581 -27.5935 -27.5851
   -27.4397 -27.4395 -27.4277 -27.4275 -27.3740 -27.3669 -27.3620 -27.3549
    -6.8034  -6.6981  -6.6377  -6.5861  -5.5976  -5.4521  -5.3883  -5.2882
     1.3968   1.7346   1.8435   2.1292   4.6277   4.6559   4.6618   4.7204
     4.7340   4.8534   4.8585   4.9181   4.9310   5.0932   5.2967   5.5888
     5.8052   5.8156   5.8741   5.8883   5.9973   6.0738   6.1604   6.4865
     6.9671   7.3230   7.4669   7.8307  10.0522  10.0694  10.1204  10.1423
    10.1836  10.1864  10.2118  10.2474  10.2573  10.2724

          k = 0.0000 0.1443 0.0000 ( 21263 PWs)   bands (ev):

   -53.4819 -53.4817 -53.4162 -53.4089 -27.6501 -27.6494 -27.5848 -27.5764
   -27.4838 -27.4836 -27.4378 -27.4375 -27.4181 -27.4109 -27.3721 -27.3649
    -6.6296  -6.5252  -6.4647  -6.4141  -5.5156  -5.3785  -5.3151  -5.2213
     1.5874   1.9241   2.0315   2.3139   4.2981   4.3087   4.3269   4.3731
     4.3887   4.6889   4.8304   5.0314   5.0385   5.0753   5.0973   5.1110
     5.5530   5.5659   5.6247   5.6388   6.0527   6.1910   6.3166   6.6318
     6.9423   7.2156   7.3206   7.5488   9.7496   9.8206   9.8800   9.9251
     9.9812  10.0028  10.0501  10.0744  10.1226  10.1308

          k = 0.0000 0.2165 0.0000 ( 21233 PWs)   bands (ev):

   -53.4752 -53.4751 -53.4095 -53.4023 -27.6372 -27.6365 -27.5719 -27.5635
   -27.5491 -27.5489 -27.4834 -27.4762 -27.4528 -27.4525 -27.3870 -27.3799
    -6.3562  -6.2539  -6.1936  -6.1450  -5.3867  -5.2634  -5.2007  -5.1172
     1.8456   2.1726   2.2741   2.5391   3.8590   3.8801   3.9144   3.9495
     3.9951   4.2380   4.3407   4.5305   5.2212   5.2413   5.2885   5.3113
     5.3137   5.3213   5.3754   5.3874   5.9615   6.1365   6.2682   6.5447
     6.8038   6.9539   7.0207   7.1163   9.3659   9.5012   9.6262   9.8308
     9.8314   9.9060   9.9563   9.9659  10.0052  10.0805

          k = 0.0000 0.2887 0.0000 ( 21197 PWs)   bands (ev):

   -53.4674 -53.4673 -53.4017 -53.3944 -27.6253 -27.6252 -27.6218 -27.6211
   -27.5597 -27.5565 -27.5525 -27.5481 -27.4704 -27.4701 -27.4046 -27.3975
    -6.0085  -5.9108  -5.8508  -5.8062  -5.2237  -5.1192  -5.0572  -4.9877
     2.0457   2.3252   2.4082   2.6003   3.4483   3.5141   3.5782   3.6083
     3.6847   3.7867   3.8688   3.9954   4.8951   4.9145   4.9732   4.9882
     5.6253   5.6424   5.7016   5.7162   5.7430   5.9408   6.0599   6.2968
     6.5343   6.6034   6.6543   6.6993   9.2292   9.4100   9.5610   9.6457
     9.7149   9.7750   9.8137   9.8319  10.1692  10.3355

          k = 0.0000 0.3608 0.0000 ( 21187 PWs)   bands (ev):

   -53.4595 -53.4594 -53.3938 -53.3866 -27.7007 -27.7005 -27.6351 -27.6278
   -27.6064 -27.6058 -27.5411 -27.5327 -27.4879 -27.4877 -27.4222 -27.4150
    -5.6246  -5.5352  -5.4757  -5.4377  -5.0458  -4.9639  -4.9030  -4.8502
     2.0162   2.1943   2.2546   2.3427   3.0697   3.2238   3.2825   3.3835
     3.4475   3.5237   3.5816   3.6884   4.6063   4.6272   4.6861   4.7013
     5.5065   5.7127   5.8126   5.9395   5.9692   6.0193   6.0290   6.0467
     6.3173   6.3765   6.4285   6.4704   9.3478   9.5286   9.5467   9.6011
     9.6608   9.6651   9.6927   9.9209  10.4959  10.6666

          k = 0.0000 0.4330 0.0000 ( 21140 PWs)   bands (ev):

   -53.4528 -53.4527 -53.3871 -53.3799 -27.7639 -27.7637 -27.6983 -27.6910
   -27.5934 -27.5927 -27.5280 -27.5197 -27.5027 -27.5025 -27.4370 -27.4299
    -5.2589  -5.1825  -5.1243  -5.0952  -4.8792  -4.8221  -4.7630  -4.7273
     1.7906   1.8986   1.9455   1.9918   2.7303   2.8688   2.9110   2.9853
     3.3317   3.4379   3.4949   3.5978   4.3851   4.4071   4.4662   4.4815
     5.3309   5.5339   5.6196   5.8026   6.1883   6.2344   6.2950   6.3192
     6.3350   6.4141   6.4648   6.5262   9.5473   9.5811   9.6131   9.6404
     9.6623   9.7623   9.8617  10.0547  10.8045  10.9579

          k = 0.0000 0.5052 0.0000 ( 21078 PWs)   bands (ev):

   -53.4484 -53.4482 -53.3826 -53.3754 -27.8058 -27.8056 -27.7402 -27.7329
   -27.5846 -27.5839 -27.5193 -27.5126 -27.5124 -27.5109 -27.4469 -27.4397
    -4.9835  -4.9232  -4.8691  -4.8458  -4.7561  -4.7216  -4.6661  -4.6413
     1.5638   1.6471   1.6846   1.7264   2.4917   2.6062   2.6458   2.7040
     3.2259   3.3358   3.3947   3.4833   4.2472   4.2698   4.3290   4.3444
     5.2351   5.4311   5.5086   5.6708   6.3380   6.3985   6.4596   6.4914
     6.5231   6.6039   6.6532   6.7129   9.6021   9.6189   9.6784   9.6934
     9.9088  10.0102  10.0703  10.1830  11.0003  11.1308

          k = 0.0000-0.5774 0.0000 ( 21006 PWs)   bands (ev):

   -53.4468 -53.4467 -53.3811 -53.3739 -27.8204 -27.8203 -27.7549 -27.7476
   -27.5815 -27.5809 -27.5162 -27.5161 -27.5158 -27.5079 -27.4504 -27.4432
    -4.8775  -4.8265  -4.7769  -4.7525  -4.7099  -4.6855  -4.6325  -4.6096
     1.4716   1.5505   1.5855   1.6275   2.4058   2.5114   2.5509   2.6047
     3.1775   3.2870   3.3465   3.4307   4.2004   4.2232   4.2824   4.2979
     5.2064   5.3986   5.4731   5.6264   6.3864   6.4526   6.5138   6.5488
     6.6405   6.7072   6.7504   6.7990   9.6332   9.6440   9.7042   9.7169
    10.0672  10.1254  10.1803  10.2197  11.0636  11.1797

          k = 0.0625 0.1083 0.0000 ( 21269 PWs)   bands (ev):

   -53.4833 -53.4832 -53.4176 -53.4104 -27.6529 -27.6522 -27.5876 -27.5792
   -27.4691 -27.4689 -27.4350 -27.4347 -27.4034 -27.3962 -27.3692 -27.3621
    -6.6867  -6.5820  -6.5215  -6.4705  -5.5425  -5.4026  -5.3391  -5.2432
     1.5268   1.8642   1.9723   2.2563   4.4077   4.4172   4.4292   4.4803
     4.4956   4.8147   4.9703   4.9743   4.9777   5.0369   5.0500   5.2404
     5.5904   5.6003   5.6591   5.6732   6.0912   6.2094   6.3243   6.6366
     6.9582   7.2610   7.3764   7.6450   9.8746   9.9095   9.9357   9.9639
    10.0043  10.0108  10.0559  10.1136  10.1380  10.1703

          k = 0.0625 0.1804 0.0000 ( 21194 PWs)   bands (ev):

   -53.4778 -53.4776 -53.4121 -53.4048 -27.6421 -27.6414 -27.5768 -27.5684
   -27.5225 -27.5223 -27.4569 -27.4497 -27.4487 -27.4485 -27.3830 -27.3758
    -6.4629  -6.3597  -6.2993  -6.2498  -5.4369  -5.3081  -5.2451  -5.1575
     1.7552   2.0885   2.1933   2.4690   4.0254   4.0378   4.0798   4.1068
     4.1395   4.4394   4.5594   4.7824   5.1833   5.1942   5.2190   5.2347
     5.2588   5.2662   5.2980   5.3079   6.1396   6.2825   6.4031   6.6719
     6.8798   7.0756   7.1528   7.2843   9.4769   9.5857   9.6796   9.8130
     9.8500   9.9169   9.9444   9.9803   9.9928  10.0401

          k = 0.0625 0.2526 0.0000 ( 21202 PWs)   bands (ev):

   -53.4705 -53.4704 -53.4048 -53.3976 -27.6280 -27.6273 -27.5917 -27.5915
   -27.5627 -27.5543 -27.5260 -27.5188 -27.4666 -27.4664 -27.4009 -27.3938
    -6.1518  -6.0519  -5.9917  -5.9452  -5.2904  -5.1778  -5.1155  -5.0401
     1.9975   2.3070   2.4002   2.6358   3.6279   3.6578   3.6992   3.7336
     3.8159   4.0166   4.1050   4.2585   4.8425   4.8653   4.9165   4.9412
     5.4515   5.4661   5.5243   5.5392   6.0351   6.1876   6.2980   6.5145
     6.6737   6.7597   6.8123   6.8573   9.2085   9.3727   9.4964   9.6558
     9.7721   9.8150   9.8631   9.8820   9.9739  10.1070

          k = 0.0625 0.3248 0.0000 ( 21194 PWs)   bands (ev):

   -53.4627 -53.4625 -53.3969 -53.3897 -27.6657 -27.6655 -27.6126 -27.6119
   -27.6001 -27.5928 -27.5473 -27.5389 -27.4860 -27.4858 -27.4203 -27.4131
    -5.7845  -5.6910  -5.6312  -5.5900  -5.1185  -5.0267  -4.9652  -4.9052
     2.0906   2.3189   2.3883   2.5199   3.2704   3.3834   3.4633   3.5189
     3.5889   3.6022   3.6916   3.7735   4.5341   4.5742   4.6253   4.6602
     5.6787   5.7067   5.7529   5.7791   5.8266   5.9701   6.0640   6.2443
     6.4493   6.4894   6.5408   6.5689   9.1717   9.3479   9.4527   9.5694
     9.7044   9.7579   9.7910   9.9156  10.2281  10.3907

          k = 0.0625 0.3969 0.0000 ( 21151 PWs)   bands (ev):

   -53.4554 -53.4553 -53.3897 -53.3824 -27.7333 -27.7331 -27.6677 -27.6604
   -27.5984 -27.5977 -27.5331 -27.5247 -27.5038 -27.5036 -27.4381 -27.4309
    -5.4064  -5.3237  -5.2647  -5.2316  -4.9438  -4.8759  -4.8158  -4.7729
     1.9448   2.0811   2.1346   2.1942   2.8979   3.0359   3.0789   3.1561
     3.4059   3.5031   3.5583   3.6666   4.3339   4.3783   4.4306   4.4636
     5.5560   5.7203   5.7847   5.8326   5.8514   5.8970   5.9256   5.9996
     6.4624   6.4928   6.5416   6.5679   9.3085   9.4515   9.5191   9.6002
     9.7489   9.8033   9.8479  10.0006  10.5659  10.7204

          k = 0.0625 0.4691 0.0000 ( 21105 PWs)   bands (ev):

   -53.4498 -53.4497 -53.3841 -53.3769 -27.7846 -27.7844 -27.7190 -27.7117
   -27.5875 -27.5868 -27.5221 -27.5174 -27.5172 -27.5138 -27.4517 -27.4445
    -5.0807  -5.0131  -4.9566  -4.9318  -4.7955  -4.7520  -4.6947  -4.6663
     1.7112   1.8041   1.8460   1.8883   2.5815   2.6914   2.7295   2.7869
     3.2977   3.4103   3.4681   3.5609   4.2267   4.2620   4.3141   4.3399
     5.3638   5.5323   5.6030   5.7435   5.9409   5.9880   6.0476   6.0820
     6.6349   6.6721   6.7182   6.7521   9.5067   9.5863   9.6284   9.6768
     9.8858   9.9524  10.0047  10.1263  10.8798  11.0124

          k = 0.0625 0.5413 0.0000 ( 21084 PWs)   bands (ev):

   -53.4468 -53.4467 -53.3811 -53.3739 -27.8122 -27.8120 -27.7466 -27.7393
   -27.5815 -27.5809 -27.5247 -27.5245 -27.5162 -27.5079 -27.4590 -27.4519
    -4.8839  -4.8309  -4.7806  -4.7566  -4.7075  -4.6819  -4.6287  -4.6056
     1.5512   1.6316   1.6669   1.7092   2.4021   2.4968   2.5355   2.5858
     3.2075   3.3212   3.3803   3.4646   4.1851   4.2078   4.2607   4.2818
     5.2583   5.4304   5.5004   5.6368   6.0259   6.0889   6.1500   6.1783
     6.7872   6.8335   6.8795   6.9176   9.6282   9.6490   9.6943   9.7173
    10.0618  10.1254  10.1756  10.2357  11.1062  11.2092

          k = 0.1250 0.2165 0.0000 ( 21179 PWs)   bands (ev):

   -53.4716 -53.4715 -53.4059 -53.3987 -27.6301 -27.6294 -27.5777 -27.5775
   -27.5648 -27.5564 -27.5120 -27.5048 -27.4675 -27.4673 -27.4018 -27.3946
    -6.2010  -6.1004  -6.0402  -5.9931  -5.3131  -5.1979  -5.1354  -5.0580
     1.9781   2.2971   2.3940   2.6444   3.7025   3.7198   3.7609   3.7941
     3.9058   4.1684   4.2671   4.4457   4.7064   4.7235   4.7774   4.7998
     5.3721   5.3856   5.4431   5.4585   6.2224   6.3513   6.4534   6.6458
     6.7387   6.8298   6.8874   6.9228   9.1963   9.3515   9.4610   9.6190
     9.7550   9.8130   9.8325   9.8575   9.9064   9.9848

          k = 0.1250 0.2887 0.0000 ( 21199 PWs)   bands (ev):

   -53.4644 -53.4642 -53.3986 -53.3914 -27.6410 -27.6408 -27.6159 -27.6153
   -27.5753 -27.5681 -27.5506 -27.5422 -27.4908 -27.4905 -27.4251 -27.4179
    -5.8686  -5.7732  -5.7132  -5.6705  -5.1562  -5.0591  -4.9975  -4.9335
     2.1362   2.4000   2.4774   2.6465   3.4393   3.4918   3.5583   3.6097
     3.6916   3.7965   3.8713   3.9376   4.2693   4.3314   4.3907   4.4856
     5.4691   5.4948   5.5491   5.5683   6.1482   6.2622   6.3444   6.4808
     6.5567   6.5735   6.6196   6.6445   9.0363   9.2189   9.3334   9.4935
     9.7566   9.7974   9.8293   9.8906   9.9838  10.1235

          k = 0.1250 0.3608 0.0000 ( 21195 PWs)   bands (ev):

   -53.4571 -53.4570 -53.3914 -53.3842 -27.7032 -27.7030 -27.6376 -27.6303
   -27.6017 -27.6011 -27.5364 -27.5280 -27.5144 -27.5142 -27.4487 -27.4416
    -5.5031  -5.4165  -5.3572  -5.3214  -4.9843  -4.9092  -4.8486  -4.8006
     2.0965   2.2680   2.3276   2.4103   3.1030   3.2116   3.2521   3.3167
     3.5021   3.5756   3.6313   3.7270   4.0698   4.1803   4.2480   4.3545
     5.4063   5.4435   5.4968   5.5177   5.9260   6.0314   6.0910   6.1989
     6.5190   6.5317   6.5928   6.6054   9.0741   9.2678   9.3858   9.5620
     9.8352   9.8733   9.9051   9.9840  10.2237  10.3757

          k = 0.1250 0.4330 0.0000 ( 21113 PWs)   bands (ev):

   -53.4509 -53.4508 -53.3852 -53.3780 -27.7553 -27.7551 -27.6897 -27.6824
   -27.5896 -27.5890 -27.5346 -27.5344 -27.5243 -27.5160 -27.4689 -27.4617
    -5.1572  -5.0840  -5.0264  -4.9992  -4.8226  -4.7716  -4.7131  -4.6807
     1.9218   2.0348   2.0842   2.1312   2.6927   2.7725   2.8024   2.8531
     3.4194   3.5360   3.5927   3.6804   4.0394   4.1473   4.2102   4.2927
     5.3449   5.4101   5.4642   5.4981   5.6537   5.7526   5.8075   5.9049
     6.6580   6.6735   6.7333   6.7479   9.2845   9.4628   9.5686   9.7306
     9.9495   9.9774  10.0207  10.0668  10.5350  10.6682

          k = 0.1250 0.5052 0.0000 ( 21081 PWs)   bands (ev):

   -53.4468 -53.4467 -53.3811 -53.3739 -27.7898 -27.7896 -27.7242 -27.7169
   -27.5816 -27.5809 -27.5481 -27.5479 -27.5162 -27.5079 -27.4824 -27.4752
    -4.8988  -4.8417  -4.7896  -4.7662  -4.7021  -4.6736  -4.6195  -4.5957
     1.7595   1.8474   1.8862   1.9281   2.3974   2.4635   2.4989   2.5426
     3.2992   3.4236   3.4818   3.5618   4.0874   4.1690   4.2224   4.2693
     5.3313   5.4314   5.4625   5.5111   5.5347   5.5598   5.5890   5.6937
     6.8408   6.8731   6.9264   6.9535   9.5112   9.6077   9.6626   9.7302
    10.0967  10.1503  10.1966  10.2675  10.8083  10.9144

          k = 0.1250 0.5774 0.0000 ( 21108 PWs)   bands (ev):

   -53.4454 -53.4452 -53.3796 -53.3724 -27.8019 -27.8017 -27.7363 -27.7290
   -27.5787 -27.5781 -27.5528 -27.5526 -27.5134 -27.5050 -27.4872 -27.4800
    -4.7996  -4.7518  -4.7060  -4.6794  -4.6563  -4.6383  -4.5868  -4.5641
     1.6954   1.7768   1.8106   1.8542   2.2920   2.3545   2.3922   2.4339
     3.2396   3.3631   3.4220   3.5012   4.1355   4.1853   4.2294   4.2646
     5.2754   5.4206   5.4339   5.4893   5.4949   5.5524   5.5629   5.6382
     6.9315   6.9734   7.0257   7.0595   9.5963   9.6163   9.6598   9.6868
    10.2051  10.2734  10.3225  10.3622  10.9143  11.0400

          k = 0.1875 0.3248 0.0000 ( 21195 PWs)   bands (ev):

   -53.4577 -53.4576 -53.3920 -53.3848 -27.6896 -27.6894 -27.6240 -27.6167
   -27.6029 -27.6022 -27.5376 -27.5292 -27.5212 -27.5210 -27.4555 -27.4483
    -5.5366  -5.4488  -5.3894  -5.3527  -4.9980  -4.9205  -4.8597  -4.8098
     2.1608   2.3500   2.4125   2.5085   3.2365   3.3095   3.3506   3.4038
     3.5471   3.6009   3.6687   3.7243   3.9253   4.0578   4.1401   4.2939
     5.2317   5.2695   5.3216   5.3443   6.0887   6.1778   6.2223   6.3094
     6.5224   6.5418   6.6048   6.6166   8.9848   9.1947   9.3269   9.5380
     9.8566   9.8863   9.9205   9.9672  10.0790  10.2231

          k = 0.1875 0.3969 0.0000 ( 21153 PWs)   bands (ev):

   -53.4515 -53.4514 -53.3858 -53.3786 -27.7315 -27.7313 -27.6659 -27.6586
   -27.5908 -27.5902 -27.5520 -27.5518 -27.5255 -27.5172 -27.4863 -27.4791
    -5.1992  -5.1230  -5.0649  -5.0362  -4.8361  -4.7810  -4.7219  -4.6869
     2.0804   2.2149   2.2704   2.3278   2.7939   2.8339   2.8513   2.9042
     3.5431   3.6525   3.7173   3.7746   3.9265   4.0449   4.1261   4.2661
     4.9112   4.9601   5.0164   5.0406   5.8573   5.9308   5.9688   6.0257
     6.6265   6.6480   6.7115   6.7294   9.1403   9.3633   9.5038   9.7699
     9.9814   9.9911  10.0432  10.0631  10.2618  10.3968

          k = 0.1875 0.4691 0.0000 ( 21101 PWs)   bands (ev):

   -53.4468 -53.4467 -53.3811 -53.3739 -27.7620 -27.7618 -27.6964 -27.6891
   -27.5816 -27.5809 -27.5769 -27.5767 -27.5163 -27.5113 -27.5079 -27.5041
    -4.9130  -4.8523  -4.7987  -4.7755  -4.6969  -4.6653  -4.6103  -4.5857
     1.9948   2.1014   2.1495   2.1911   2.3985   2.4317   2.4642   2.5042
     3.4618   3.5995   3.6541   3.7046   3.9867   4.1159   4.1847   4.2856
     4.7193   4.8087   4.8693   4.9256   5.5617   5.6363   5.6908   5.7343
     6.8297   6.8444   6.9090   6.9216   9.3643   9.5185   9.6025   9.7318
    10.1388  10.1852  10.2279  10.3022  10.4773  10.5653

          k = 0.1875 0.5413 0.0000 ( 21112 PWs)   bands (ev):

   -53.4443 -53.4441 -53.3785 -53.3713 -27.7779 -27.7778 -27.7124 -27.7051
   -27.5909 -27.5907 -27.5766 -27.5759 -27.5252 -27.5180 -27.5113 -27.5029
    -4.7420  -4.6961  -4.6540  -4.6254  -4.6116  -4.5994  -4.5492  -4.5265
     1.9526   2.0457   2.0825   2.1267   2.1843   2.2138   2.2568   2.2891
     3.3228   3.4570   3.5157   3.5828   4.1127   4.2080   4.2591   4.3131
     4.6710   4.7896   4.8507   4.9149   5.3605   5.4291   5.4816   5.5345
     7.0102   7.0382   7.0960   7.1201   9.4448   9.4887   9.5343   9.5707
    10.3181  10.4100  10.4621  10.5410  10.6010  10.6543

          k = 0.2500 0.4330 0.0000 ( 21125 PWs)   bands (ev):

   -53.4468 -53.4467 -53.3811 -53.3739 -27.7475 -27.7473 -27.6819 -27.6746
   -27.5918 -27.5916 -27.5816 -27.5809 -27.5262 -27.5190 -27.5163 -27.5079
    -4.9188  -4.8566  -4.8025  -4.7792  -4.6948  -4.6619  -4.6065  -4.5815
     2.1019   2.2215   2.2757   2.3151   2.4040   2.4192   2.4528   2.4892
     3.6250   3.7144   3.7872   3.8218   3.9946   4.1024   4.1804   4.3118
     4.4198   4.4494   4.5044   4.5203   5.6258   5.6784   5.7495   5.7592
     6.8140   6.8264   6.8938   6.9044   9.3026   9.4760   9.5709   9.7239
    10.1507  10.1891  10.2330  10.3091  10.3520  10.4382

          k = 0.2500 0.5052 0.0000 ( 21117 PWs)   bands (ev):

   -53.4437 -53.4435 -53.3779 -53.3707 -27.7522 -27.7520 -27.6866 -27.6793
   -27.6244 -27.6242 -27.5754 -27.5748 -27.5587 -27.5515 -27.5101 -27.5017
    -4.7140  -4.6680  -4.6277  -4.5982  -4.5858  -4.5758  -4.5267  -4.5038
     2.0809   2.1242   2.1411   2.1958   2.2413   2.3137   2.3597   2.4014
     3.4889   3.6241   3.6729   3.6966   4.0353   4.1234   4.1818   4.2275
     4.2415   4.2909   4.3488   4.4195   5.3555   5.4070   5.4800   5.5032
     7.0550   7.0657   7.1320   7.1415   9.3104   9.3730   9.4211   9.4719
    10.2868  10.3301  10.4098  10.4189  10.5546  10.5928

          k = 0.2500 0.5774 0.0000 ( 21116 PWs)   bands (ev):

   -53.4425 -53.4424 -53.3768 -53.3696 -27.7520 -27.7519 -27.6865 -27.6792
   -27.6376 -27.6374 -27.5732 -27.5726 -27.5720 -27.5648 -27.5079 -27.4996
    -4.6351  -4.5991  -4.5723  -4.5501  -4.5453  -4.5264  -4.4952  -4.4751
     1.9876   2.0215   2.0439   2.0925   2.3198   2.3807   2.4101   2.4561
     3.3408   3.4640   3.5213   3.5674   3.9865   4.1335   4.1792   4.2270
     4.3049   4.3536   4.4044   4.4449   5.2435   5.2719   5.3480   5.3659
     7.1790   7.1969   7.2589   7.2751   9.2491   9.2602   9.3149   9.3315
    10.3045  10.3660  10.4142  10.4542  10.7186  10.7405

          k = 0.3125 0.5413 0.0000 ( 21100 PWs)   bands (ev):

   -53.4419 -53.4418 -53.3762 -53.3690 -27.7310 -27.7308 -27.6661 -27.6659
   -27.6654 -27.6581 -27.6004 -27.5932 -27.5721 -27.5714 -27.5068 -27.4984
    -4.5964  -4.5649  -4.5455  -4.5292  -4.5245  -4.4928  -4.4731  -4.4563
     1.9235   1.9509   1.9791   2.0221   2.5354   2.6175   2.6563   2.6963
     3.3444   3.3791   3.4041   3.4669   3.8259   3.8722   3.8846   3.9298
     4.3478   4.4096   4.4638   4.4991   5.1521   5.1924   5.2736   5.3005
     7.2643   7.2723   7.3399   7.3471   9.1334   9.1449   9.2004   9.2166
    10.2488  10.2709  10.3233  10.3720  10.8148  10.8542

     the Fermi energy is     8.3800 ev

!    total energy              =   -1978.36857780 Ry
     total all-electron energy =    -38771.689423 Ry
     estimated scf accuracy    <          3.3E-09 Ry
     smearing contrib. (-TS)   =       0.00005178 Ry
     internal energy E=F+TS    =   -1978.36862958 Ry

     The total energy is F=E-TS. E is the sum of the following terms:
     one-electron contribution =   -1434.32104513 Ry
     hartree contribution      =     759.42338214 Ry
     xc contribution           =    -119.22895413 Ry
     ewald contribution        =      85.60890507 Ry
     one-center paw contrib.   =   -1269.85091754 Ry

     convergence has been achieved in  18 iterations

     Forces acting on atoms (cartesian axes, Ry/au):

     atom    1 type  2   force =     0.00000000    0.00000000    0.00110520
     atom    2 type  1   force =     0.00000000   -0.00000000    0.00133848
     atom    3 type  2   force =     0.00000000    0.00000000    0.00098908
     atom    4 type  2   force =     0.00000000    0.00000000   -0.00042402
     atom    5 type  1   force =     0.00000000    0.00000000   -0.00279602
     atom    6 type  2   force =     0.00000000   -0.00000000   -0.00265346
     atom    7 type  2   force =     0.00000000   -0.00000000    0.00341896
     atom    8 type  1   force =     0.00000000   -0.00000000    0.00141097
     atom    9 type  2   force =     0.00000000   -0.00000000    0.00115275
     atom   10 type  2   force =     0.00000000    0.00000000   -0.00101750
     atom   11 type  1   force =     0.00000000    0.00000000   -0.00145862
     atom   12 type  2   force =     0.00000000   -0.00000000   -0.00106583

     Total force =     0.006192     Total SCF correction =     0.000263
     Energy error            =      4.9E-04 Ry
     Gradient error          =      3.4E-03 Ry/Bohr

     number of scf cycles    =   7
     number of bfgs steps    =   6

     energy             old  =   -1978.3680877825 Ry
     energy             new  =   -1978.3685778001 Ry

     CASE: energy            _new < energy            _old

     new trust radius        =       0.0472923279 bohr
     new conv_thr            =       0.0000000049 Ry


ATOMIC_POSITIONS (crystal)
S                0.3333330000        0.6666669999       -0.1154261667
Mo               0.0000000000        0.0000000000       -0.0629837586
S                0.3333330000        0.6666669999       -0.0104702385
S                0.6666669999        0.3333330000        0.1049129416
Mo               0.3333330000        0.6666669999        0.1574841277
S                0.6666669999        0.3333330000        0.2099209434
S               -0.0000000000       -0.0000000000        0.3081521995
Mo               0.6666669999        0.3333330000        0.3606676209
S                0.0000000000        0.0000000000        0.4131733034
S                0.3333330000        0.6666669999        0.5306992280
Mo               0.0000000000        0.0000000000        0.5832184892
S                0.3333330000        0.6666669999        0.6356513098



     Writing config-only to output data dir ./tmp/relax2/mos2_slab2.save/ :
     XML data file
     NEW-OLD atomic charge density approx. for the potential

     total cpu time spent up to now is    18793.9 secs

     Self-consistent Calculation

     iteration #  1     ecut=    80.00 Ry     beta= 0.20
     Davidson diagonalization with overlap
     ethr =  1.00E-06,  avg # of iterations =  7.3

     total cpu time spent up to now is    19100.0 secs

     total energy              =   -1978.36935026 Ry
     estimated scf accuracy    <       0.00076383 Ry

     iteration #  2     ecut=    80.00 Ry     beta= 0.20
     Davidson diagonalization with overlap
     ethr =  7.34E-07,  avg # of iterations =  1.0

     total cpu time spent up to now is    19199.0 secs

     total energy              =   -1978.36916984 Ry
     estimated scf accuracy    <       0.00057983 Ry

     iteration #  3     ecut=    80.00 Ry     beta= 0.20
     Davidson diagonalization with overlap
     ethr =  5.58E-07,  avg # of iterations =  3.0

     total cpu time spent up to now is    19317.5 secs

     total energy              =   -1978.36922372 Ry
     estimated scf accuracy    <       0.00002525 Ry

     iteration #  4     ecut=    80.00 Ry     beta= 0.20
     Davidson diagonalization with overlap
     ethr =  2.43E-08,  avg # of iterations =  3.8

     total cpu time spent up to now is    19448.1 secs

     total energy              =   -1978.36922651 Ry
     estimated scf accuracy    <       0.00000951 Ry

     iteration #  5     ecut=    80.00 Ry     beta= 0.20
     Davidson diagonalization with overlap
     ethr =  9.14E-09,  avg # of iterations =  2.0

     total cpu time spent up to now is    19559.1 secs

     total energy              =   -1978.36922627 Ry
     estimated scf accuracy    <       0.00000674 Ry

     iteration #  6     ecut=    80.00 Ry     beta= 0.20
     Davidson diagonalization with overlap
     ethr =  6.48E-09,  avg # of iterations =  2.1

     total cpu time spent up to now is    19673.1 secs

     total energy              =   -1978.36922668 Ry
     estimated scf accuracy    <       0.00000125 Ry

     iteration #  7     ecut=    80.00 Ry     beta= 0.20
     Davidson diagonalization with overlap
     ethr =  1.20E-09,  avg # of iterations =  3.5

     total cpu time spent up to now is    19785.7 secs

     total energy              =   -1978.36922663 Ry
     estimated scf accuracy    <       0.00000059 Ry

     iteration #  8     ecut=    80.00 Ry     beta= 0.20
     Davidson diagonalization with overlap
     ethr =  5.65E-10,  avg # of iterations =  4.2

     total cpu time spent up to now is    19914.9 secs

     total energy              =   -1978.36922674 Ry
     estimated scf accuracy    <       0.00000048 Ry

     iteration #  9     ecut=    80.00 Ry     beta= 0.20
     Davidson diagonalization with overlap
     ethr =  4.64E-10,  avg # of iterations =  1.0

     total cpu time spent up to now is    20013.5 secs

     total energy              =   -1978.36922677 Ry
     estimated scf accuracy    <       0.00000041 Ry

     iteration # 10     ecut=    80.00 Ry     beta= 0.20
     Davidson diagonalization with overlap
     ethr =  3.95E-10,  avg # of iterations =  1.2

     total cpu time spent up to now is    20114.1 secs

     total energy              =   -1978.36922678 Ry
     estimated scf accuracy    <       0.00000022 Ry

     iteration # 11     ecut=    80.00 Ry     beta= 0.20
     Davidson diagonalization with overlap
     ethr =  2.16E-10,  avg # of iterations =  1.0

     total cpu time spent up to now is    20213.1 secs

     total energy              =   -1978.36922661 Ry
     estimated scf accuracy    <       0.00000020 Ry

     iteration # 12     ecut=    80.00 Ry     beta= 0.20
     Davidson diagonalization with overlap
     ethr =  1.89E-10,  avg # of iterations =  3.3

     total cpu time spent up to now is    20340.9 secs

     total energy              =   -1978.36922664 Ry
     estimated scf accuracy    <       0.00000007 Ry

     iteration # 13     ecut=    80.00 Ry     beta= 0.20
     Davidson diagonalization with overlap
     ethr =  7.02E-11,  avg # of iterations =  1.3

     total cpu time spent up to now is    20442.3 secs

     total energy              =   -1978.36922664 Ry
     estimated scf accuracy    <       0.00000003 Ry

     iteration # 14     ecut=    80.00 Ry     beta= 0.20
     Davidson diagonalization with overlap
     ethr =  2.87E-11,  avg # of iterations =  3.0

     total cpu time spent up to now is    20564.4 secs

     total energy              =   -1978.36922665 Ry
     estimated scf accuracy    <       0.00000002 Ry

     iteration # 15     ecut=    80.00 Ry     beta= 0.20
     Davidson diagonalization with overlap
     ethr =  1.75E-11,  avg # of iterations =  2.2

     total cpu time spent up to now is    20677.0 secs

     total energy              =   -1978.36922664 Ry
     estimated scf accuracy    <          9.3E-09 Ry

     iteration # 16     ecut=    80.00 Ry     beta= 0.20
     Davidson diagonalization with overlap
     ethr =  8.91E-12,  avg # of iterations =  2.0

     total cpu time spent up to now is    20796.0 secs

     total energy              =   -1978.36922664 Ry
     estimated scf accuracy    <          5.9E-09 Ry

     iteration # 17     ecut=    80.00 Ry     beta= 0.20
     Davidson diagonalization with overlap
     ethr =  5.64E-12,  avg # of iterations =  1.4

     total cpu time spent up to now is    20898.2 secs

     End of self-consistent calculation

          k = 0.0000 0.0000 0.0000 ( 21311 PWs)   bands (ev):

   -53.4877 -53.4849 -53.4257 -53.4159 -27.6610 -27.6588 -27.5998 -27.5891
   -27.4240 -27.4240 -27.4208 -27.4208 -27.3617 -27.3617 -27.3524 -27.3523
    -6.8491  -6.7577  -6.7001  -6.6467  -5.6151  -5.4779  -5.4156  -5.3177
     1.3453   1.6577   1.7780   2.0550   4.7671   4.7950   4.7950   4.7983
     4.7983   4.8559   4.8559   4.8673   4.8674   5.2924   5.6133   5.9079
     5.9079   5.9128   5.9128   5.9699   5.9700   5.9835   5.9836   6.2504
     6.9614   7.3427   7.5151   7.8911  10.1241  10.1241  10.1580  10.1581
    10.2032  10.2033  10.2293  10.2293  10.3403  10.3404

          k = 0.0000 0.0722 0.0000 ( 21283 PWs)   bands (ev):

   -53.4861 -53.4833 -53.4241 -53.4144 -27.6579 -27.6558 -27.5968 -27.5861
   -27.4396 -27.4364 -27.4276 -27.4244 -27.3773 -27.3679 -27.3652 -27.3559
    -6.7896  -6.6984  -6.6408  -6.5876  -5.5871  -5.4525  -5.3905  -5.2946
     1.4141   1.7262   1.8463   2.1229   4.6330   4.6608   4.6628   4.7205
     4.7328   4.8572   4.8606   4.9181   4.9298   5.0825   5.3036   5.5870
     5.8102   5.8164   5.8735   5.8872   5.9987   6.0716   6.1618   6.4844
     6.9657   7.3239   7.4776   7.8059  10.0573  10.0700  10.1205  10.1414
    10.1839  10.1986  10.2127  10.2472  10.2554  10.2740

          k = 0.0000 0.1443 0.0000 ( 21263 PWs)   bands (ev):

   -53.4817 -53.4789 -53.4197 -53.4099 -27.6493 -27.6471 -27.5881 -27.5774
   -27.4836 -27.4804 -27.4376 -27.4344 -27.4213 -27.4119 -27.3753 -27.3659
    -6.6157  -6.5254  -6.4679  -6.4156  -5.5057  -5.3788  -5.3174  -5.2273
     1.6054   1.9157   2.0340   2.3081   4.3023   4.3122   4.3304   4.3729
     4.3878   4.6817   4.8358   5.0359   5.0400   5.0711   5.0974   5.1098
     5.5581   5.5668   5.6237   5.6378   6.0538   6.1863   6.3186   6.6313
     6.9412   7.2173   7.3275   7.5346   9.7497   9.8199   9.8798   9.9256
     9.9803  10.0071  10.0589  10.0756  10.1195  10.1230

          k = 0.0000 0.2165 0.0000 ( 21233 PWs)   bands (ev):

   -53.4750 -53.4722 -53.4130 -53.4033 -27.6363 -27.6342 -27.5752 -27.5645
   -27.5489 -27.5457 -27.4866 -27.4773 -27.4526 -27.4494 -27.3903 -27.3809
    -6.3424  -6.2542  -6.1968  -6.1464  -5.3777  -5.2635  -5.2031  -5.1226
     1.8646   2.1644   2.2759   2.5344   3.8646   3.8818   3.9176   3.9479
     3.9958   4.2343   4.3445   4.5251   5.2286   5.2415   5.2914   5.3106
     5.3133   5.3232   5.3741   5.3863   5.9624   6.1312   6.2707   6.5438
     6.8033   6.9555   7.0226   7.1115   9.3643   9.4992   9.6280   9.8303
     9.8396   9.9065   9.9557   9.9623  10.0024  10.0836

          k = 0.0000 0.2887 0.0000 ( 21197 PWs)   bands (ev):

   -53.4672 -53.4644 -53.4052 -53.3954 -27.6252 -27.6220 -27.6210 -27.6188
   -27.5629 -27.5598 -27.5535 -27.5491 -27.4702 -27.4670 -27.4079 -27.3985
    -5.9948  -5.9110  -5.8539  -5.8073  -5.2160  -5.1189  -5.0597  -4.9921
     2.0651   2.3190   2.4082   2.5981   3.4570   3.5163   3.5771   3.6070
     3.6835   3.7889   3.8709   3.9874   4.9013   4.9151   4.9721   4.9874
     5.6306   5.6434   5.7004   5.7154   5.7446   5.9353   6.0630   6.2946
     6.5355   6.6054   6.6531   6.6969   9.2275   9.4066   9.5642   9.6532
     9.7155   9.7715   9.8109   9.8293  10.1686  10.3353

          k = 0.0000 0.3608 0.0000 ( 21187 PWs)   bands (ev):

   -53.4593 -53.4565 -53.3973 -53.3876 -27.7005 -27.6973 -27.6382 -27.6288
   -27.6056 -27.6035 -27.5445 -27.5338 -27.4877 -27.4845 -27.4254 -27.4160
    -5.6112  -5.5354  -5.4788  -5.4384  -5.0396  -4.9634  -4.9057  -4.8535
     2.0325   2.1919   2.2527   2.3433   3.0815   3.2217   3.2809   3.3861
     3.4466   3.5265   3.5817   3.6806   4.6125   4.6278   4.6849   4.7005
     5.5092   5.7071   5.8153   5.9461   5.9700   6.0159   6.0271   6.0461
     6.3190   6.3783   6.4267   6.4677   9.3467   9.5246   9.5530   9.6019
     9.6575   9.6685   9.6904   9.9174  10.4949  10.6650

          k = 0.0000 0.4330 0.0000 ( 21140 PWs)   bands (ev):

   -53.4526 -53.4498 -53.3906 -53.3809 -27.7637 -27.7605 -27.7014 -27.6920
   -27.5925 -27.5904 -27.5314 -27.5207 -27.5026 -27.4993 -27.4402 -27.4309
    -5.2461  -5.1826  -5.1271  -5.0954  -4.8747  -4.8213  -4.7657  -4.7291
     1.8034   1.8979   1.9443   1.9925   2.7421   2.8669   2.9102   2.9859
     3.3357   3.4374   3.4935   3.5936   4.3915   4.4078   4.4649   4.4808
     5.3349   5.5287   5.6214   5.7981   6.1961   6.2350   6.2925   6.3184
     6.3365   6.4147   6.4638   6.5240   9.5521   9.5820   9.6131   9.6372
     9.6608   9.7586   9.8640  10.0514  10.8032  10.9558

          k = 0.0000 0.5052 0.0000 ( 21078 PWs)   bands (ev):

   -53.4482 -53.4454 -53.3862 -53.3764 -27.8056 -27.8024 -27.7433 -27.7339
   -27.5838 -27.5816 -27.5226 -27.5124 -27.5120 -27.5092 -27.4501 -27.4407
    -4.9716  -4.9234  -4.8705  -4.8460  -4.7533  -4.7206  -4.6685  -4.6422
     1.5754   1.6467   1.6849   1.7260   2.5036   2.6051   2.6442   2.7037
     3.2322   3.3352   3.3924   3.4797   4.2536   4.2705   4.3276   4.3437
     5.2403   5.4268   5.5092   5.6653   6.3468   6.3990   6.4568   6.4900
     6.5249   6.6038   6.6523   6.7117   9.6056   9.6200   9.6756   9.6922
     9.9102  10.0082  10.0705  10.1805  10.9990  11.1287

          k = 0.0000-0.5774 0.0000 ( 21006 PWs)   bands (ev):

   -53.4466 -53.4438 -53.3846 -53.3749 -27.8203 -27.8170 -27.7580 -27.7486
   -27.5807 -27.5786 -27.5196 -27.5159 -27.5127 -27.5089 -27.4536 -27.4442
    -4.8662  -4.8267  -4.7769  -4.7532  -4.7077  -4.6845  -4.6346  -4.6105
     1.4831   1.5501   1.5861   1.6268   2.4178   2.5103   2.5491   2.6042
     3.1843   3.2865   3.3441   3.4272   4.2068   4.2239   4.2810   4.2972
     5.2120   5.3947   5.4733   5.6206   6.3956   6.4530   6.5110   6.5472
     6.6423   6.7072   6.7492   6.7982   9.6362   9.6452   9.7016   9.7158
    10.0697  10.1262  10.1771  10.2175  11.0623  11.1771

          k = 0.0625 0.1083 0.0000 ( 21269 PWs)   bands (ev):

   -53.4831 -53.4803 -53.4211 -53.4114 -27.6521 -27.6499 -27.5909 -27.5803
   -27.4689 -27.4657 -27.4348 -27.4316 -27.4066 -27.3972 -27.3725 -27.3631
    -6.6728  -6.5822  -6.5246  -6.4720  -5.5324  -5.4030  -5.3414  -5.2494
     1.5446   1.8558   1.9749   2.2503   4.4116   4.4218   4.4319   4.4805
     4.4945   4.8065   4.9750   4.9786   4.9805   5.0370   5.0488   5.2364
     5.5960   5.6005   5.6585   5.6720   6.0923   6.2054   6.3260   6.6360
     6.9570   7.2628   7.3846   7.6275   9.8758   9.9123   9.9359   9.9630
    10.0062  10.0105  10.0545  10.1102  10.1422  10.1712

          k = 0.0625 0.1804 0.0000 ( 21194 PWs)   bands (ev):

   -53.4776 -53.4748 -53.4156 -53.4058 -27.6413 -27.6391 -27.5801 -27.5694
   -27.5224 -27.5192 -27.4601 -27.4507 -27.4485 -27.4453 -27.3862 -27.3768
    -6.4491  -6.3599  -6.3025  -6.2513  -5.4275  -5.3083  -5.2474  -5.1632
     1.7739   2.0802   2.1955   2.4638   4.0311   4.0384   4.0822   4.1059
     4.1417   4.4339   4.5642   4.7771   5.1900   5.1944   5.2244   5.2347
     5.2593   5.2650   5.2962   5.3066   6.1403   6.2778   6.4047   6.6719
     6.8790   7.0779   7.1564   7.2767   9.4763   9.5846   9.6813   9.8138
     9.8514   9.9172   9.9478   9.9815   9.9941  10.0376

          k = 0.0625 0.2526 0.0000 ( 21202 PWs)   bands (ev):

   -53.4703 -53.4675 -53.4083 -53.3986 -27.6271 -27.6250 -27.5915 -27.5883
   -27.5660 -27.5553 -27.5292 -27.5198 -27.4665 -27.4633 -27.4041 -27.3948
    -6.1380  -6.0521  -5.9949  -5.9465  -5.2820  -5.1777  -5.1180  -5.0449
     2.0171   2.2995   2.4012   2.6322   3.6340   3.6598   3.7018   3.7318
     3.8161   4.0152   4.1077   4.2527   4.8457   4.8673   4.9153   4.9405
     5.4570   5.4669   5.5236   5.5382   6.0359   6.1831   6.2999   6.5140
     6.6739   6.7619   6.8119   6.8554   9.2072   9.3699   9.4997   9.6565
     9.7743   9.8152   9.8608   9.8817   9.9726  10.1112

          k = 0.0625 0.3248 0.0000 ( 21194 PWs)   bands (ev):

   -53.4625 -53.4597 -53.4005 -53.3907 -27.6655 -27.6623 -27.6118 -27.6096
   -27.6032 -27.5938 -27.5506 -27.5399 -27.4858 -27.4826 -27.4235 -27.4141
    -5.7709  -5.6912  -5.6343  -5.5909  -5.1116  -5.0263  -4.9679  -4.9089
     2.1089   2.3148   2.3871   2.5193   3.2816   3.3842   3.4582   3.5186
     3.5874   3.6097   3.6952   3.7625   4.5372   4.5758   4.6237   4.6596
     5.6852   5.7071   5.7533   5.7781   5.8267   5.9660   6.0661   6.2424
     6.4512   6.4915   6.5386   6.5673   9.1710   9.3443   9.4559   9.5701
     9.7050   9.7569   9.7899   9.9144  10.2274  10.3911

          k = 0.0625 0.3969 0.0000 ( 21151 PWs)   bands (ev):

   -53.4552 -53.4524 -53.3932 -53.3834 -27.7331 -27.7299 -27.6708 -27.6614
   -27.5976 -27.5954 -27.5364 -27.5257 -27.5036 -27.5004 -27.4413 -27.4319
    -5.3934  -5.3238  -5.2677  -5.2320  -4.9386  -4.8752  -4.8185  -4.7753
     1.9592   2.0798   2.1327   2.1952   2.9091   3.0340   3.0788   3.1572
     3.4082   3.5026   3.5575   3.6628   4.3378   4.3797   4.4290   4.4631
     5.5596   5.7160   5.7859   5.8378   5.8530   5.8958   5.9243   5.9960
     6.4643   6.4946   6.5396   6.5666   9.3089   9.4489   9.5207   9.6001
     9.7491   9.8022   9.8481   9.9981  10.5652  10.7189

          k = 0.0625 0.4691 0.0000 ( 21105 PWs)   bands (ev):

   -53.4496 -53.4468 -53.3876 -53.3779 -27.7844 -27.7812 -27.7221 -27.7127
   -27.5866 -27.5845 -27.5255 -27.5172 -27.5148 -27.5140 -27.4549 -27.4455
    -5.0683  -5.0132  -4.9588  -4.9318  -4.7921  -4.7511  -4.6973  -4.6675
     1.7233   1.8036   1.8456   1.8885   2.5924   2.6904   2.7285   2.7868
     3.3040   3.4093   3.4661   3.5577   4.2318   4.2630   4.3127   4.3393
     5.3681   5.5286   5.6033   5.7394   5.9484   5.9884   6.0449   6.0805
     6.6368   6.6734   6.7164   6.7509   9.5083   9.5861   9.6277   9.6762
     9.8866   9.9511  10.0048  10.1237  10.8795  11.0108

          k = 0.0625 0.5413 0.0000 ( 21084 PWs)   bands (ev):

   -53.4466 -53.4438 -53.3846 -53.3749 -27.8120 -27.8088 -27.7497 -27.7403
   -27.5807 -27.5786 -27.5246 -27.5214 -27.5196 -27.5089 -27.4622 -27.4529
    -4.8725  -4.8311  -4.7808  -4.7572  -4.7054  -4.6810  -4.6308  -4.6064
     1.5629   1.6311   1.6675   1.7086   2.4131   2.4960   2.5340   2.5853
     3.2149   3.3204   3.3779   3.4615   4.1918   4.2079   4.2600   4.2806
     5.2631   5.4271   5.5002   5.6316   6.0351   6.0891   6.1465   6.1765
     6.7895   6.8344   6.8776   6.9165   9.6303   9.6502   9.6926   9.7161
    10.0637  10.1257  10.1735  10.2336  11.1066  11.2084

          k = 0.1250 0.2165 0.0000 ( 21179 PWs)   bands (ev):

   -53.4714 -53.4686 -53.4094 -53.3997 -27.6293 -27.6271 -27.5775 -27.5743
   -27.5681 -27.5575 -27.5152 -27.5058 -27.4673 -27.4641 -27.4050 -27.3956
    -6.1872  -6.1007  -6.0433  -5.9944  -5.3046  -5.1978  -5.1379  -5.0630
     1.9977   2.2893   2.3953   2.6403   3.7089   3.7198   3.7629   3.7927
     3.9086   4.1653   4.2709   4.4403   4.7086   4.7260   4.7761   4.7986
     5.3780   5.3860   5.4426   5.4574   6.2227   6.3473   6.4543   6.6462
     6.7384   6.8328   6.8874   6.9211   9.1956   9.3490   9.4643   9.6178
     9.7590   9.8107   9.8325   9.8554   9.9053   9.9925

          k = 0.1250 0.2887 0.0000 ( 21199 PWs)   bands (ev):

   -53.4642 -53.4614 -53.4022 -53.3924 -27.6408 -27.6376 -27.6151 -27.6130
   -27.5785 -27.5691 -27.5540 -27.5433 -27.4906 -27.4874 -27.4283 -27.4189
    -5.8549  -5.7734  -5.7164  -5.6715  -5.1489  -5.0588  -5.0000  -4.9375
     2.1557   2.3946   2.4769   2.6447   3.4484   3.4936   3.5558   3.6105
     3.6906   3.7996   3.8725   3.9334   4.2708   4.3322   4.3901   4.4815
     5.4758   5.4951   5.5482   5.5673   6.1487   6.2590   6.3456   6.4810
     6.5584   6.5758   6.6183   6.6432   9.0357   9.2153   9.3367   9.4920
     9.7587   9.7960   9.8281   9.8913   9.9827  10.1294

          k = 0.1250 0.3608 0.0000 ( 21195 PWs)   bands (ev):

   -53.4569 -53.4541 -53.3949 -53.3852 -27.7030 -27.6998 -27.6407 -27.6313
   -27.6009 -27.5987 -27.5397 -27.5291 -27.5143 -27.5111 -27.4519 -27.4426
    -5.4898  -5.4167  -5.3603  -5.3220  -4.9786  -4.9086  -4.8513  -4.8034
     2.1128   2.2659   2.3255   2.4106   3.1129   3.2118   3.2535   3.3172
     3.5024   3.5751   3.6306   3.7263   4.0717   4.1806   4.2482   4.3495
     5.4134   5.4438   5.4951   5.5168   5.9279   6.0287   6.0919   6.1976
     6.5234   6.5322   6.5901   6.6041   9.0740   9.2635   9.3890   9.5604
     9.8365   9.8728   9.9041   9.9842  10.2228  10.3767

          k = 0.1250 0.4330 0.0000 ( 21113 PWs)   bands (ev):

   -53.4507 -53.4479 -53.3887 -53.3790 -27.7551 -27.7519 -27.6928 -27.6834
   -27.5888 -27.5867 -27.5344 -27.5312 -27.5277 -27.5170 -27.4721 -27.4627
    -5.1446  -5.0841  -5.0290  -4.9993  -4.8186  -4.7708  -4.7158  -4.6822
     1.9352   2.0341   2.0826   2.1319   2.7013   2.7722   2.8033   2.8525
     3.4270   3.5342   3.5907   3.6797   4.0425   4.1474   4.2095   4.2899
     5.3533   5.4104   5.4618   5.4976   5.6556   5.7508   5.8068   5.9018
     6.6611   6.6747   6.7306   6.7466   9.2853   9.4587   9.5710   9.7293
     9.9508   9.9783  10.0190  10.0651  10.5354  10.6673

          k = 0.1250 0.5052 0.0000 ( 21081 PWs)   bands (ev):

   -53.4466 -53.4438 -53.3846 -53.3749 -27.7896 -27.7864 -27.7273 -27.7179
   -27.5808 -27.5786 -27.5479 -27.5447 -27.5196 -27.5089 -27.4856 -27.4762
    -4.8870  -4.8419  -4.7903  -4.7665  -4.7000  -4.6726  -4.6217  -4.5966
     1.7719   1.8469   1.8862   1.9278   2.4061   2.4631   2.4986   2.5417
     3.3082   3.4224   3.4794   3.5599   4.0922   4.1693   4.2207   4.2689
     5.3417   5.4356   5.4630   5.5076   5.5339   5.5551   5.5879   5.6891
     6.8434   6.8745   6.9239   6.9521   9.5127   9.6066   9.6622   9.7295
    10.0984  10.1504  10.1949  10.2657  10.8132  10.9135

          k = 0.1250 0.5774 0.0000 ( 21108 PWs)   bands (ev):

   -53.4452 -53.4424 -53.3832 -53.3734 -27.8017 -27.7985 -27.7394 -27.7300
   -27.5779 -27.5758 -27.5527 -27.5495 -27.5167 -27.5061 -27.4904 -27.4810
    -4.7885  -4.7520  -4.7049  -4.6803  -4.6550  -4.6373  -4.5887  -4.5650
     1.7078   1.7762   1.8114   1.8534   2.3007   2.3541   2.3916   2.4329
     3.2486   3.3620   3.4196   3.4990   4.1410   4.1856   4.2285   4.2640
     5.2839   5.4265   5.4330   5.4896   5.4930   5.5496   5.5589   5.6331
     6.9342   6.9746   7.0233   7.0580   9.5981   9.6173   9.6582   9.6856
    10.2073  10.2739  10.3200  10.3606  10.9240  11.0384

          k = 0.1875 0.3248 0.0000 ( 21195 PWs)   bands (ev):

   -53.4575 -53.4547 -53.3955 -53.3858 -27.6894 -27.6862 -27.6271 -27.6177
   -27.6021 -27.5999 -27.5409 -27.5302 -27.5210 -27.5178 -27.4587 -27.4493
    -5.5233  -5.4490  -5.3925  -5.3533  -4.9921  -4.9199  -4.8624  -4.8128
     2.1780   2.3474   2.4105   2.5084   3.2457   3.3131   3.3525   3.4021
     3.5479   3.6015   3.6664   3.7264   3.9250   4.0586   4.1420   4.2841
     5.2390   5.2697   5.3201   5.3434   6.0910   6.1753   6.2236   6.3087
     6.5271   6.5423   6.6016   6.6154   8.9846   9.1899   9.3304   9.5358
     9.8585   9.8857   9.9200   9.9674  10.0777  10.2268

          k = 0.1875 0.3969 0.0000 ( 21153 PWs)   bands (ev):

   -53.4513 -53.4485 -53.3893 -53.3796 -27.7313 -27.7281 -27.6690 -27.6596
   -27.5900 -27.5879 -27.5518 -27.5486 -27.5289 -27.5182 -27.4895 -27.4802
    -5.1864  -5.1231  -5.0677  -5.0363  -4.8319  -4.7801  -4.7246  -4.6886
     2.0951   2.2138   2.2680   2.3284   2.8003   2.8338   2.8549   2.9025
     3.5556   3.6511   3.7134   3.7766   3.9256   4.0463   4.1280   4.2568
     4.9185   4.9605   5.0138   5.0398   5.8626   5.9306   5.9658   6.0234
     6.6304   6.6490   6.7086   6.7276   9.1411   9.3577   9.5074   9.7673
     9.9846   9.9917  10.0416  10.0618  10.2612  10.3974

          k = 0.1875 0.4691 0.0000 ( 21101 PWs)   bands (ev):

   -53.4466 -53.4438 -53.3846 -53.3749 -27.7618 -27.7586 -27.6995 -27.6901
   -27.5808 -27.5786 -27.5768 -27.5736 -27.5196 -27.5145 -27.5089 -27.5051
    -4.9011  -4.8524  -4.7999  -4.7756  -4.6948  -4.6643  -4.6126  -4.5865
     2.0086   2.1007   2.1480   2.1917   2.4050   2.4316   2.4654   2.5027
     3.4739   3.5981   3.6516   3.7058   3.9889   4.1154   4.1844   4.2819
     4.7290   4.8086   4.8662   4.9234   5.5660   5.6366   5.6866   5.7308
     6.8330   6.8457   6.9060   6.9200   9.3661   9.5153   9.6036   9.7306
    10.1410  10.1853  10.2260  10.3009  10.4791  10.5670

          k = 0.1875 0.5413 0.0000 ( 21112 PWs)   bands (ev):

   -53.4441 -53.4413 -53.3820 -53.3723 -27.7778 -27.7745 -27.7155 -27.7061
   -27.5907 -27.5875 -27.5758 -27.5736 -27.5284 -27.5190 -27.5146 -27.5039
    -4.7311  -4.6963  -4.6521  -4.6265  -4.6112  -4.5982  -4.5510  -4.5275
     1.9674   2.0448   2.0829   2.1261   2.1906   2.2137   2.2563   2.2878
     3.3336   3.4558   3.5132   3.5819   4.1183   4.2076   4.2576   4.3133
     4.6824   4.7892   4.8477   4.9124   5.3611   5.4292   5.4781   5.5303
     7.0131   7.0395   7.0933   7.1184   9.4469   9.4895   9.5324   9.5698
    10.3217  10.4085  10.4599  10.5401  10.6066  10.6546

          k = 0.2500 0.4330 0.0000 ( 21125 PWs)   bands (ev):

   -53.4466 -53.4438 -53.3846 -53.3749 -27.7473 -27.7441 -27.6850 -27.6756
   -27.5917 -27.5885 -27.5808 -27.5786 -27.5294 -27.5200 -27.5196 -27.5089
    -4.9067  -4.8567  -4.8039  -4.7793  -4.6926  -4.6609  -4.6089  -4.5824
     2.1166   2.2207   2.2734   2.3166   2.4098   2.4189   2.4540   2.4875
     3.6428   3.7162   3.7860   3.8194   3.9941   4.1034   4.1818   4.3037
     4.4235   4.4502   4.5021   4.5192   5.6341   5.6775   5.7418   5.7579
     6.8175   6.8277   6.8908   6.9027   9.3047   9.4719   9.5724   9.7228
    10.1536  10.1889  10.2302  10.3081  10.3528  10.4418

          k = 0.2500 0.5052 0.0000 ( 21117 PWs)   bands (ev):

   -53.4435 -53.4407 -53.3814 -53.3717 -27.7520 -27.7488 -27.6897 -27.6803
   -27.6242 -27.6210 -27.5746 -27.5724 -27.5619 -27.5525 -27.5134 -27.5028
    -4.7030  -4.6682  -4.6254  -4.5993  -4.5858  -4.5745  -4.5284  -4.5049
     2.0923   2.1237   2.1464   2.1939   2.2468   2.3136   2.3580   2.4012
     3.5016   3.6235   3.6721   3.6979   4.0472   4.1258   4.1811   4.2260
     4.2388   4.2893   4.3480   4.4139   5.3615   5.4068   5.4750   5.4981
     7.0581   7.0669   7.1289   7.1400   9.3129   9.3732   9.4195   9.4710
    10.2911  10.3313  10.4063  10.4163  10.5538  10.5942

          k = 0.2500 0.5774 0.0000 ( 21116 PWs)   bands (ev):

   -53.4423 -53.4396 -53.3803 -53.3706 -27.7519 -27.7486 -27.6896 -27.6802
   -27.6375 -27.6343 -27.5752 -27.5724 -27.5703 -27.5658 -27.5113 -27.5006
    -4.6251  -4.5994  -4.5687  -4.5498  -4.5435  -4.5277  -4.4975  -4.4764
     1.9965   2.0210   2.0481   2.0906   2.3278   2.3804   2.4114   2.4551
     3.3509   3.4634   3.5187   3.5677   4.0036   4.1320   4.1791   4.2285
     4.3017   4.3519   4.4026   4.4431   5.2474   5.2717   5.3436   5.3596
     7.1819   7.1983   7.2559   7.2735   9.2516   9.2616   9.3132   9.3303
    10.3093  10.3670  10.4135  10.4499  10.7174  10.7402

          k = 0.3125 0.5413 0.0000 ( 21100 PWs)   bands (ev):

   -53.4417 -53.4389 -53.3797 -53.3700 -27.7308 -27.7276 -27.6685 -27.6659
   -27.6627 -27.6591 -27.6036 -27.5942 -27.5713 -27.5691 -27.5101 -27.4994
    -4.5869  -4.5653  -4.5418  -4.5291  -4.5214  -4.4944  -4.4759  -4.4578
     1.9313   1.9503   1.9824   2.0204   2.5468   2.6171   2.6559   2.6957
     3.3549   3.3844   3.4046   3.4641   3.8353   3.8724   3.8829   3.9268
     4.3487   4.4099   4.4609   4.4979   5.1579   5.1920   5.2710   5.2907
     7.2677   7.2731   7.3364   7.3459   9.1359   9.1466   9.1987   9.2155
    10.2518  10.2727  10.3225  10.3680  10.8131  10.8550

     the Fermi energy is     8.3695 ev

!    total energy              =   -1978.36922663 Ry
     total all-electron energy =    -38771.690071 Ry
     estimated scf accuracy    <          4.2E-09 Ry
     smearing contrib. (-TS)   =       0.00004447 Ry
     internal energy E=F+TS    =   -1978.36927109 Ry

     The total energy is F=E-TS. E is the sum of the following terms:
     one-electron contribution =   -1434.69282481 Ry
     hartree contribution      =     759.60922142 Ry
     xc contribution           =    -119.22633912 Ry
     ewald contribution        =      85.79138116 Ry
     one-center paw contrib.   =   -1269.85070974 Ry

     convergence has been achieved in  17 iterations

     Forces acting on atoms (cartesian axes, Ry/au):

     atom    1 type  2   force =     0.00000000    0.00000000    0.00110535
     atom    2 type  1   force =     0.00000000    0.00000000    0.00126741
     atom    3 type  2   force =     0.00000000   -0.00000000    0.00095196
     atom    4 type  2   force =     0.00000000    0.00000000   -0.00023914
     atom    5 type  1   force =     0.00000000    0.00000000   -0.00226877
     atom    6 type  2   force =     0.00000000    0.00000000   -0.00226669
     atom    7 type  2   force =     0.00000000    0.00000000    0.00288174
     atom    8 type  1   force =     0.00000000    0.00000000    0.00116214
     atom    9 type  2   force =     0.00000000    0.00000000    0.00089407
     atom   10 type  2   force =     0.00000000    0.00000000   -0.00104566
     atom   11 type  1   force =     0.00000000    0.00000000   -0.00141625
     atom   12 type  2   force =     0.00000000   -0.00000000   -0.00102616

     Total force =     0.005356     Total SCF correction =     0.000235
     Energy error            =      6.5E-04 Ry
     Gradient error          =      2.9E-03 Ry/Bohr

     number of scf cycles    =   8
     number of bfgs steps    =   7

     energy             old  =   -1978.3685778001 Ry
     energy             new  =   -1978.3692266260 Ry

     CASE: energy            _new < energy            _old

     new trust radius        =       0.0709384918 bohr
     new conv_thr            =       0.0000000065 Ry


ATOMIC_POSITIONS (crystal)
S                0.3333329997        0.6666669994       -0.1148440905
Mo               0.0000000000        0.0000000000       -0.0624020244
S                0.3333329997        0.6666669994       -0.0098922692
S                0.6666669994        0.3333329997        0.1036942062
Mo               0.3333329997        0.6666669994        0.1562655757
S                0.6666669994        0.3333329997        0.2087370821
S               -0.0000000000       -0.0000000000        0.3093742874
Mo               0.6666669994        0.3333329997        0.3619065849
S                0.0000000000        0.0000000000        0.4144246045
S                0.3333329997        0.6666669994        0.5300919099
Mo               0.0000000000        0.0000000000        0.5826065961
S                0.3333329997        0.6666669994        0.6350375345



     Writing config-only to output data dir ./tmp/relax2/mos2_slab2.save/ :
     XML data file
     NEW-OLD atomic charge density approx. for the potential

     total cpu time spent up to now is    20953.1 secs

     Self-consistent Calculation

     iteration #  1     ecut=    80.00 Ry     beta= 0.20
     Davidson diagonalization with overlap
     ethr =  1.00E-06,  avg # of iterations =  8.3

     total cpu time spent up to now is    21291.3 secs

     total energy              =   -1978.37031814 Ry
     estimated scf accuracy    <       0.00181131 Ry

     iteration #  2     ecut=    80.00 Ry     beta= 0.20
     Davidson diagonalization with overlap
     ethr =  1.74E-06,  avg # of iterations =  1.1

     total cpu time spent up to now is    21391.7 secs

     total energy              =   -1978.36989046 Ry
     estimated scf accuracy    <       0.00134799 Ry

     iteration #  3     ecut=    80.00 Ry     beta= 0.20
     Davidson diagonalization with overlap
     ethr =  1.30E-06,  avg # of iterations =  2.8

     total cpu time spent up to now is    21509.5 secs

     total energy              =   -1978.37001489 Ry
     estimated scf accuracy    <       0.00004638 Ry

     iteration #  4     ecut=    80.00 Ry     beta= 0.20
     Davidson diagonalization with overlap
     ethr =  4.46E-08,  avg # of iterations =  4.2

     total cpu time spent up to now is    21646.0 secs

     total energy              =   -1978.37002245 Ry
     estimated scf accuracy    <       0.00001655 Ry

     iteration #  5     ecut=    80.00 Ry     beta= 0.20
     Davidson diagonalization with overlap
     ethr =  1.59E-08,  avg # of iterations =  2.0

     total cpu time spent up to now is    21758.0 secs

     total energy              =   -1978.37002204 Ry
     estimated scf accuracy    <       0.00001104 Ry

     iteration #  6     ecut=    80.00 Ry     beta= 0.20
     Davidson diagonalization with overlap
     ethr =  1.06E-08,  avg # of iterations =  2.0

     total cpu time spent up to now is    21874.1 secs

     total energy              =   -1978.37002275 Ry
     estimated scf accuracy    <       0.00000205 Ry

     iteration #  7     ecut=    80.00 Ry     beta= 0.20
     Davidson diagonalization with overlap
     ethr =  1.97E-09,  avg # of iterations =  2.7

     total cpu time spent up to now is    21986.5 secs

     total energy              =   -1978.37002269 Ry
     estimated scf accuracy    <       0.00000076 Ry

     iteration #  8     ecut=    80.00 Ry     beta= 0.20
     Davidson diagonalization with overlap
     ethr =  7.35E-10,  avg # of iterations =  3.2

     total cpu time spent up to now is    22109.6 secs

     total energy              =   -1978.37002280 Ry
     estimated scf accuracy    <       0.00000060 Ry

     iteration #  9     ecut=    80.00 Ry     beta= 0.20
     Davidson diagonalization with overlap
     ethr =  5.78E-10,  avg # of iterations =  2.1

     total cpu time spent up to now is    22227.5 secs

     total energy              =   -1978.37002298 Ry
     estimated scf accuracy    <       0.00000040 Ry

     iteration # 10     ecut=    80.00 Ry     beta= 0.20
     Davidson diagonalization with overlap
     ethr =  3.89E-10,  avg # of iterations =  2.0

     total cpu time spent up to now is    22356.1 secs

     total energy              =   -1978.37002305 Ry
     estimated scf accuracy    <       0.00000026 Ry

     iteration # 11     ecut=    80.00 Ry     beta= 0.20
     Davidson diagonalization with overlap
     ethr =  2.45E-10,  avg # of iterations =  2.2

     total cpu time spent up to now is    22470.5 secs

     total energy              =   -1978.37002276 Ry
     estimated scf accuracy    <       0.00000050 Ry

     iteration # 12     ecut=    80.00 Ry     beta= 0.20
     Davidson diagonalization with overlap
     ethr =  2.45E-10,  avg # of iterations =  3.5

     total cpu time spent up to now is    22607.9 secs

     total energy              =   -1978.37002284 Ry
     estimated scf accuracy    <       0.00000009 Ry

     iteration # 13     ecut=    80.00 Ry     beta= 0.20
     Davidson diagonalization with overlap
     ethr =  8.65E-11,  avg # of iterations =  2.0

     total cpu time spent up to now is    22718.2 secs

     total energy              =   -1978.37002284 Ry
     estimated scf accuracy    <       0.00000007 Ry

     iteration # 14     ecut=    80.00 Ry     beta= 0.20
     Davidson diagonalization with overlap
     ethr =  6.76E-11,  avg # of iterations =  2.4

     total cpu time spent up to now is    22848.1 secs

     total energy              =   -1978.37002287 Ry
     estimated scf accuracy    <       0.00000003 Ry

     iteration # 15     ecut=    80.00 Ry     beta= 0.20
     Davidson diagonalization with overlap
     ethr =  3.22E-11,  avg # of iterations =  1.0

     total cpu time spent up to now is    22947.3 secs

     total energy              =   -1978.37002288 Ry
     estimated scf accuracy    <       0.00000003 Ry

     iteration # 16     ecut=    80.00 Ry     beta= 0.20
     Davidson diagonalization with overlap
     ethr =  2.85E-11,  avg # of iterations =  2.3

     total cpu time spent up to now is    23069.1 secs

     total energy              =   -1978.37002288 Ry
     estimated scf accuracy    <       0.00000002 Ry

     iteration # 17     ecut=    80.00 Ry     beta= 0.20
     Davidson diagonalization with overlap
     ethr =  1.53E-11,  avg # of iterations =  2.5

     total cpu time spent up to now is    23201.0 secs

     total energy              =   -1978.37002288 Ry
     estimated scf accuracy    <       0.00000001 Ry

     iteration # 18     ecut=    80.00 Ry     beta= 0.20
     Davidson diagonalization with overlap
     ethr =  1.19E-11,  avg # of iterations =  1.3

     total cpu time spent up to now is    23303.0 secs

     total energy              =   -1978.37002287 Ry
     estimated scf accuracy    <       0.00000001 Ry

     iteration # 19     ecut=    80.00 Ry     beta= 0.20
     Davidson diagonalization with overlap
     ethr =  1.08E-11,  avg # of iterations =  1.0

     total cpu time spent up to now is    23401.7 secs

     End of self-consistent calculation

          k = 0.0000 0.0000 0.0000 ( 21311 PWs)   bands (ev):

   -53.4872 -53.4810 -53.4308 -53.4167 -27.6607 -27.6547 -27.6047 -27.5900
   -27.4237 -27.4237 -27.4167 -27.4167 -27.3665 -27.3665 -27.3532 -27.3532
    -6.8328  -6.7579  -6.7045  -6.6488  -5.6021  -5.4795  -5.4178  -5.3255
     1.3665   1.6435   1.7846   2.0470   4.7743   4.7949   4.7949   4.8058
     4.8058   4.8550   4.8551   4.8659   4.8659   5.2699   5.6305   5.9100
     5.9100   5.9181   5.9182   5.9683   5.9683   5.9822   5.9822   6.2425
     6.9596   7.3413   7.5347   7.8550  10.1328  10.1329  10.1591  10.1591
    10.2011  10.2011  10.2284  10.2284  10.3428  10.3429

          k = 0.0000 0.0722 0.0000 ( 21283 PWs)   bands (ev):

   -53.4857 -53.4794 -53.4292 -53.4152 -27.6576 -27.6517 -27.6016 -27.5870
   -27.4392 -27.4322 -27.4272 -27.4202 -27.3820 -27.3700 -27.3687 -27.3567
    -6.7733  -6.6986  -6.6452  -6.5897  -5.5744  -5.4541  -5.3927  -5.3023
     1.4354   1.7120   1.8527   2.1151   4.6397   4.6613   4.6702   4.7196
     4.7314   4.8572   4.8680   4.9173   4.9284   5.0653   5.3154   5.5843
     5.8128   5.8213   5.8717   5.8859   6.0002   6.0681   6.1649   6.4821
     6.9640   7.3235   7.4952   7.7747  10.0629  10.0717  10.1190  10.1405
    10.1847  10.2142  10.2143  10.2463  10.2530  10.2752

          k = 0.0000 0.1443 0.0000 ( 21263 PWs)   bands (ev):

   -53.4813 -53.4750 -53.4248 -53.4107 -27.6490 -27.6431 -27.5930 -27.5783
   -27.4832 -27.4762 -27.4372 -27.4302 -27.4260 -27.4128 -27.3801 -27.3668
    -6.5994  -6.5256  -6.4723  -6.4176  -5.4935  -5.3799  -5.3199  -5.2346
     1.6275   1.9014   2.0401   2.3009   4.3052   4.3184   4.3354   4.3719
     4.3868   4.6698   4.8452   5.0367   5.0469   5.0655   5.0965   5.1085
     5.5615   5.5710   5.6217   5.6366   6.0551   6.1793   6.3224   6.6307
     6.9399   7.2186   7.3389   7.5161   9.7499   9.8190   9.8795   9.9264
     9.9794  10.0139  10.0693  10.0774  10.1046  10.1238

          k = 0.0000 0.2165 0.0000 ( 21233 PWs)   bands (ev):

   -53.4746 -53.4684 -53.4181 -53.4041 -27.6360 -27.6301 -27.5800 -27.5654
   -27.5486 -27.5415 -27.4914 -27.4781 -27.4522 -27.4452 -27.3950 -27.3818
    -6.3261  -6.2543  -6.2013  -6.1483  -5.3667  -5.2641  -5.2059  -5.1291
     1.8881   2.1505   2.2809   2.5285   3.8701   3.8853   3.9212   3.9455
     3.9966   4.2275   4.3514   4.5180   5.2355   5.2442   5.2932   5.3099
     5.3129   5.3267   5.3719   5.3850   5.9636   6.1231   6.2753   6.5428
     6.8028   6.9571   7.0261   7.1052   9.3624   9.4965   9.6311   9.8296
     9.8493   9.9073   9.9552   9.9571   9.9993  10.0880

          k = 0.0000 0.2887 0.0000 ( 21197 PWs)   bands (ev):

   -53.4668 -53.4605 -53.4103 -53.3963 -27.6248 -27.6207 -27.6177 -27.6148
   -27.5676 -27.5647 -27.5544 -27.5500 -27.4698 -27.4628 -27.4126 -27.3994
    -5.9787  -5.9111  -5.8585  -5.8088  -5.2064  -5.1188  -5.0630  -4.9975
     2.0889   2.3082   2.4104   2.5951   3.4684   3.5182   3.5739   3.6058
     3.6818   3.7917   3.8746   3.9771   4.9068   4.9183   4.9698   4.9864
     5.6349   5.6473   5.6982   5.7145   5.7466   5.9268   6.0684   6.2918
     6.5369   6.6079   6.6516   6.6939   9.2253   9.4017   9.5697   9.6621
     9.7165   9.7665   9.8078   9.8260  10.1680  10.3349

          k = 0.0000 0.3608 0.0000 ( 21187 PWs)   bands (ev):

   -53.4589 -53.4527 -53.4024 -53.3884 -27.7002 -27.6930 -27.6429 -27.6297
   -27.6053 -27.5994 -27.5493 -27.5347 -27.4874 -27.4803 -27.4302 -27.4169
    -5.5955  -5.5353  -5.4834  -5.4394  -5.0320  -4.9625  -4.9094  -4.8573
     2.0523   2.1874   2.2511   2.3436   3.0967   3.2173   3.2785   3.3890
     3.4454   3.5305   3.5822   3.6705   4.6183   4.6308   4.6824   4.6996
     5.5128   5.6983   5.8205   5.9528   5.9725   6.0117   6.0239   6.0453
     6.3210   6.3807   6.4243   6.4645   9.3454   9.5186   9.5604   9.6033
     9.6526   9.6742   9.6880   9.9130  10.4938  10.6626

          k = 0.0000 0.4330 0.0000 ( 21140 PWs)   bands (ev):

   -53.4522 -53.4460 -53.3958 -53.3817 -27.7634 -27.7562 -27.7061 -27.6929
   -27.5922 -27.5864 -27.5363 -27.5216 -27.5022 -27.4951 -27.4450 -27.4317
    -5.2311  -5.1823  -5.1315  -5.0957  -4.8693  -4.8198  -4.7697  -4.7314
     1.8186   1.8968   1.9422   1.9933   2.7567   2.8634   2.9092   2.9862
     3.3408   3.4357   3.4928   3.5885   4.3975   4.4107   4.4623   4.4799
     5.3403   5.5201   5.6253   5.7926   6.2048   6.2368   6.2886   6.3172
     6.3383   6.4150   6.4632   6.5212   9.5574   9.5840   9.6132   9.6325
     9.6592   9.7531   9.8683  10.0474  10.8018  10.9528

          k = 0.0000 0.5052 0.0000 ( 21078 PWs)   bands (ev):

   -53.4478 -53.4415 -53.3913 -53.3772 -27.8053 -27.7980 -27.7479 -27.7348
   -27.5835 -27.5776 -27.5275 -27.5128 -27.5121 -27.5050 -27.4549 -27.4416
    -4.9576  -4.9230  -4.8737  -4.8462  -4.7500  -4.7187  -4.6722  -4.6434
     1.5892   1.6463   1.6840   1.7257   2.5182   2.6031   2.6417   2.7033
     3.2401   3.3337   3.3902   3.4752   4.2597   4.2733   4.3250   4.3428
     5.2471   5.4191   5.5118   5.6588   6.3570   6.4004   6.4526   6.4882
     6.5270   6.6032   6.6516   6.7101   9.6091   9.6226   9.6714   9.6911
     9.9119  10.0048  10.0717  10.1773  10.9975  11.1253

          k = 0.0000-0.5774 0.0000 ( 21006 PWs)   bands (ev):

   -53.4462 -53.4400 -53.3897 -53.3757 -27.8199 -27.8127 -27.7626 -27.7495
   -27.5804 -27.5746 -27.5245 -27.5155 -27.5098 -27.5085 -27.4583 -27.4451
    -4.8529  -4.8264  -4.7785  -4.7537  -4.7053  -4.6825  -4.6379  -4.6116
     1.4968   1.5497   1.5855   1.6260   2.4327   2.5087   2.5459   2.6035
     3.1928   3.2852   3.3415   3.4229   4.2130   4.2267   4.2784   4.2963
     5.2193   5.3875   5.4751   5.6136   6.4063   6.4542   6.5067   6.5451
     6.6444   6.7068   6.7480   6.7972   9.6388   9.6484   9.6976   9.7147
    10.0727  10.1272  10.1728  10.2153  11.0608  11.1729

          k = 0.0625 0.1083 0.0000 ( 21269 PWs)   bands (ev):

   -53.4827 -53.4764 -53.4262 -53.4122 -27.6518 -27.6459 -27.5958 -27.5811
   -27.4685 -27.4615 -27.4344 -27.4274 -27.4114 -27.3981 -27.3773 -27.3640
    -6.6565  -6.5824  -6.5290  -6.4741  -5.5201  -5.4043  -5.3438  -5.2567
     1.5665   1.8415   1.9811   2.2429   4.4146   4.4283   4.4367   4.4798
     4.4932   4.7930   4.9761   4.9856   4.9901   5.0363   5.0474   5.2312
     5.5986   5.6055   5.6567   5.6706   6.0937   6.1993   6.3294   6.6355
     6.9556   7.2640   7.3980   7.6050   9.8774   9.9155   9.9361   9.9615
    10.0074  10.0115  10.0530  10.1059  10.1474  10.1732

          k = 0.0625 0.1804 0.0000 ( 21194 PWs)   bands (ev):

   -53.4772 -53.4709 -53.4207 -53.4066 -27.6410 -27.6351 -27.5850 -27.5703
   -27.5220 -27.5149 -27.4648 -27.4515 -27.4482 -27.4411 -27.3910 -27.3777
    -6.4328  -6.3601  -6.3069  -6.2532  -5.4160  -5.3091  -5.2501  -5.1699
     1.7969   2.0660   2.2010   2.4572   4.0350   4.0427   4.0843   4.1045
     4.1448   4.4244   4.5727   4.7702   5.1927   5.2003   5.2305   5.2355
     5.2591   5.2637   5.2933   5.3050   6.1412   6.2708   6.4078   6.6720
     6.8781   7.0805   7.1625   7.2666   9.4755   9.5830   9.6839   9.8147
     9.8530   9.9176   9.9515   9.9832   9.9975  10.0350

          k = 0.0625 0.2526 0.0000 ( 21202 PWs)   bands (ev):

   -53.4699 -53.4637 -53.4134 -53.3994 -27.6268 -27.6209 -27.5912 -27.5840
   -27.5709 -27.5562 -27.5339 -27.5207 -27.4661 -27.4591 -27.4089 -27.3956
    -6.1218  -6.0522  -5.9994  -5.9481  -5.2719  -5.1779  -5.1211  -5.0507
     2.0413   2.2867   2.4049   2.6276   3.6409   3.6625   3.7042   3.7295
     3.8162   4.0120   4.1130   4.2452   4.8486   4.8710   4.9133   4.9394
     5.4610   5.4710   5.5218   5.5370   6.0369   6.1762   6.3035   6.5133
     6.6741   6.7648   6.8114   6.8529   9.2057   9.3658   9.5048   9.6569
     9.7770   9.8154   9.8577   9.8817   9.9713  10.1174

          k = 0.0625 0.3248 0.0000 ( 21194 PWs)   bands (ev):

   -53.4621 -53.4558 -53.4056 -53.3915 -27.6652 -27.6580 -27.6115 -27.6079
   -27.6056 -27.5947 -27.5555 -27.5408 -27.4855 -27.4784 -27.4282 -27.4150
    -5.7550  -5.6911  -5.6389  -5.5921  -5.1032  -5.0257  -4.9714  -4.9135
     2.1313   2.3073   2.3870   2.5182   3.2964   3.3833   3.4502   3.5182
     3.5853   3.6214   3.7008   3.7464   4.5406   4.5783   4.6215   4.6587
     5.6922   5.7088   5.7528   5.7769   5.8269   5.9595   6.0700   6.2400
     6.4534   6.4945   6.5356   6.5654   9.1701   9.3390   9.4609   9.5706
     9.7061   9.7556   9.7888   9.9130  10.2265  10.3912

          k = 0.0625 0.3969 0.0000 ( 21151 PWs)   bands (ev):

   -53.4548 -53.4485 -53.3983 -53.3843 -27.7328 -27.7256 -27.6755 -27.6623
   -27.5972 -27.5914 -27.5413 -27.5266 -27.5033 -27.4962 -27.4461 -27.4328
    -5.3780  -5.3236  -5.2723  -5.2326  -4.9322  -4.8740  -4.8225  -4.7783
     1.9764   2.0776   2.1302   2.1961   2.9231   3.0304   3.0786   3.1583
     3.4111   3.5011   3.5576   3.6579   4.3420   4.3821   4.4266   4.4623
     5.5640   5.7088   5.7882   5.8419   5.8579   5.8942   5.9223   5.9914
     6.4663   6.4973   6.5368   6.5650   9.3094   9.4447   9.5234   9.5999
     9.7496   9.8004   9.8492   9.9950  10.5644  10.7166

          k = 0.0625 0.4691 0.0000 ( 21105 PWs)   bands (ev):

   -53.4492 -53.4430 -53.3927 -53.3787 -27.7841 -27.7768 -27.7267 -27.7136
   -27.5863 -27.5805 -27.5304 -27.5169 -27.5157 -27.5098 -27.4597 -27.4464
    -5.0539  -5.0128  -4.9627  -4.9319  -4.7880  -4.7494  -4.7012  -4.6690
     1.7377   1.8031   1.8440   1.8887   2.6058   2.6887   2.7269   2.7866
     3.3119   3.4073   3.4643   3.5538   4.2372   4.2654   4.3103   4.3384
     5.3736   5.5220   5.6052   5.7344   5.9570   5.9897   6.0408   6.0786
     6.6390   6.6753   6.7139   6.7494   9.5101   9.5852   9.6271   9.6754
     9.8875   9.9489  10.0059  10.1204  10.8790  11.0080

          k = 0.0625 0.5413 0.0000 ( 21084 PWs)   bands (ev):

   -53.4462 -53.4400 -53.3897 -53.3757 -27.8117 -27.8044 -27.7543 -27.7412
   -27.5804 -27.5746 -27.5245 -27.5242 -27.5171 -27.5098 -27.4670 -27.4537
    -4.8590  -4.8309  -4.7827  -4.7576  -4.7030  -4.6790  -4.6341  -4.6076
     1.5768   1.6307   1.6668   1.7078   2.4267   2.4949   2.5314   2.5845
     3.2240   3.3188   3.3753   3.4576   4.1990   4.2092   4.2582   4.2791
     5.2694   5.4210   5.5015   5.6254   6.0461   6.0898   6.1413   6.1745
     6.7921   6.8357   6.8752   6.9151   9.6326   9.6522   9.6898   9.7147
    10.0661  10.1257  10.1711  10.2311  11.1069  11.2065

          k = 0.1250 0.2165 0.0000 ( 21179 PWs)   bands (ev):

   -53.4710 -53.4648 -53.4145 -53.4005 -27.6290 -27.6231 -27.5772 -27.5730
   -27.5700 -27.5583 -27.5199 -27.5067 -27.4670 -27.4599 -27.4098 -27.3965
    -6.1710  -6.1007  -6.0479  -5.9961  -5.2943  -5.1981  -5.1409  -5.0689
     2.0220   2.2758   2.3995   2.6351   3.7164   3.7203   3.7646   3.7907
     3.9119   4.1592   4.2780   4.4331   4.7105   4.7302   4.7739   4.7969
     5.3820   5.3902   5.4411   5.4560   6.2230   6.3413   6.4563   6.6468
     6.7381   6.8372   6.8870   6.9189   9.1947   9.3453   9.4692   9.6162
     9.7642   9.8073   9.8326   9.8528   9.9043  10.0047

          k = 0.1250 0.2887 0.0000 ( 21199 PWs)   bands (ev):

   -53.4638 -53.4575 -53.4073 -53.3932 -27.6405 -27.6333 -27.6148 -27.6089
   -27.5832 -27.5700 -27.5588 -27.5442 -27.4902 -27.4832 -27.4330 -27.4198
    -5.8389  -5.7733  -5.7210  -5.6729  -5.1400  -5.0584  -5.0035  -4.9424
     2.1796   2.3848   2.4781   2.6422   3.4609   3.4947   3.5508   3.6118
     3.6892   3.8041   3.8742   3.9274   4.2725   4.3329   4.3900   4.4764
     5.4830   5.4969   5.5461   5.5661   6.1493   6.2543   6.3479   6.4811
     6.5600   6.5792   6.6162   6.6417   9.0349   9.2098   9.3420   9.4900
     9.7616   9.7940   9.8264   9.8924   9.9815  10.1383

          k = 0.1250 0.3608 0.0000 ( 21195 PWs)   bands (ev):

   -53.4565 -53.4503 -53.4000 -53.3860 -27.7027 -27.6955 -27.6454 -27.6322
   -27.6006 -27.5947 -27.5446 -27.5300 -27.5139 -27.5068 -27.4567 -27.4434
    -5.4742  -5.4165  -5.3649  -5.3228  -4.9716  -4.9076  -4.8552  -4.8069
     2.1324   2.2619   2.3234   2.4106   3.1253   3.2108   3.2545   3.3180
     3.5029   3.5740   3.6305   3.7252   4.0739   4.1804   4.2494   4.3431
     5.4215   5.4450   5.4921   5.5158   5.9302   6.0245   6.0938   6.1958
     6.5275   6.5345   6.5859   6.6028   9.0740   9.2568   9.3944   9.5581
     9.8382   9.8718   9.9029   9.9844  10.2218  10.3777

          k = 0.1250 0.4330 0.0000 ( 21113 PWs)   bands (ev):

   -53.4503 -53.4441 -53.3939 -53.3798 -27.7548 -27.7476 -27.6974 -27.6843
   -27.5885 -27.5827 -27.5341 -27.5326 -27.5270 -27.5179 -27.4769 -27.4636
    -5.1297  -5.0838  -5.0333  -4.9995  -4.8139  -4.7691  -4.7198  -4.6841
     1.9511   2.0329   2.0800   2.1327   2.7117   2.7717   2.8036   2.8518
     3.4366   3.5311   3.5887   3.6787   4.0461   4.1470   4.2093   4.2863
     5.3632   5.4111   5.4580   5.4967   5.6583   5.7474   5.8068   5.8981
     6.6642   6.6777   6.7266   6.7452   9.2864   9.4523   9.5753   9.7275
     9.9525   9.9795  10.0167  10.0629  10.5360  10.6656

          k = 0.1250 0.5052 0.0000 ( 21081 PWs)   bands (ev):

   -53.4462 -53.4400 -53.3897 -53.3757 -27.7893 -27.7821 -27.7320 -27.7188
   -27.5804 -27.5746 -27.5476 -27.5405 -27.5245 -27.5098 -27.4903 -27.4771
    -4.8732  -4.8415  -4.7929  -4.7667  -4.6976  -4.6706  -4.6251  -4.5977
     1.7866   1.8464   1.8850   1.9276   2.4166   2.4630   2.4974   2.5405
     3.3194   3.4200   3.4768   3.5575   4.0978   4.1697   4.2186   4.2682
     5.3541   5.4403   5.4648   5.5019   5.5320   5.5500   5.5873   5.6836
     6.8464   6.8768   6.9204   6.9504   9.5145   9.6046   9.6623   9.7286
    10.1005  10.1504  10.1932  10.2634  10.8191  10.9117

          k = 0.1250 0.5774 0.0000 ( 21108 PWs)   bands (ev):

   -53.4447 -53.4385 -53.3883 -53.3742 -27.8014 -27.7941 -27.7440 -27.7309
   -27.5776 -27.5718 -27.5523 -27.5452 -27.5217 -27.5070 -27.4951 -27.4818
    -4.7753  -4.7518  -4.7053  -4.6811  -4.6536  -4.6352  -4.5917  -4.5663
     1.7226   1.7757   1.8109   1.8525   2.3115   2.3539   2.3898   2.4317
     3.2598   3.3600   3.4169   3.4962   4.1476   4.1864   4.2267   4.2631
     5.2937   5.4260   5.4386   5.4900   5.4915   5.5455   5.5544   5.6270
     6.9373   6.9764   7.0200   7.0562   9.6000   9.6191   9.6557   9.6843
    10.2100  10.2743  10.3167  10.3589  10.9364  11.0355

          k = 0.1875 0.3248 0.0000 ( 21195 PWs)   bands (ev):

   -53.4571 -53.4509 -53.4006 -53.3866 -27.6891 -27.6819 -27.6318 -27.6186
   -27.6018 -27.5959 -27.5458 -27.5311 -27.5207 -27.5136 -27.4635 -27.4502
    -5.5076  -5.4488  -5.3971  -5.3542  -4.9850  -4.9189  -4.8662  -4.8165
     2.1987   2.3425   2.4088   2.5078   3.2573   3.3159   3.3546   3.4000
     3.5481   3.6022   3.6637   3.7288   3.9246   4.0588   4.1461   4.2720
     5.2473   5.2708   5.3172   5.3423   6.0937   6.1715   6.2257   6.3078
     6.5322   6.5442   6.5966   6.6141   8.9845   9.1826   9.3364   9.5330
     9.8610   9.8848   9.9189   9.9679  10.0763  10.2322

          k = 0.1875 0.3969 0.0000 ( 21153 PWs)   bands (ev):

   -53.4509 -53.4447 -53.3945 -53.3804 -27.7310 -27.7238 -27.6737 -27.6605
   -27.5897 -27.5839 -27.5515 -27.5444 -27.5338 -27.5191 -27.4943 -27.4810
    -5.1713  -5.1228  -5.0721  -5.0366  -4.8268  -4.7786  -4.7286  -4.6908
     2.1124   2.2119   2.2650   2.3289   2.8078   2.8341   2.8584   2.9002
     3.5718   3.6485   3.7073   3.7793   3.9242   4.0477   4.1315   4.2449
     4.9271   4.9616   5.0096   5.0388   5.8689   5.9295   5.9625   6.0206
     6.6344   6.6517   6.7041   6.7257   9.1424   9.3490   9.5136   9.7641
     9.9875   9.9939  10.0389  10.0605  10.2605  10.3981

          k = 0.1875 0.4691 0.0000 ( 21101 PWs)   bands (ev):

   -53.4462 -53.4400 -53.3897 -53.3757 -27.7615 -27.7542 -27.7041 -27.6910
   -27.5804 -27.5764 -27.5746 -27.5693 -27.5245 -27.5192 -27.5098 -27.5059
    -4.8869  -4.8521  -4.8029  -4.7756  -4.6922  -4.6623  -4.6162  -4.5877
     2.0250   2.0998   2.1451   2.1923   2.4126   2.4320   2.4660   2.5007
     3.4888   3.5954   3.6483   3.7073   3.9916   4.1139   4.1849   4.2771
     4.7407   4.8086   4.8620   4.9206   5.5714   5.6370   5.6807   5.7271
     6.8359   6.8488   6.9014   6.9185   9.3685   9.5099   9.6062   9.7290
    10.1438  10.1853  10.2238  10.2994  10.4813  10.5695

          k = 0.1875 0.5413 0.0000 ( 21112 PWs)   bands (ev):

   -53.4436 -53.4374 -53.3872 -53.3731 -27.7775 -27.7702 -27.7201 -27.7070
   -27.5903 -27.5832 -27.5754 -27.5696 -27.5331 -27.5199 -27.5195 -27.5048
    -4.7180  -4.6962  -4.6512  -4.6275  -4.6110  -4.5959  -4.5539  -4.5288
     1.9854   2.0437   2.0816   2.1254   2.1979   2.2142   2.2550   2.2861
     3.3467   3.4536   3.5103   3.5805   4.1251   4.2068   4.2557   4.3132
     4.6962   4.7885   4.8438   4.9092   5.3623   5.4290   5.4736   5.5257
     7.0162   7.0421   7.0892   7.1164   9.4494   9.4907   9.5300   9.5686
    10.3262  10.4057  10.4574  10.5390  10.6134  10.6559

          k = 0.2500 0.4330 0.0000 ( 21125 PWs)   bands (ev):

   -53.4462 -53.4400 -53.3897 -53.3757 -27.7470 -27.7398 -27.6896 -27.6765
   -27.5913 -27.5842 -27.5805 -27.5746 -27.5341 -27.5245 -27.5209 -27.5098
    -4.8925  -4.8564  -4.8071  -4.7793  -4.6900  -4.6589  -4.6125  -4.5835
     2.1340   2.2196   2.2698   2.3182   2.4161   2.4192   2.4551   2.4850
     3.6659   3.7169   3.7822   3.8169   3.9931   4.1043   4.1848   4.2932
     4.4277   4.4521   4.4983   4.5181   5.6456   5.6759   5.7309   5.7567
     6.8203   6.8311   6.8861   6.9010   9.3074   9.4654   9.5755   9.7212
    10.1570  10.1888  10.2262  10.3069  10.3540  10.4474

          k = 0.2500 0.5052 0.0000 ( 21117 PWs)   bands (ev):

   -53.4430 -53.4368 -53.3866 -53.3725 -27.7517 -27.7445 -27.6944 -27.6812
   -27.6239 -27.6168 -27.5743 -27.5685 -27.5666 -27.5534 -27.5184 -27.5037
    -4.6899  -4.6680  -4.6240  -4.6006  -4.5860  -4.5722  -4.5312  -4.5062
     2.1058   2.1228   2.1519   2.1913   2.2536   2.3135   2.3556   2.4007
     3.5167   3.6221   3.6698   3.7002   4.0622   4.1282   4.1797   4.2232
     4.2355   4.2882   4.3474   4.4068   5.3694   5.4066   5.4658   5.4941
     7.0606   7.0703   7.1240   7.1387   9.3159   9.3733   9.4178   9.4699
    10.2967  10.3326  10.3996  10.4141  10.5528  10.5968

          k = 0.2500 0.5774 0.0000 ( 21116 PWs)   bands (ev):

   -53.4419 -53.4357 -53.3855 -53.3714 -27.7515 -27.7443 -27.6942 -27.6811
   -27.6371 -27.6300 -27.5799 -27.5721 -27.5667 -27.5663 -27.5162 -27.5015
    -4.6128  -4.5995  -4.5646  -4.5499  -4.5418  -4.5291  -4.5008  -4.4781
     2.0072   2.0203   2.0521   2.0882   2.3376   2.3802   2.4119   2.4538
     3.3630   3.4621   3.5155   3.5678   4.0248   4.1291   4.1780   4.2316
     4.2973   4.3499   4.4003   4.4409   5.2528   5.2718   5.3340   5.3554
     7.1847   7.2012   7.2514   7.2717   9.2538   9.2647   9.3103   9.3290
    10.3155  10.3679  10.4124  10.4438  10.7155  10.7407

          k = 0.3125 0.5413 0.0000 ( 21100 PWs)   bands (ev):

   -53.4413 -53.4351 -53.3849 -53.3708 -27.7305 -27.7232 -27.6731 -27.6656
   -27.6600 -27.6584 -27.6083 -27.5951 -27.5709 -27.5651 -27.5150 -27.5003
    -4.5751  -4.5655  -4.5375  -4.5285  -4.5185  -4.4965  -4.4800  -4.4596
     1.9411   1.9495   1.9853   2.0180   2.5605   2.6169   2.6542   2.6950
     3.3672   3.3896   3.4062   3.4601   3.8461   3.8731   3.8813   3.9223
     4.3501   4.4104   4.4569   4.4965   5.1657   5.1919   5.2631   5.2827
     7.2700   7.2765   7.3311   7.3448   9.1378   9.1501   9.1959   9.2143
    10.2557  10.2752  10.3211  10.3624  10.8107  10.8566

     the Fermi energy is     8.3560 ev

!    total energy              =   -1978.37002286 Ry
     total all-electron energy =    -38771.690868 Ry
     estimated scf accuracy    <          6.4E-09 Ry
     smearing contrib. (-TS)   =       0.00003646 Ry
     internal energy E=F+TS    =   -1978.37005933 Ry

     The total energy is F=E-TS. E is the sum of the following terms:
     one-electron contribution =   -1436.19413436 Ry
     hartree contribution      =     760.36025562 Ry
     xc contribution           =    -119.22349483 Ry
     ewald contribution        =      86.53778582 Ry
     one-center paw contrib.   =   -1269.85047158 Ry

     convergence has been achieved in  19 iterations

     Forces acting on atoms (cartesian axes, Ry/au):

     atom    1 type  2   force =     0.00000000    0.00000000    0.00107786
     atom    2 type  1   force =     0.00000000    0.00000000    0.00118433
     atom    3 type  2   force =     0.00000000   -0.00000000    0.00088059
     atom    4 type  2   force =     0.00000000   -0.00000000    0.00001444
     atom    5 type  1   force =     0.00000000    0.00000000   -0.00153638
     atom    6 type  2   force =     0.00000000    0.00000000   -0.00177083
     atom    7 type  2   force =     0.00000000    0.00000000    0.00219389
     atom    8 type  1   force =     0.00000000    0.00000000    0.00078117
     atom    9 type  2   force =     0.00000000    0.00000000    0.00054192
     atom   10 type  2   force =     0.00000000    0.00000000   -0.00106196
     atom   11 type  1   force =     0.00000000    0.00000000   -0.00131467
     atom   12 type  2   force =     0.00000000   -0.00000000   -0.00099037

     Total force =     0.004288     Total SCF correction =     0.000346
     Energy error            =      8.0E-04 Ry
     Gradient error          =      2.2E-03 Ry/Bohr

     number of scf cycles    =   9
     number of bfgs steps    =   8

     energy             old  =   -1978.3692266260 Ry
     energy             new  =   -1978.3700228625 Ry

     CASE: energy            _new < energy            _old

     new trust radius        =       0.1064077377 bohr
     new conv_thr            =       0.0000000080 Ry


ATOMIC_POSITIONS (crystal)
S                0.3333329987        0.6666669974       -0.1139487159
Mo               0.0000000000        0.0000000000       -0.0615093094
S                0.3333329987        0.6666669974       -0.0090082588
S                0.6666669974        0.3333329987        0.1018693194
Mo               0.3333329987        0.6666669974        0.1544330099
S                0.6666669974        0.3333329987        0.2069347574
S                0.0000000000        0.0000000000        0.3112327122
Mo               0.6666669974        0.3333329987        0.3637769801
S                0.0000000000        0.0000000000        0.4163015562
S                0.3333329987        0.6666669974        0.5291574512
Mo               0.0000000000        0.0000000000        0.5816658610
S                0.3333329987        0.6666669974        0.6340946246



     Writing config-only to output data dir ./tmp/relax2/mos2_slab2.save/ :
     XML data file
     NEW-OLD atomic charge density approx. for the potential

     total cpu time spent up to now is    23456.7 secs

     Self-consistent Calculation

     iteration #  1     ecut=    80.00 Ry     beta= 0.20
     Davidson diagonalization with overlap
     ethr =  1.00E-06,  avg # of iterations =  9.7

     total cpu time spent up to now is    23831.6 secs

     total energy              =   -1978.37161351 Ry
     estimated scf accuracy    <       0.00425449 Ry

     iteration #  2     ecut=    80.00 Ry     beta= 0.20
     Davidson diagonalization with overlap
     ethr =  4.09E-06,  avg # of iterations =  1.0

     total cpu time spent up to now is    23930.6 secs

     total energy              =   -1978.37056506 Ry
     estimated scf accuracy    <       0.00314189 Ry

     iteration #  3     ecut=    80.00 Ry     beta= 0.20
     Davidson diagonalization with overlap
     ethr =  3.02E-06,  avg # of iterations =  2.8

     total cpu time spent up to now is    24048.5 secs

     total energy              =   -1978.37085088 Ry
     estimated scf accuracy    <       0.00011737 Ry

     iteration #  4     ecut=    80.00 Ry     beta= 0.20
     Davidson diagonalization with overlap
     ethr =  1.13E-07,  avg # of iterations =  4.4

     total cpu time spent up to now is    24186.9 secs

     total energy              =   -1978.37087314 Ry
     estimated scf accuracy    <       0.00004179 Ry

     iteration #  5     ecut=    80.00 Ry     beta= 0.20
     Davidson diagonalization with overlap
     ethr =  4.02E-08,  avg # of iterations =  2.0

     total cpu time spent up to now is    24298.8 secs

     total energy              =   -1978.37087358 Ry
     estimated scf accuracy    <       0.00001939 Ry

     iteration #  6     ecut=    80.00 Ry     beta= 0.20
     Davidson diagonalization with overlap
     ethr =  1.86E-08,  avg # of iterations =  2.3

     total cpu time spent up to now is    24409.9 secs

     total energy              =   -1978.37087419 Ry
     estimated scf accuracy    <       0.00000470 Ry

     iteration #  7     ecut=    80.00 Ry     beta= 0.20
     Davidson diagonalization with overlap
     ethr =  4.52E-09,  avg # of iterations =  2.9

     total cpu time spent up to now is    24530.5 secs

     total energy              =   -1978.37087502 Ry
     estimated scf accuracy    <       0.00000103 Ry

     iteration #  8     ecut=    80.00 Ry     beta= 0.20
     Davidson diagonalization with overlap
     ethr =  9.86E-10,  avg # of iterations =  3.7

     total cpu time spent up to now is    24642.2 secs

     total energy              =   -1978.37087519 Ry
     estimated scf accuracy    <       0.00000086 Ry

     iteration #  9     ecut=    80.00 Ry     beta= 0.20
     Davidson diagonalization with overlap
     ethr =  8.22E-10,  avg # of iterations =  2.0

     total cpu time spent up to now is    24755.6 secs

     total energy              =   -1978.37087533 Ry
     estimated scf accuracy    <       0.00000055 Ry

     iteration # 10     ecut=    80.00 Ry     beta= 0.20
     Davidson diagonalization with overlap
     ethr =  5.29E-10,  avg # of iterations =  1.1

     total cpu time spent up to now is    24855.6 secs

     total energy              =   -1978.37087527 Ry
     estimated scf accuracy    <       0.00000040 Ry

     iteration # 11     ecut=    80.00 Ry     beta= 0.20
     Davidson diagonalization with overlap
     ethr =  3.83E-10,  avg # of iterations =  2.3

     total cpu time spent up to now is    24990.6 secs

     total energy              =   -1978.37087515 Ry
     estimated scf accuracy    <       0.00000047 Ry

     iteration # 12     ecut=    80.00 Ry     beta= 0.20
     Davidson diagonalization with overlap
     ethr =  3.83E-10,  avg # of iterations =  2.0

     total cpu time spent up to now is    25101.9 secs

     total energy              =   -1978.37087518 Ry
     estimated scf accuracy    <       0.00000011 Ry

     iteration # 13     ecut=    80.00 Ry     beta= 0.20
     Davidson diagonalization with overlap
     ethr =  1.10E-10,  avg # of iterations =  2.0

     total cpu time spent up to now is    25213.5 secs

     total energy              =   -1978.37087516 Ry
     estimated scf accuracy    <       0.00000009 Ry

     iteration # 14     ecut=    80.00 Ry     beta= 0.20
     Davidson diagonalization with overlap
     ethr =  8.34E-11,  avg # of iterations =  2.4

     total cpu time spent up to now is    25326.0 secs

     total energy              =   -1978.37087517 Ry
     estimated scf accuracy    <       0.00000003 Ry

     iteration # 15     ecut=    80.00 Ry     beta= 0.20
     Davidson diagonalization with overlap
     ethr =  3.34E-11,  avg # of iterations =  2.0

     total cpu time spent up to now is    25437.3 secs

     total energy              =   -1978.37087519 Ry
     estimated scf accuracy    <       0.00000003 Ry

     iteration # 16     ecut=    80.00 Ry     beta= 0.20
     Davidson diagonalization with overlap
     ethr =  2.89E-11,  avg # of iterations =  2.0

     total cpu time spent up to now is    25557.7 secs

     total energy              =   -1978.37087520 Ry
     estimated scf accuracy    <       0.00000002 Ry

     iteration # 17     ecut=    80.00 Ry     beta= 0.20
     Davidson diagonalization with overlap
     ethr =  1.61E-11,  avg # of iterations =  3.0

     total cpu time spent up to now is    25684.3 secs

     total energy              =   -1978.37087521 Ry
     estimated scf accuracy    <       0.00000001 Ry

     iteration # 18     ecut=    80.00 Ry     beta= 0.20
     Davidson diagonalization with overlap
     ethr =  1.38E-11,  avg # of iterations =  2.1

     total cpu time spent up to now is    25798.1 secs

     End of self-consistent calculation

          k = 0.0000 0.0000 0.0000 ( 21311 PWs)   bands (ev):

   -53.4874 -53.4750 -53.4371 -53.4172 -27.6609 -27.6486 -27.6108 -27.5906
   -27.4239 -27.4239 -27.4105 -27.4105 -27.3726 -27.3726 -27.3537 -27.3537
    -6.8175  -6.7591  -6.7095  -6.6508  -5.5884  -5.4855  -5.4174  -5.3321
     1.3884   1.6180   1.7991   2.0390   4.7837   4.7937   4.7937   4.8148
     4.8148   4.8520   4.8520   4.8641   4.8641   5.2338   5.6610   5.9091
     5.9091   5.9270   5.9270   5.9646   5.9647   5.9805   5.9806   6.2354
     6.9586   7.3346   7.5686   7.8192  10.1407  10.1407  10.1620  10.1620
    10.1970  10.1971  10.2279  10.2280  10.3473  10.3475

          k = 0.0000 0.0722 0.0000 ( 21283 PWs)   bands (ev):

   -53.4858 -53.4735 -53.4356 -53.4156 -27.6579 -27.6456 -27.6077 -27.5876
   -27.4394 -27.4274 -27.4260 -27.4140 -27.3881 -27.3761 -27.3693 -27.3573
    -6.7579  -6.6998  -6.6502  -6.5917  -5.5609  -5.4598  -5.3926  -5.3087
     1.4576   1.6865   1.8671   2.1073   4.6475   4.6612   4.6791   4.7165
     4.7296   4.8560   4.8769   4.9142   4.9266   5.0367   5.3357   5.5812
     5.8121   5.8301   5.8679   5.8843   6.0017   6.0627   6.1714   6.4805
     6.9632   7.3185   7.5255   7.7434  10.0658  10.0776  10.1157  10.1400
    10.1861  10.2173  10.2332  10.2449  10.2511  10.2774

          k = 0.0000 0.1443 0.0000 ( 21263 PWs)   bands (ev):

   -53.4814 -53.4690 -53.4311 -53.4112 -27.6492 -27.6369 -27.5991 -27.5789
   -27.4835 -27.4700 -27.4374 -27.4321 -27.4240 -27.4133 -27.3861 -27.3673
    -6.5841  -6.5267  -6.4775  -6.4194  -5.4808  -5.3849  -5.3203  -5.2406
     1.6505   1.8757   2.0539   2.2936   4.3058   4.3272   4.3412   4.3687
     4.3858   4.6491   4.8619   5.0356   5.0560   5.0597   5.0933   5.1068
     5.5612   5.5795   5.6175   5.6352   6.0568   6.1687   6.3303   6.6309
     6.9393   7.2167   7.3586   7.4977   9.7509   9.8186   9.8798   9.9274
     9.9790  10.0246  10.0775  10.0804  10.0913  10.1253

          k = 0.0000 0.2165 0.0000 ( 21233 PWs)   bands (ev):

   -53.4748 -53.4624 -53.4245 -53.4045 -27.6363 -27.6240 -27.5862 -27.5659
   -27.5488 -27.5353 -27.4974 -27.4787 -27.4524 -27.4390 -27.4011 -27.3823
    -6.3108  -6.2552  -6.2066  -6.1499  -5.3551  -5.2677  -5.2073  -5.1344
     1.9123   2.1254   2.2930   2.5224   3.8726   3.8920   3.9235   3.9421
     3.9975   4.2142   4.3645   4.5108   5.2364   5.2531   5.2913   5.3089
     5.3119   5.3325   5.3678   5.3832   5.9657   6.1107   6.2841   6.5424
     6.8027   6.9573   7.0327   7.0996   9.3614   9.4931   9.6373   9.8297
     9.8595   9.9079   9.9509   9.9552   9.9977  10.0941

          k = 0.0000 0.2887 0.0000 ( 21197 PWs)   bands (ev):

   -53.4669 -53.4546 -53.4166 -53.3967 -27.6251 -27.6209 -27.6114 -27.6087
   -27.5736 -27.5708 -27.5549 -27.5506 -27.4700 -27.4566 -27.4187 -27.3999
    -5.9636  -5.9115  -5.8642  -5.8102  -5.1966  -5.1207  -5.0656  -5.0018
     2.1131   2.2876   2.4179   2.5917   3.4812   3.5188   3.5669   3.6047
     3.6796   3.7931   3.8817   3.9670   4.9079   4.9264   4.9653   4.9853
     5.6354   5.6554   5.6937   5.7132   5.7498   5.9135   6.0785   6.2897
     6.5384   6.6101   6.6506   6.6918   9.2242   9.3947   9.5796   9.6712
     9.7175   9.7604   9.8061   9.8234  10.1681  10.3323

          k = 0.0000 0.3608 0.0000 ( 21187 PWs)   bands (ev):

   -53.4591 -53.4467 -53.4088 -53.3888 -27.7004 -27.6867 -27.6489 -27.6303
   -27.6056 -27.5933 -27.5555 -27.5352 -27.4876 -27.4741 -27.4362 -27.4174
    -5.5810  -5.5349  -5.4896  -5.4403  -5.0242  -4.9625  -4.9134  -4.8604
     2.0716   2.1775   2.2515   2.3434   3.1138   3.2075   3.2759   3.3914
     3.4440   3.5349   3.5847   3.6608   4.6198   4.6386   4.6777   4.6985
     5.5177   5.6840   5.8306   5.9563   5.9787   6.0082   6.0185   6.0443
     6.3231   6.3829   6.4222   6.4621   9.3451   9.5098   9.5677   9.6054
     9.6462   9.6844   9.6866   9.9093  10.4936  10.6587

          k = 0.0000 0.4330 0.0000 ( 21140 PWs)   bands (ev):

   -53.4524 -53.4400 -53.4021 -53.3821 -27.7636 -27.7499 -27.7120 -27.6935
   -27.5925 -27.5803 -27.5424 -27.5221 -27.5024 -27.4889 -27.4511 -27.4323
    -5.2176  -5.1809  -5.1380  -5.0960  -4.8640  -4.8180  -4.7748  -4.7330
     1.8331   1.8939   1.9393   1.9938   2.7721   2.8557   2.9092   2.9863
     3.3462   3.4305   3.4950   3.5836   4.3992   4.4183   4.4575   4.4788
     5.3471   5.5055   5.6340   5.7881   6.2114   6.2410   6.2826   6.3161
     6.3404   6.4138   6.4641   6.5189   9.5621   9.5877   9.6142   9.6262
     9.6583   9.7446   9.8764  10.0439  10.8011  10.9482

          k = 0.0000 0.5052 0.0000 ( 21078 PWs)   bands (ev):

   -53.4479 -53.4356 -53.3976 -53.3777 -27.8055 -27.7917 -27.7539 -27.7354
   -27.5837 -27.5715 -27.5337 -27.5134 -27.5123 -27.4988 -27.4609 -27.4421
    -4.9457  -4.9205  -4.8796  -4.8463  -4.7471  -4.7155  -4.6773  -4.6443
     1.6024   1.6455   1.6811   1.7251   2.5336   2.5985   2.6391   2.7027
     3.2483   3.3288   3.3901   3.4712   4.2616   4.2809   4.3201   4.3417
     5.2555   5.4052   5.5189   5.6534   6.3657   6.4031   6.4466   6.4866
     6.5295   6.6009   6.6522   6.7088   9.6110   9.6280   9.6656   9.6902
     9.9144   9.9989  10.0754  10.1747  10.9969  11.1199

          k = 0.0000-0.5774 0.0000 ( 21006 PWs)   bands (ev):

   -53.4463 -53.4340 -53.3961 -53.3761 -27.8202 -27.8064 -27.7685 -27.7500
   -27.5807 -27.5685 -27.5306 -27.5157 -27.5103 -27.5022 -27.4644 -27.4456
    -4.8420  -4.8233  -4.7832  -4.7542  -4.7036  -4.6788  -4.6425  -4.6127
     1.5100   1.5491   1.5827   1.6250   2.4485   2.5049   2.5421   2.6027
     3.2014   3.2807   3.3407   3.4189   4.2149   4.2342   4.2735   4.2952
     5.2283   5.3741   5.4815   5.6079   6.4157   6.4565   6.5008   6.5433
     6.6470   6.7053   6.7475   6.7963   9.6395   9.6545   9.6921   9.7138
    10.0762  10.1279  10.1682  10.2139  11.0604  11.1665

          k = 0.0625 0.1083 0.0000 ( 21269 PWs)   bands (ev):

   -53.4828 -53.4705 -53.4326 -53.4126 -27.6521 -27.6397 -27.6019 -27.5817
   -27.4687 -27.4553 -27.4346 -27.4212 -27.4174 -27.3986 -27.3833 -27.3645
    -6.6412  -6.5835  -6.5342  -6.4760  -5.5071  -5.4094  -5.3440  -5.2629
     1.5892   1.8159   1.9951   2.2354   4.4154   4.4368   4.4430   4.4769
     4.4917   4.7698   4.9750   4.9952   5.0071   5.0336   5.0456   5.2256
     5.5975   5.6147   5.6529   5.6690   6.0953   6.1900   6.3364   6.6358
     6.9550   7.2617   7.4212   7.5824   9.8797   9.9198   9.9357   9.9596
    10.0077  10.0145  10.0531  10.1027  10.1525  10.1781

          k = 0.0625 0.1804 0.0000 ( 21194 PWs)   bands (ev):

   -53.4773 -53.4649 -53.4270 -53.4071 -27.6412 -27.6289 -27.5911 -27.5709
   -27.5222 -27.5087 -27.4709 -27.4521 -27.4484 -27.4349 -27.3971 -27.3782
    -6.4175  -6.3611  -6.3122  -6.2549  -5.4040  -5.3132  -5.2512  -5.1756
     1.8207   2.0404   2.2140   2.4506   4.0345   4.0515   4.0848   4.1021
     4.1485   4.4070   4.5883   4.7630   5.1917   5.2096   5.2325   5.2399
     5.2576   5.2623   5.2889   5.3032   6.1428   6.2602   6.4144   6.6727
     6.8777   7.0815   7.1732   7.2568   9.4754   9.5811   9.6883   9.8160
     9.8549   9.9185   9.9547   9.9849  10.0048  10.0352

          k = 0.0625 0.2526 0.0000 ( 21202 PWs)   bands (ev):

   -53.4701 -53.4577 -53.4198 -53.3998 -27.6271 -27.6148 -27.5914 -27.5778
   -27.5770 -27.5568 -27.5399 -27.5212 -27.4663 -27.4528 -27.4150 -27.3962
    -6.1066  -6.0529  -6.0050  -5.9497  -5.2613  -5.1805  -5.1232  -5.0555
     2.0661   2.2631   2.4150   2.6227   3.6462   3.6670   3.7044   3.7271
     3.8160   4.0037   4.1236   4.2376   4.8500   4.8763   4.9102   4.9379
     5.4608   5.4797   5.5178   5.5355   6.0387   6.1657   6.3105   6.5133
     6.6746   6.7676   6.8115   6.8513   9.2050   9.3600   9.5133   9.6578
     9.7795   9.8165   9.8545   9.8822   9.9706  10.1259

          k = 0.0625 0.3248 0.0000 ( 21194 PWs)   bands (ev):

   -53.4622 -53.4498 -53.4119 -53.3920 -27.6654 -27.6517 -27.6139 -27.6117
   -27.5995 -27.5953 -27.5616 -27.5414 -27.4857 -27.4722 -27.4343 -27.4155
    -5.7402  -5.6912  -5.6449  -5.5933  -5.0945  -5.0265  -4.9748  -4.9171
     2.1536   2.2922   2.3907   2.5166   3.3140   3.3786   3.4390   3.5167
     3.5823   3.6395   3.7089   3.7256   4.5430   4.5814   4.6188   4.6574
     5.6961   5.7139   5.7503   5.7754   5.8278   5.9494   6.0774   6.2381
     6.4553   6.4982   6.5322   6.5639   9.1701   9.3312   9.4688   9.5714
     9.7080   9.7542   9.7887   9.9122  10.2263  10.3902

          k = 0.0625 0.3969 0.0000 ( 21151 PWs)   bands (ev):

   -53.4549 -53.4426 -53.4047 -53.3847 -27.7330 -27.7193 -27.6815 -27.6629
   -27.5975 -27.5853 -27.5474 -27.5272 -27.5035 -27.4900 -27.4521 -27.4333
    -5.3639  -5.3227  -5.2787  -5.2332  -4.9259  -4.8729  -4.8271  -4.7805
     1.9930   2.0720   2.1283   2.1965   2.9380   3.0227   3.0789   3.1590
     3.4142   3.4963   3.5608   3.6531   4.3451   4.3850   4.4235   4.4611
     5.5697   5.6969   5.7935   5.8424   5.8675   5.8923   5.9197   5.9873
     6.4680   6.5007   6.5335   6.5634   9.3109   9.4378   9.5280   9.5999
     9.7506   9.7980   9.8523   9.9925  10.5643  10.7129

          k = 0.0625 0.4691 0.0000 ( 21105 PWs)   bands (ev):

   -53.4494 -53.4370 -53.3991 -53.3791 -27.7843 -27.7706 -27.7327 -27.7142
   -27.5866 -27.5744 -27.5365 -27.5171 -27.5162 -27.5036 -27.4657 -27.4469
    -5.0411  -5.0108  -4.9691  -4.9320  -4.7842  -4.7466  -4.7064  -4.6701
     1.7514   1.8015   1.8409   1.8887   2.6196   2.6844   2.7252   2.7861
     3.3201   3.4015   3.4648   3.5501   4.2408   4.2696   4.3065   4.3372
     5.3805   5.5101   5.6110   5.7305   5.9643   5.9927   6.0352   6.0769
     6.6409   6.6775   6.7113   6.7479   9.5125   9.5828   9.6274   9.6748
     9.8890   9.9452  10.0092  10.1177  10.8792  11.0036

          k = 0.0625 0.5413 0.0000 ( 21084 PWs)   bands (ev):

   -53.4463 -53.4340 -53.3961 -53.3761 -27.8119 -27.7981 -27.7603 -27.7418
   -27.5807 -27.5685 -27.5306 -27.5244 -27.5109 -27.5103 -27.4731 -27.4543
    -4.8478  -4.8279  -4.7877  -4.7579  -4.7012  -4.6754  -4.6388  -4.6086
     1.5902   1.6301   1.6641   1.7069   2.4409   2.4922   2.5278   2.5836
     3.2333   3.3137   3.3746   3.4540   4.2013   4.2159   4.2544   4.2772
     5.2771   5.4092   5.5068   5.6203   6.0564   6.0917   6.1339   6.1731
     6.7947   6.8368   6.8729   6.9138   9.6347   9.6554   9.6863   9.7133
    10.0690  10.1244  10.1695  10.2292  11.1080  11.2026

          k = 0.1250 0.2165 0.0000 ( 21179 PWs)   bands (ev):

   -53.4712 -53.4588 -53.4209 -53.4009 -27.6292 -27.6170 -27.5791 -27.5774
   -27.5638 -27.5589 -27.5260 -27.5072 -27.4672 -27.4537 -27.4158 -27.3970
    -6.1557  -6.1015  -6.0534  -5.9977  -5.2834  -5.2010  -5.1428  -5.0739
     2.0469   2.2513   2.4105   2.6297   3.7172   3.7277   3.7646   3.7881
     3.9155   4.1465   4.2914   4.4256   4.7112   4.7361   4.7706   4.7948
     5.3814   5.3992   5.4374   5.4543   6.2242   6.3323   6.4609   6.6480
     6.7380   6.8427   6.8857   6.9181   9.1946   9.3400   9.4772   9.6151
     9.7708   9.8028   9.8323   9.8508   9.9038  10.0245

          k = 0.1250 0.2887 0.0000 ( 21199 PWs)   bands (ev):

   -53.4639 -53.4516 -53.4136 -53.3937 -27.6407 -27.6270 -27.6151 -27.6028
   -27.5892 -27.5705 -27.5650 -27.5447 -27.4904 -27.4770 -27.4391 -27.4203
    -5.8240  -5.7736  -5.7268  -5.6741  -5.1309  -5.0597  -5.0066  -4.9463
     2.2038   2.3660   2.4842   2.6393   3.4761   3.4945   3.5413   3.6127
     3.6870   3.8088   3.8761   3.9218   4.2737   4.3322   4.3921   4.4713
     5.4861   5.5031   5.5418   5.5647   6.1506   6.2473   6.3521   6.4818
     6.5612   6.5838   6.6140   6.6400   9.0352   9.2017   9.3509   9.4885
     9.7654   9.7922   9.8242   9.8935   9.9811  10.1512

          k = 0.1250 0.3608 0.0000 ( 21195 PWs)   bands (ev):

   -53.4566 -53.4443 -53.4064 -53.3864 -27.7029 -27.6892 -27.6514 -27.6328
   -27.6008 -27.5886 -27.5508 -27.5305 -27.5141 -27.5006 -27.4628 -27.4440
    -5.4598  -5.4159  -5.3712  -5.3235  -4.9645  -4.9070  -4.8595  -4.8096
     2.1516   2.2528   2.3233   2.4102   3.1387   3.2066   3.2543   3.3186
     3.5034   3.5708   3.6322   3.7239   4.0759   4.1775   4.2537   4.3370
     5.4277   5.4488   5.4870   5.5147   5.9333   6.0180   6.0977   6.1946
     6.5284   6.5412   6.5801   6.6016   9.0752   9.2466   9.4037   9.5564
     9.8406   9.8709   9.9019   9.9850  10.2213  10.3779

          k = 0.1250 0.4330 0.0000 ( 21113 PWs)   bands (ev):

   -53.4505 -53.4381 -53.4002 -53.3802 -27.7550 -27.7413 -27.7034 -27.6849
   -27.5888 -27.5766 -27.5387 -27.5343 -27.5208 -27.5184 -27.4829 -27.4642
    -5.1165  -5.0822  -5.0398  -4.9997  -4.8094  -4.7668  -4.7249  -4.6855
     1.9663   2.0297   2.0768   2.1330   2.7221   2.7703   2.8029   2.8507
     3.4467   3.5241   3.5884   3.6776   4.0497   4.1441   4.2113   4.2827
     5.3725   5.4123   5.4528   5.4959   5.6620   5.7411   5.8092   5.8952
     6.6655   6.6833   6.7210   6.7439   9.2887   9.4420   9.5834   9.7261
     9.9543   9.9812  10.0144  10.0611  10.5373  10.6621

          k = 0.1250 0.5052 0.0000 ( 21081 PWs)   bands (ev):

   -53.4463 -53.4340 -53.3961 -53.3761 -27.7895 -27.7758 -27.7379 -27.7194
   -27.5807 -27.5685 -27.5478 -27.5343 -27.5307 -27.5104 -27.4964 -27.4776
    -4.8615  -4.8388  -4.7983  -4.7668  -4.6957  -4.6671  -4.6299  -4.5986
     1.8008   1.8453   1.8818   1.9271   2.4271   2.4628   2.4946   2.5390
     3.3308   3.4139   3.4758   3.5553   4.1033   4.1687   4.2168   4.2673
     5.3667   5.4427   5.4691   5.4933   5.5265   5.5476   5.5890   5.6792
     6.8488   6.8801   6.9160   6.9489   9.5170   9.6004   9.6639   9.7279
    10.1029  10.1494  10.1925  10.2615  10.8258  10.9070

          k = 0.1250 0.5774 0.0000 ( 21108 PWs)   bands (ev):

   -53.4449 -53.4325 -53.3946 -53.3747 -27.8016 -27.7878 -27.7500 -27.7315
   -27.5778 -27.5657 -27.5525 -27.5390 -27.5278 -27.5075 -27.5011 -27.4824
    -4.7649  -4.7486  -4.7089  -4.6817  -4.6531  -4.6313  -4.5960  -4.5675
     1.7370   1.7748   1.8081   1.8513   2.3222   2.3538   2.3864   2.4301
     3.2711   3.3543   3.4159   3.4936   4.1536   4.1877   4.2237   4.2618
     5.3041   5.4175   5.4477   5.4902   5.4927   5.5408   5.5513   5.6219
     6.9402   6.9786   7.0162   7.0546   9.6018   9.6217   9.6525   9.6829
    10.2132  10.2737  10.3137  10.3579  10.9513  11.0271

          k = 0.1875 0.3248 0.0000 ( 21195 PWs)   bands (ev):

   -53.4572 -53.4449 -53.4070 -53.3870 -27.6893 -27.6757 -27.6378 -27.6192
   -27.6020 -27.5898 -27.5520 -27.5317 -27.5209 -27.5074 -27.4695 -27.4508
    -5.4932  -5.4484  -5.4033  -5.3550  -4.9777  -4.9185  -4.8704  -4.8193
     2.2191   2.3317   2.4097   2.5068   3.2701   3.3161   3.3550   3.3975
     3.5476   3.6020   3.6611   3.7314   3.9240   4.0560   4.1547   4.2601
     5.2537   5.2744   5.3122   5.3411   6.0969   6.1662   6.2291   6.3072
     6.5348   6.5497   6.5897   6.6133   8.9856   9.1714   9.3469   9.5307
     9.8642   9.8839   9.9174   9.9685  10.0755  10.2391

          k = 0.1875 0.3969 0.0000 ( 21153 PWs)   bands (ev):

   -53.4511 -53.4387 -53.4008 -53.3808 -27.7312 -27.7175 -27.6797 -27.6611
   -27.5900 -27.5777 -27.5517 -27.5399 -27.5382 -27.5196 -27.5003 -27.4816
    -5.1578  -5.1214  -5.0786  -5.0368  -4.8219  -4.7766  -4.7337  -4.6924
     2.1292   2.2068   2.2624   2.3290   2.8144   2.8350   2.8608   2.8969
     3.5895   3.6436   3.6988   3.7818   3.9226   4.0471   4.1389   4.2334
     4.9347   4.9643   5.0036   5.0379   5.8759   5.9261   5.9610   6.0183
     6.6366   6.6573   6.6975   6.7243   9.1450   9.3354   9.5250   9.7614
     9.9881   9.9994  10.0351  10.0591  10.2605  10.3963

          k = 0.1875 0.4691 0.0000 ( 21101 PWs)   bands (ev):

   -53.4463 -53.4340 -53.3961 -53.3761 -27.7617 -27.7480 -27.7101 -27.6916
   -27.5807 -27.5766 -27.5685 -27.5631 -27.5307 -27.5252 -27.5104 -27.5065
    -4.8748  -4.8496  -4.8088  -4.7756  -4.6901  -4.6590  -4.6211  -4.5886
     2.0408   2.0976   2.1410   2.1927   2.4186   2.4341   2.4654   2.4980
     3.5040   3.5889   3.6456   3.7089   3.9946   4.1089   4.1884   4.2725
     4.7522   4.8078   4.8573   4.9183   5.5777   5.6362   5.6747   5.7248
     6.8370   6.8551   6.8948   6.9174   9.3720   9.5008   9.6116   9.7276
    10.1467  10.1846  10.2221  10.2982  10.4841  10.5726

          k = 0.1875 0.5413 0.0000 ( 21112 PWs)   bands (ev):

   -53.4438 -53.4314 -53.3935 -53.3736 -27.7777 -27.7639 -27.7261 -27.7076
   -27.5906 -27.5770 -27.5757 -27.5635 -27.5391 -27.5257 -27.5204 -27.5054
    -4.7078  -4.6928  -4.6537  -4.6282  -4.6115  -4.5921  -4.5578  -4.5301
     2.0034   2.0420   2.0774   2.1246   2.2031   2.2174   2.2523   2.2839
     3.3600   3.4475   3.5087   3.5794   4.1324   4.2038   4.2543   4.3130
     4.7102   4.7855   4.8404   4.9065   5.3647   5.4273   5.4697   5.5227
     7.0185   7.0462   7.0839   7.1149   9.4520   9.4918   9.5274   9.5675
    10.3320  10.4007  10.4556  10.5381  10.6199  10.6595

          k = 0.2500 0.4330 0.0000 ( 21125 PWs)   bands (ev):

   -53.4463 -53.4340 -53.3961 -53.3761 -27.7472 -27.7335 -27.6956 -27.6771
   -27.5915 -27.5807 -27.5780 -27.5685 -27.5401 -27.5307 -27.5214 -27.5104
    -4.8802  -4.8540  -4.8131  -4.7792  -4.6878  -4.6557  -4.6175  -4.5845
     2.1508   2.2164   2.2655   2.3196   2.4165   2.4250   2.4556   2.4816
     3.6934   3.7149   3.7721   3.8147   3.9918   4.1031   4.1912   4.2834
     4.4312   4.4558   4.4928   4.5172   5.6618   5.6720   5.7176   5.7563
     6.8209   6.8382   6.8791   6.9001   9.3114   9.4547   9.5819   9.7200
    10.1604  10.1892  10.2217  10.3060  10.3555  10.4565

          k = 0.2500 0.5052 0.0000 ( 21117 PWs)   bands (ev):

   -53.4432 -53.4308 -53.3929 -53.3730 -27.7519 -27.7382 -27.7003 -27.6818
   -27.6241 -27.6105 -27.5745 -27.5727 -27.5624 -27.5540 -27.5245 -27.5042
    -4.6797  -4.6646  -4.6259  -4.6014  -4.5871  -4.5685  -4.5350  -4.5076
     2.1184   2.1222   2.1554   2.1874   2.2606   2.3126   2.3527   2.4002
     3.5317   3.6177   3.6669   3.7032   4.0785   4.1288   4.1758   4.2178
     4.2333   4.2890   4.3479   4.4003   5.3786   5.4074   5.4529   5.4931
     7.0610   7.0771   7.1171   7.1379   9.3192   9.3723   9.4166   9.4688
    10.3041  10.3353  10.3892  10.4111  10.5516  10.6006

          k = 0.2500 0.5774 0.0000 ( 21116 PWs)   bands (ev):

   -53.4421 -53.4297 -53.3918 -53.3718 -27.7518 -27.7380 -27.7002 -27.6816
   -27.6373 -27.6238 -27.5859 -27.5724 -27.5672 -27.5602 -27.5223 -27.5020
    -4.6049  -4.5949  -4.5617  -4.5516  -4.5401  -4.5301  -4.5050  -4.4801
     2.0158   2.0214   2.0541   2.0847   2.3475   2.3799   2.4107   2.4521
     3.3753   3.4579   3.5129   3.5680   4.0469   4.1225   4.1753   4.2359
     4.2928   4.3483   4.3981   4.4391   5.2591   5.2737   5.3201   5.3549
     7.1863   7.2065   7.2452   7.2705   9.2544   9.2703   9.3060   9.3277
    10.3242  10.3694  10.4098  10.4356  10.7128  10.7418

          k = 0.3125 0.5413 0.0000 ( 21100 PWs)   bands (ev):

   -53.4415 -53.4291 -53.3912 -53.3712 -27.7307 -27.7169 -27.6791 -27.6658
   -27.6606 -27.6522 -27.6143 -27.5956 -27.5712 -27.5590 -27.5212 -27.5009
    -4.5689  -4.5599  -4.5349  -4.5265  -4.5168  -4.4992  -4.4849  -4.4617
     1.9473   1.9523   1.9864   2.0147   2.5739   2.6163   2.6507   2.6941
     3.3795   3.3919   3.4098   3.4538   3.8548   3.8738   3.8823   3.9155
     4.3521   4.4103   4.4526   4.4958   5.1745   5.1939   5.2473   5.2816
     7.2699   7.2837   7.3241   7.3443   9.1383   9.1559   9.1917   9.2129
    10.2612  10.2799  10.3179  10.3546  10.8084  10.8598

     the Fermi energy is     8.3431 ev

!    total energy              =   -1978.37087523 Ry
     total all-electron energy =    -38771.691720 Ry
     estimated scf accuracy    <          7.8E-09 Ry
     smearing contrib. (-TS)   =       0.00002970 Ry
     internal energy E=F+TS    =   -1978.37090493 Ry

     The total energy is F=E-TS. E is the sum of the following terms:
     one-electron contribution =   -1440.76823431 Ry
     hartree contribution      =     762.64761795 Ry
     xc contribution           =    -119.22225714 Ry
     ewald contribution        =      88.82230384 Ry
     one-center paw contrib.   =   -1269.85033526 Ry

     convergence has been achieved in  18 iterations

     Forces acting on atoms (cartesian axes, Ry/au):

     atom    1 type  2   force =     0.00000000   -0.00000000    0.00098239
     atom    2 type  1   force =     0.00000000   -0.00000000    0.00109355
     atom    3 type  2   force =     0.00000000    0.00000000    0.00072934
     atom    4 type  2   force =     0.00000000    0.00000000    0.00026564
     atom    5 type  1   force =     0.00000000    0.00000000   -0.00076562
     atom    6 type  2   force =     0.00000000    0.00000000   -0.00101947
     atom    7 type  2   force =     0.00000000    0.00000000    0.00125040
     atom    8 type  1   force =     0.00000000   -0.00000000    0.00039803
     atom    9 type  2   force =     0.00000000    0.00000000    0.00018254
     atom   10 type  2   force =     0.00000000    0.00000000   -0.00098767
     atom   11 type  1   force =     0.00000000    0.00000000   -0.00118424
     atom   12 type  2   force =     0.00000000    0.00000000   -0.00094490

     Total force =     0.003068     Total SCF correction =     0.000341
     SCF correction compared to forces is large: reduce conv_thr to get better values
     Energy error            =      8.5E-04 Ry
     Gradient error          =      1.3E-03 Ry/Bohr

     number of scf cycles    =  10
     number of bfgs steps    =   9

     energy             old  =   -1978.3700228625 Ry
     energy             new  =   -1978.3708752314 Ry

     CASE: energy            _new < energy            _old

     new trust radius        =       0.1596116066 bohr
     new conv_thr            =       0.0000000085 Ry


ATOMIC_POSITIONS (crystal)
S                0.3333329954        0.6666669908       -0.1125559354
Mo               0.0000000000        0.0000000000       -0.0601226267
S                0.3333329954        0.6666669908       -0.0076489359
S                0.6666669908        0.3333329954        0.0991698128
Mo               0.3333329954        0.6666669908        0.1516997980
S                0.6666669908        0.3333329954        0.2041996045
S                0.0000000000        0.0000000000        0.3140481397
Mo               0.6666669908        0.3333329954        0.3665858547
S                0.0000000000        0.0000000000        0.4190896020
S                0.3333329954        0.6666669908        0.5277038788
Mo               0.0000000000        0.0000000000        0.5802011225
S                0.3333329954        0.6666669908        0.6326296420



     Writing config-only to output data dir ./tmp/relax2/mos2_slab2.save/ :
     XML data file
     NEW-OLD atomic charge density approx. for the potential

     total cpu time spent up to now is    25853.0 secs

     Self-consistent Calculation

     iteration #  1     ecut=    80.00 Ry     beta= 0.20
     Davidson diagonalization with overlap
     ethr =  1.00E-06,  avg # of iterations = 11.0

     total cpu time spent up to now is    26271.8 secs

     total energy              =   -1978.37343372 Ry
     estimated scf accuracy    <       0.00978960 Ry

     iteration #  2     ecut=    80.00 Ry     beta= 0.20
     Davidson diagonalization with overlap
     ethr =  9.41E-06,  avg # of iterations =  1.0

     total cpu time spent up to now is    26370.8 secs

     total energy              =   -1978.37076240 Ry
     estimated scf accuracy    <       0.00713856 Ry

     iteration #  3     ecut=    80.00 Ry     beta= 0.20
     Davidson diagonalization with overlap
     ethr =  6.86E-06,  avg # of iterations =  2.4

     total cpu time spent up to now is    26489.3 secs

     total energy              =   -1978.37139457 Ry
     estimated scf accuracy    <       0.00031973 Ry

     iteration #  4     ecut=    80.00 Ry     beta= 0.20
     Davidson diagonalization with overlap
     ethr =  3.07E-07,  avg # of iterations =  4.6

     total cpu time spent up to now is    26628.1 secs

     total energy              =   -1978.37146737 Ry
     estimated scf accuracy    <       0.00011324 Ry

     iteration #  5     ecut=    80.00 Ry     beta= 0.20
     Davidson diagonalization with overlap
     ethr =  1.09E-07,  avg # of iterations =  4.2

     total cpu time spent up to now is    26744.0 secs

     total energy              =   -1978.37147212 Ry
     estimated scf accuracy    <       0.00003412 Ry

     iteration #  6     ecut=    80.00 Ry     beta= 0.20
     Davidson diagonalization with overlap
     ethr =  3.28E-08,  avg # of iterations =  3.4

     total cpu time spent up to now is    26859.5 secs

     total energy              =   -1978.37147130 Ry
     estimated scf accuracy    <       0.00001138 Ry

     iteration #  7     ecut=    80.00 Ry     beta= 0.20
     Davidson diagonalization with overlap
     ethr =  1.09E-08,  avg # of iterations =  2.6

     total cpu time spent up to now is    26989.2 secs

     total energy              =   -1978.37147350 Ry
     estimated scf accuracy    <       0.00000223 Ry

     iteration #  8     ecut=    80.00 Ry     beta= 0.20
     Davidson diagonalization with overlap
     ethr =  2.15E-09,  avg # of iterations =  3.7

     total cpu time spent up to now is    27103.1 secs

     total energy              =   -1978.37147356 Ry
     estimated scf accuracy    <       0.00000156 Ry

     iteration #  9     ecut=    80.00 Ry     beta= 0.20
     Davidson diagonalization with overlap
     ethr =  1.50E-09,  avg # of iterations =  2.8

     total cpu time spent up to now is    27229.0 secs

     total energy              =   -1978.37147371 Ry
     estimated scf accuracy    <       0.00000221 Ry

     iteration # 10     ecut=    80.00 Ry     beta= 0.20
     Davidson diagonalization with overlap
     ethr =  1.50E-09,  avg # of iterations =  2.2

     total cpu time spent up to now is    27341.3 secs

     total energy              =   -1978.37147367 Ry
     estimated scf accuracy    <       0.00000090 Ry

     iteration # 11     ecut=    80.00 Ry     beta= 0.20
     Davidson diagonalization with overlap
     ethr =  8.62E-10,  avg # of iterations =  2.1

     total cpu time spent up to now is    27454.0 secs

     total energy              =   -1978.37147376 Ry
     estimated scf accuracy    <       0.00000045 Ry

     iteration # 12     ecut=    80.00 Ry     beta= 0.20
     Davidson diagonalization with overlap
     ethr =  4.32E-10,  avg # of iterations =  2.0

     total cpu time spent up to now is    27564.1 secs

     total energy              =   -1978.37147371 Ry
     estimated scf accuracy    <       0.00000027 Ry

     iteration # 13     ecut=    80.00 Ry     beta= 0.20
     Davidson diagonalization with overlap
     ethr =  2.62E-10,  avg # of iterations =  2.6

     total cpu time spent up to now is    27690.5 secs

     total energy              =   -1978.37147365 Ry
     estimated scf accuracy    <       0.00000039 Ry

     iteration # 14     ecut=    80.00 Ry     beta= 0.20
     Davidson diagonalization with overlap
     ethr =  2.62E-10,  avg # of iterations =  2.5

     total cpu time spent up to now is    27816.1 secs

     total energy              =   -1978.37147374 Ry
     estimated scf accuracy    <       0.00000006 Ry

     iteration # 15     ecut=    80.00 Ry     beta= 0.20
     Davidson diagonalization with overlap
     ethr =  6.04E-11,  avg # of iterations =  2.2

     total cpu time spent up to now is    27928.1 secs

     total energy              =   -1978.37147376 Ry
     estimated scf accuracy    <       0.00000005 Ry

     iteration # 16     ecut=    80.00 Ry     beta= 0.20
     Davidson diagonalization with overlap
     ethr =  4.36E-11,  avg # of iterations =  4.4

     total cpu time spent up to now is    28065.5 secs

     total energy              =   -1978.37147377 Ry
     estimated scf accuracy    <       0.00000016 Ry

     iteration # 17     ecut=    80.00 Ry     beta= 0.20
     Davidson diagonalization with overlap
     ethr =  4.36E-11,  avg # of iterations =  2.7

     total cpu time spent up to now is    28184.7 secs

     total energy              =   -1978.37147379 Ry
     estimated scf accuracy    <       0.00000003 Ry

     iteration # 18     ecut=    80.00 Ry     beta= 0.20
     Davidson diagonalization with overlap
     ethr =  2.60E-11,  avg # of iterations =  1.9

     total cpu time spent up to now is    28293.0 secs

     total energy              =   -1978.37147380 Ry
     estimated scf accuracy    <       0.00000001 Ry

     iteration # 19     ecut=    80.00 Ry     beta= 0.20
     Davidson diagonalization with overlap
     ethr =  1.01E-11,  avg # of iterations =  4.0

     total cpu time spent up to now is    28416.7 secs

     End of self-consistent calculation

          k = 0.0000 0.0000 0.0000 ( 21311 PWs)   bands (ev):

   -53.4884 -53.4665 -53.4450 -53.4153 -27.6622 -27.6402 -27.6187 -27.5890
   -27.4250 -27.4250 -27.4021 -27.4021 -27.3807 -27.3807 -27.3521 -27.3521
    -6.8140  -6.7679  -6.7101  -6.6520  -5.5819  -5.5032  -5.4073  -5.3328
     1.3985   1.5714   1.8297   2.0347   4.7907   4.7907   4.7920   4.8214
     4.8214   4.8414   4.8414   4.8619   4.8619   5.1762   5.7162   5.9059
     5.9060   5.9347   5.9347   5.9546   5.9547   5.9788   5.9788   6.2352
     6.9606   7.3154   7.6296   7.8047  10.1411  10.1411  10.1685  10.1686
    10.1898  10.1903  10.2285  10.2286  10.3465  10.3465

          k = 0.0000 0.0722 0.0000 ( 21283 PWs)   bands (ev):

   -53.4869 -53.4650 -53.4434 -53.4137 -27.6591 -27.6371 -27.6157 -27.5860
   -27.4405 -27.4285 -27.4177 -27.4057 -27.3962 -27.3842 -27.3677 -27.3557
    -6.7544  -6.7085  -6.6508  -6.5928  -5.5546  -5.4770  -5.3829  -5.3093
     1.4678   1.6397   1.8975   2.1030   4.6511   4.6617   4.6859   4.7060
     4.7275   4.8530   4.8837   4.9036   4.9244   4.9894   5.3709   5.5786
     5.8089   5.8378   5.8578   5.8826   6.0013   6.0536   6.1855   6.4817
     6.9650   7.3015   7.5800   7.7311  10.0637  10.0877  10.1082  10.1408
    10.1880  10.2214  10.2333  10.2471  10.2670  10.2767

          k = 0.0000 0.1443 0.0000 ( 21263 PWs)   bands (ev):

   -53.4824 -53.4605 -53.4390 -53.4093 -27.6505 -27.6285 -27.6070 -27.5773
   -27.4846 -27.4617 -27.4402 -27.4386 -27.4157 -27.4117 -27.3942 -27.3657
    -6.5805  -6.5351  -6.4783  -6.4205  -5.4750  -5.4006  -5.3117  -5.2411
     1.6610   1.8286   2.0836   2.2896   4.3033   4.3346   4.3434   4.3590
     4.3845   4.6128   4.8914   5.0325   5.0558   5.0630   5.0828   5.1046
     5.5580   5.5873   5.6073   5.6335   6.0578   6.1528   6.3466   6.6329
     6.9408   7.2056   7.3938   7.4917   9.7539   9.8200   9.8812   9.9286
     9.9804  10.0417  10.0622  10.0851  10.0992  10.1233

          k = 0.0000 0.2165 0.0000 ( 21233 PWs)   bands (ev):

   -53.4758 -53.4539 -53.4323 -53.4026 -27.6375 -27.6155 -27.5941 -27.5644
   -27.5499 -27.5270 -27.5055 -27.4771 -27.4535 -27.4307 -27.4092 -27.3807
    -6.3073  -6.2630  -6.2079  -6.1509  -5.3502  -5.2811  -5.2007  -5.1348
     1.9231   2.0789   2.3204   2.5187   3.8700   3.8987   3.9183   3.9372
     3.9970   4.1885   4.3886   4.5067   5.2328   5.2617   5.2813   5.3066
     5.3100   5.3379   5.3579   5.3809   5.9679   6.0922   6.3017   6.5439
     6.8038   6.9529   7.0457   7.0998   9.3635   9.4901   9.6492   9.8320
     9.8641   9.9054   9.9487   9.9567  10.0003  10.0920

          k = 0.0000 0.2887 0.0000 ( 21197 PWs)   bands (ev):

   -53.4679 -53.4460 -53.4245 -53.3948 -27.6262 -27.6222 -27.6032 -27.6002
   -27.5817 -27.5788 -27.5534 -27.5490 -27.4712 -27.4483 -27.4268 -27.3983
    -5.9605  -5.9181  -5.8664  -5.8110  -5.1928  -5.1309  -5.0618  -5.0020
     2.1231   2.2475   2.4376   2.5887   3.4864   3.5164   3.5550   3.6018
     3.6765   3.7871   3.8963   3.9635   4.9045   4.9345   4.9548   4.9837
     5.6320   5.6629   5.6833   5.7112   5.7531   5.8931   6.0978   6.2901
     6.5396   6.6099   6.6525   6.6929   9.2263   9.3861   9.5980   9.6750
     9.7158   9.7579   9.8084   9.8244  10.1700  10.3271

          k = 0.0000 0.3608 0.0000 ( 21187 PWs)   bands (ev):

   -53.4601 -53.4382 -53.4166 -53.3869 -27.7016 -27.6785 -27.6571 -27.6288
   -27.6068 -27.5849 -27.5634 -27.5336 -27.4887 -27.4658 -27.4443 -27.4158
    -5.5785  -5.5391  -5.4935  -5.4410  -5.0219  -4.9684  -4.9130  -4.8603
     2.0783   2.1538   2.2585   2.3415   3.1226   3.1863   3.2760   3.3901
     3.4423   3.5333   3.5942   3.6576   4.6163   4.6466   4.6672   4.6969
     5.5223   5.6614   5.8501   5.9532   5.9854   6.0081   6.0088   6.0427
     6.3243   6.3825   6.4227   6.4627   9.3475   9.4980   9.5699   9.6067
     9.6418   9.6885   9.7035   9.9094  10.4956  10.6526

          k = 0.0000 0.4330 0.0000 ( 21140 PWs)   bands (ev):

   -53.4534 -53.4315 -53.4099 -53.3802 -27.7648 -27.7417 -27.7202 -27.6920
   -27.5937 -27.5718 -27.5503 -27.5205 -27.5035 -27.4806 -27.4592 -27.4307
    -5.2164  -5.1811  -5.1446  -5.0966  -4.8633  -4.8191  -4.7782  -4.7328
     1.8370   1.8835   1.9381   1.9923   2.7794   2.8383   2.9130   2.9852
     3.3479   3.4169   3.5048   3.5814   4.3957   4.4262   4.4470   4.4772
     5.3529   5.4815   5.6526   5.7880   6.2098   6.2447   6.2748   6.3149
     6.3417   6.4091   6.4687   6.5183   9.5622   9.5933   9.6168   9.6192
     9.6597   9.7325   9.8919  10.0437  10.8031  10.9415

          k = 0.0000 0.5052 0.0000 ( 21078 PWs)   bands (ev):

   -53.4489 -53.4270 -53.4055 -53.3758 -27.8067 -27.7835 -27.7621 -27.7339
   -27.5850 -27.5631 -27.5416 -27.5134 -27.5118 -27.4905 -27.4690 -27.4406
    -4.9465  -4.9154  -4.8893  -4.8469  -4.7480  -4.7125  -4.6835  -4.6444
     1.6056   1.6411   1.6766   1.7231   2.5404   2.5861   2.6397   2.7017
     3.2509   3.3148   3.3972   3.4695   4.2581   4.2887   4.3097   4.3401
     5.2620   5.3811   5.5363   5.6534   6.3656   6.4037   6.4409   6.4858
     6.5311   6.5952   6.6561   6.7085   9.6097   9.6360   9.6574   9.6911
     9.9173   9.9895  10.0844  10.1746  10.9988  11.1113

          k = 0.0000-0.5774 0.0000 ( 21006 PWs)   bands (ev):

   -53.4474 -53.4255 -53.4039 -53.3742 -27.8214 -27.7982 -27.7768 -27.7486
   -27.5819 -27.5600 -27.5385 -27.5169 -27.5087 -27.4939 -27.4725 -27.4440
    -4.8443  -4.8153  -4.7939  -4.7551  -4.7051  -4.6743  -4.6494  -4.6133
     1.5132   1.5463   1.5774   1.6228   2.4552   2.4948   2.5409   2.6018
     3.2041   3.2670   3.3470   3.4174   4.2114   4.2421   4.2630   4.2936
     5.2351   5.3501   5.4983   5.6080   6.4162   6.4558   6.4960   6.5426
     6.6488   6.7010   6.7492   6.7961   9.6379   9.6627   9.6837   9.7146
    10.0785  10.1260  10.1666  10.2158  11.0624  11.1567

          k = 0.0625 0.1083 0.0000 ( 21269 PWs)   bands (ev):

   -53.4839 -53.4620 -53.4404 -53.4107 -27.6533 -27.6313 -27.6098 -27.5801
   -27.4699 -27.4470 -27.4358 -27.4255 -27.4129 -27.3970 -27.3914 -27.3629
    -6.6376  -6.5920  -6.5349  -6.4771  -5.5011  -5.4257  -5.3351  -5.2635
     1.5996   1.7688   2.0251   2.2313   4.4132   4.4443   4.4467   4.4665
     4.4900   4.7301   4.9720   5.0023   5.0215   5.0402   5.0434   5.2218
     5.5942   5.6228   5.6426   5.6674   6.0957   6.1760   6.3514   6.6378
     6.9565   7.2489   7.4626   7.5744   9.8830   9.9252   9.9341   9.9568
    10.0096  10.0178  10.0575  10.1029  10.1526  10.1892

          k = 0.0625 0.1804 0.0000 ( 21194 PWs)   bands (ev):

   -53.4783 -53.4564 -53.4349 -53.4052 -27.6425 -27.6205 -27.5990 -27.5693
   -27.5234 -27.5004 -27.4790 -27.4505 -27.4495 -27.4266 -27.4051 -27.3766
    -6.4140  -6.3692  -6.3133  -6.2560  -5.3987  -5.3276  -5.2438  -5.1760
     1.8314   1.9933   2.2427   2.4467   4.0311   4.0590   4.0781   4.0982
     4.1503   4.3754   4.6162   4.7586   5.1885   5.2147   5.2317   5.2369
     5.2562   5.2604   5.2804   5.3015   6.1442   6.2445   6.4283   6.6748
     6.8788   7.0757   7.1927   7.2555   9.4777   9.5799   9.6959   9.8179
     9.8566   9.9186   9.9551   9.9866  10.0108  10.0464

          k = 0.0625 0.2526 0.0000 ( 21202 PWs)   bands (ev):

   -53.4711 -53.4492 -53.4276 -53.3979 -27.6283 -27.6064 -27.5925 -27.5849
   -27.5695 -27.5552 -27.5481 -27.5197 -27.4674 -27.4445 -27.4231 -27.3946
    -6.1033  -6.0600  -6.0068  -5.9506  -5.2570  -5.1921  -5.1181  -5.0558
     2.0768   2.2186   2.4392   2.6193   3.6447   3.6724   3.6967   3.7239
     3.8145   3.9847   4.1438   4.2338   4.8484   4.8802   4.9042   4.9356
     5.4573   5.4874   5.5073   5.5334   6.0408   6.1501   6.3243   6.5146
     6.6754   6.7680   6.8139   6.8532   9.2073   9.3530   9.5277   9.6592
     9.7791   9.8198   9.8522   9.8844   9.9721  10.1254

          k = 0.0625 0.3248 0.0000 ( 21194 PWs)   bands (ev):

   -53.4632 -53.4413 -53.4198 -53.3901 -27.6666 -27.6435 -27.6221 -27.6130
   -27.5937 -27.5910 -27.5696 -27.5398 -27.4868 -27.4639 -27.4424 -27.4139
    -5.7373  -5.6965  -5.6480  -5.5940  -5.0915  -5.0343  -4.9729  -4.9171
     2.1621   2.2602   2.4035   2.5141   3.3239   3.3650   3.4267   3.5132
     3.5781   3.6649   3.6914   3.7309   4.5420   4.5816   4.6160   4.6552
     5.6934   5.7204   5.7424   5.7731   5.8294   5.9342   6.0919   6.2383
     6.4560   6.5009   6.5293   6.5644   9.1727   9.3204   9.4816   9.5725
     9.7111   9.7534   9.7915   9.9137  10.2279  10.3855

          k = 0.0625 0.3969 0.0000 ( 21151 PWs)   bands (ev):

   -53.4560 -53.4341 -53.4125 -53.3828 -27.7342 -27.7111 -27.6897 -27.6614
   -27.5987 -27.5768 -27.5553 -27.5256 -27.5046 -27.4817 -27.4602 -27.4318
    -5.3621  -5.3249  -5.2840  -5.2338  -4.9245  -4.8761  -4.8289  -4.7803
     1.9980   2.0559   2.1304   2.1949   2.9450   3.0052   3.0820   3.1575
     3.4150   3.4844   3.5713   3.6507   4.3443   4.3851   4.4200   4.4591
     5.5743   5.6778   5.8039   5.8389   5.8764   5.8902   5.9177   5.9861
     6.4681   6.5033   6.5298   6.5628   9.3137   9.4274   9.5358   9.6004
     9.7526   9.7954   9.8601   9.9927  10.5662  10.7067

          k = 0.0625 0.4691 0.0000 ( 21105 PWs)   bands (ev):

   -53.4504 -53.4285 -53.4069 -53.3772 -27.7855 -27.7623 -27.7409 -27.7127
   -27.5878 -27.5659 -27.5444 -27.5182 -27.5146 -27.4953 -27.4738 -27.4454
    -5.0410  -5.0081  -4.9775  -4.9326  -4.7844  -4.7452  -4.7116  -4.6700
     1.7549   1.7947   1.8377   1.8870   2.6255   2.6728   2.7258   2.7847
     3.3230   3.3868   3.4724   3.5484   4.2393   4.2729   4.2998   4.3352
     5.3858   5.4899   5.6253   5.7309   5.9638   5.9958   6.0292   6.0762
     6.6412   6.6780   6.7094   6.7470   9.5148   9.5777   9.6296   9.6748
     9.8906   9.9395  10.0176  10.1174  10.8813  10.9965

          k = 0.0625 0.5413 0.0000 ( 21084 PWs)   bands (ev):

   -53.4474 -53.4255 -53.4039 -53.3742 -27.8131 -27.7899 -27.7685 -27.7403
   -27.5819 -27.5600 -27.5385 -27.5256 -27.5087 -27.5026 -27.4812 -27.4527
    -4.8499  -4.8204  -4.7982  -4.7588  -4.7027  -4.6710  -4.6456  -4.6091
     1.5935   1.6269   1.6589   1.7048   2.4464   2.4843   2.5256   2.5823
     3.2364   3.2994   3.3808   3.4524   4.1977   4.2244   4.2444   4.2751
     5.2830   5.3882   5.5215   5.6207   6.0575   6.0928   6.1266   6.1735
     6.7954   6.8356   6.8718   6.9131   9.6350   9.6595   9.6814   9.7129
    10.0712  10.1203  10.1718  10.2298  11.1102  11.1945

          k = 0.1250 0.2165 0.0000 ( 21179 PWs)   bands (ev):

   -53.4722 -53.4503 -53.4287 -53.3990 -27.6305 -27.6085 -27.5871 -27.5785
   -27.5573 -27.5555 -27.5341 -27.5057 -27.4683 -27.4454 -27.4239 -27.3954
    -6.1524  -6.1088  -6.0550  -5.9986  -5.2790  -5.2130  -5.1374  -5.0742
     2.0578   2.2055   2.4363   2.6261   3.7130   3.7356   3.7577   3.7840
     3.9165   4.1208   4.3160   4.4214   4.7098   4.7408   4.7641   4.7926
     5.3779   5.4072   5.4269   5.4522   6.2257   6.3193   6.4708   6.6498
     6.7386   6.8464   6.8847   6.9217   9.1970   9.3335   9.4903   9.6157
     9.7781   9.7962   9.8316   9.8506   9.9054  10.0583

          k = 0.1250 0.2887 0.0000 ( 21199 PWs)   bands (ev):

   -53.4649 -53.4430 -53.4215 -53.3918 -27.6418 -27.6188 -27.6163 -27.5974
   -27.5943 -27.5729 -27.5690 -27.5431 -27.4916 -27.4687 -27.4472 -27.4187
    -5.8210  -5.7795  -5.7296  -5.6749  -5.1276  -5.0684  -5.0038  -4.9464
     2.2134   2.3283   2.5015   2.6363   3.4772   3.5019   3.5241   3.6099
     3.6838   3.8075   3.8788   3.9222   4.2726   4.3270   4.3994   4.4682
     5.4828   5.5112   5.5318   5.5630   6.1525   6.2371   6.3604   6.4829
     6.5612   6.5886   6.6107   6.6390   9.0379   9.1905   9.3662   9.4888
     9.7700   9.7909   9.8225   9.8937   9.9829  10.1553

          k = 0.1250 0.3608 0.0000 ( 21195 PWs)   bands (ev):

   -53.4577 -53.4358 -53.4142 -53.3845 -27.7041 -27.6810 -27.6595 -27.6313
   -27.6021 -27.5801 -27.5587 -27.5289 -27.5153 -27.4923 -27.4709 -27.4424
    -5.4576  -5.4193  -5.3758  -5.3242  -4.9627  -4.9116  -4.8601  -4.8094
     2.1580   2.2304   2.3295   2.4083   3.1447   3.1944   3.2528   3.3157
     3.5026   3.5630   3.6386   3.7226   4.0756   4.1679   4.2645   4.3339
     5.4261   5.4553   5.4776   5.5138   5.9362   6.0082   6.1056   6.1946
     6.5261   6.5501   6.5708   6.6019   9.0784   9.2319   9.4205   9.5566
     9.8435   9.8699   9.9019   9.9862  10.2226  10.3739

          k = 0.1250 0.4330 0.0000 ( 21113 PWs)   bands (ev):

   -53.4515 -53.4296 -53.4080 -53.3783 -27.7562 -27.7330 -27.7116 -27.6834
   -27.5900 -27.5681 -27.5466 -27.5354 -27.5168 -27.5125 -27.4910 -27.4626
    -5.1157  -5.0813  -5.0471  -5.0002  -4.8091  -4.7669  -4.7291  -4.6853
     1.9705   2.0184   2.0760   2.1317   2.7255   2.7646   2.8008   2.8479
     3.4506   3.5086   3.5937   3.6767   4.0502   4.1344   4.2186   4.2808
     5.3739   5.4111   5.4480   5.4956   5.6654   5.7305   5.8171   5.8954
     6.6640   6.6906   6.7123   6.7441   9.2921   9.4264   9.5988   9.7265
     9.9555   9.9828  10.0132  10.0609  10.5394  10.6550

          k = 0.1250 0.5052 0.0000 ( 21081 PWs)   bands (ev):

   -53.4474 -53.4255 -53.4039 -53.3742 -27.7907 -27.7676 -27.7461 -27.7180
   -27.5819 -27.5600 -27.5489 -27.5386 -27.5260 -27.5087 -27.5045 -27.4761
    -4.8629  -4.8326  -4.8084  -4.7675  -4.6970  -4.6634  -4.6364  -4.5989
     1.8044   1.8403   1.8773   1.9253   2.4296   2.4610   2.4899   2.5366
     3.3350   3.3981   3.4813   3.5541   4.1045   4.1623   4.2175   4.2662
     5.3725   5.4349   5.4686   5.4896   5.5167   5.5506   5.5976   5.6794
     6.8487   6.8827   6.9112   6.9486   9.5193   9.5927   9.6689   9.7280
    10.1045  10.1461  10.1953  10.2616  10.8311  10.8991

          k = 0.1250 0.5774 0.0000 ( 21108 PWs)   bands (ev):

   -53.4459 -53.4240 -53.4025 -53.3728 -27.8028 -27.7796 -27.7582 -27.7300
   -27.5791 -27.5572 -27.5537 -27.5357 -27.5307 -27.5093 -27.5059 -27.4808
    -4.7678  -4.7395  -4.7196  -4.6827  -4.6552  -4.6263  -4.6029  -4.5683
     1.7406   1.7722   1.8024   1.8490   2.3244   2.3533   2.3806   2.4279
     3.2750   3.3388   3.4214   3.4923   4.1543   4.1875   4.2190   4.2599
     5.3104   5.3992   5.4493   5.4882   5.4989   5.5421   5.5523   5.6216
     6.9406   6.9791   7.0133   7.0543   9.6021   9.6253   9.6484   9.6823
    10.2155  10.2700  10.3136  10.3592  10.9624  11.0137

          k = 0.1875 0.3248 0.0000 ( 21195 PWs)   bands (ev):

   -53.4583 -53.4364 -53.4148 -53.3851 -27.6905 -27.6674 -27.6460 -27.6177
   -27.6033 -27.5813 -27.5599 -27.5301 -27.5220 -27.4991 -27.4776 -27.4492
    -5.4908  -5.4521  -5.4077  -5.3556  -4.9757  -4.9236  -4.8706  -4.8192
     2.2262   2.3062   2.4180   2.5047   3.2751   3.3104   3.3499   3.3923
     3.5451   3.5982   3.6610   3.7323   3.9225   4.0450   4.1733   4.2555
     5.2522   5.2808   5.3031   5.3400   6.1000   6.1587   6.2345   6.3068
     6.5326   6.5588   6.5794   6.6141   8.9890   9.1552   9.3657   9.5310
     9.8681   9.8828   9.9156   9.9682  10.0767  10.2365

          k = 0.1875 0.3969 0.0000 ( 21153 PWs)   bands (ev):

   -53.4521 -53.4302 -53.4086 -53.3789 -27.7324 -27.7093 -27.6879 -27.6596
   -27.5912 -27.5693 -27.5528 -27.5478 -27.5299 -27.5180 -27.5084 -27.4800
    -5.1566  -5.1215  -5.0853  -5.0373  -4.8214  -4.7774  -4.7372  -4.6922
     2.1341   2.1913   2.2644   2.3276   2.8144   2.8362   2.8573   2.8915
     3.5952   3.6327   3.6929   3.7813   3.9207   4.0390   4.1552   4.2295
     4.9346   4.9677   4.9957   5.0376   5.8811   5.9191   5.9636   6.0175
     6.6348   6.6649   6.6883   6.7249   9.1491   9.3150   9.5464   9.7622
     9.9862  10.0070  10.0287  10.0590  10.2621  10.3928

          k = 0.1875 0.4691 0.0000 ( 21101 PWs)   bands (ev):

   -53.4474 -53.4255 -53.4039 -53.3742 -27.7629 -27.7397 -27.7183 -27.6901
   -27.5819 -27.5778 -27.5600 -27.5548 -27.5386 -27.5334 -27.5088 -27.5049
    -4.8757  -4.8445  -4.8184  -4.7761  -4.6912  -4.6558  -4.6272  -4.5888
     2.0451   2.0884   2.1386   2.1917   2.4172   2.4385   2.4595   2.4940
     3.5098   3.5721   3.6473   3.7095   3.9956   4.0960   4.1990   4.2710
     4.7553   4.8008   4.8572   4.9177   5.5818   5.6315   5.6736   5.7267
     6.8351   6.8634   6.8850   6.9183   9.3756   9.4860   9.6230   9.7276
    10.1482  10.1820  10.2236  10.2985  10.4865  10.5752

          k = 0.1875 0.5413 0.0000 ( 21112 PWs)   bands (ev):

   -53.4448 -53.4229 -53.4014 -53.3717 -27.7789 -27.7557 -27.7343 -27.7061
   -27.5917 -27.5769 -27.5687 -27.5550 -27.5473 -27.5336 -27.5189 -27.5037
    -4.7110  -4.6832  -4.6641  -4.6291  -4.6141  -4.5871  -4.5645  -4.5312
     2.0078   2.0388   2.0706   2.1226   2.2007   2.2237   2.2448   2.2812
     3.3647   3.4310   3.5133   3.5788   4.1354   4.1947   4.2558   4.3127
     4.7152   4.7732   4.8434   4.9062   5.3674   5.4218   5.4712   5.5246
     7.0180   7.0506   7.0775   7.1151   9.4529   9.4913   9.5257   9.5671
    10.3368  10.3916  10.4570  10.5387  10.6191  10.6635

          k = 0.2500 0.4330 0.0000 ( 21125 PWs)   bands (ev):

   -53.4474 -53.4255 -53.4039 -53.3742 -27.7484 -27.7252 -27.7038 -27.6756
   -27.5927 -27.5819 -27.5697 -27.5600 -27.5483 -27.5386 -27.5199 -27.5088
    -4.8809  -4.8494  -4.8225  -4.7797  -4.6888  -4.6528  -4.6234  -4.5846
     2.1556   2.2044   2.2644   2.3194   2.4132   2.4301   2.4512   2.4768
     3.6981   3.7220   3.7518   3.8103   3.9901   4.0950   4.2061   4.2810
     4.4303   4.4615   4.4833   4.5170   5.6636   5.6832   5.7012   5.7594
     6.8187   6.8474   6.8684   6.9013   9.3156   9.4375   9.5949   9.7200
    10.1610  10.1899  10.2192  10.3066  10.3570  10.4715

          k = 0.2500 0.5052 0.0000 ( 21117 PWs)   bands (ev):

   -53.4442 -53.4223 -53.4008 -53.3711 -27.7531 -27.7300 -27.7085 -27.6803
   -27.6253 -27.6023 -27.5808 -27.5758 -27.5539 -27.5524 -27.5324 -27.5026
    -4.6829  -4.6551  -4.6361  -4.6024  -4.5898  -4.5638  -4.5414  -4.5087
     2.1132   2.1314   2.1497   2.1814   2.2623   2.3069   2.3508   2.3989
     3.5372   3.6031   3.6662   3.7051   4.0866   4.1212   4.1651   4.2067
     4.2380   4.2953   4.3516   4.3987   5.3813   5.4129   5.4406   5.4974
     7.0590   7.0861   7.1069   7.1391   9.3206   9.3683   9.4177   9.4681
    10.3093  10.3413  10.3759  10.4055  10.5518  10.6049

          k = 0.2500 0.5774 0.0000 ( 21116 PWs)   bands (ev):

   -53.4431 -53.4212 -53.3997 -53.3699 -27.7530 -27.7298 -27.7084 -27.6802
   -27.6385 -27.6155 -27.5940 -27.5736 -27.5657 -27.5517 -27.5302 -27.5004
    -4.6095  -4.5843  -4.5670  -4.5564  -4.5387  -4.5298  -4.5114  -4.4818
     2.0113   2.0294   2.0482   2.0794   2.3500   2.3785   2.4061   2.4491
     3.3794   3.4442   3.5148   3.5681   4.0568   4.1054   4.1731   4.2355
     4.2936   4.3481   4.3974   4.4391   5.2586   5.2851   5.3052   5.3598
     7.1851   7.2138   7.2365   7.2714   9.2528   9.2770   9.2983   9.3272
    10.3333  10.3702  10.4045  10.4262  10.7107  10.7461

          k = 0.3125 0.5413 0.0000 ( 21100 PWs)   bands (ev):

   -53.4425 -53.4206 -53.3991 -53.3693 -27.7319 -27.7087 -27.6873 -27.6669
   -27.6591 -27.6439 -27.6225 -27.5941 -27.5724 -27.5505 -27.5291 -27.4992
    -4.5736  -4.5500  -4.5363  -4.5304  -4.5151  -4.5028  -4.4915  -4.4634
     1.9423   1.9607   1.9801   2.0098   2.5775   2.6130   2.6457   2.6924
     3.3825   3.3912   3.4102   3.4434   3.8535   3.8736   3.8859   3.9063
     4.3531   4.4076   4.4508   4.4970   5.1742   5.2055   5.2302   5.2883
     7.2678   7.2932   7.3137   7.3457   9.1367   9.1625   9.1838   9.2123
    10.2677  10.2875  10.3112  10.3443  10.8079  10.8657

     the Fermi energy is     8.3407 ev

!    total energy              =   -1978.37147385 Ry
     total all-electron energy =    -38771.692319 Ry
     estimated scf accuracy    <          3.5E-09 Ry
     smearing contrib. (-TS)   =       0.00002784 Ry
     internal energy E=F+TS    =   -1978.37150169 Ry

     The total energy is F=E-TS. E is the sum of the following terms:
     one-electron contribution =   -1453.25656022 Ry
     hartree contribution      =     768.89201287 Ry
     xc contribution           =    -119.22704689 Ry
     ewald contribution        =      95.07069636 Ry
     one-center paw contrib.   =   -1269.85060380 Ry

     convergence has been achieved in  19 iterations

     Forces acting on atoms (cartesian axes, Ry/au):

     atom    1 type  2   force =     0.00000000    0.00000000    0.00077182
     atom    2 type  1   force =     0.00000000    0.00000000    0.00067213
     atom    3 type  2   force =     0.00000000    0.00000000    0.00052634
     atom    4 type  2   force =     0.00000000    0.00000000    0.00033526
     atom    5 type  1   force =     0.00000000   -0.00000000    0.00001747
     atom    6 type  2   force =     0.00000000    0.00000000    0.00034769
     atom    7 type  2   force =     0.00000000    0.00000000   -0.00007232
     atom    8 type  1   force =     0.00000000    0.00000000   -0.00019422
     atom    9 type  2   force =     0.00000000    0.00000000    0.00001801
     atom   10 type  2   force =     0.00000000    0.00000000   -0.00067383
     atom   11 type  1   force =     0.00000000    0.00000000   -0.00081118
     atom   12 type  2   force =     0.00000000    0.00000000   -0.00093718

     Total force =     0.001895     Total SCF correction =     0.000293
     SCF correction compared to forces is large: reduce conv_thr to get better values
     Energy error            =      6.0E-04 Ry
     Gradient error          =      9.4E-04 Ry/Bohr

     number of scf cycles    =  11
     number of bfgs steps    =  10

     energy             old  =   -1978.3708752314 Ry
     energy             new  =   -1978.3714738499 Ry

     CASE: energy            _new < energy            _old

     new trust radius        =       0.1099450353 bohr
     new conv_thr            =       0.0000000060 Ry


ATOMIC_POSITIONS (crystal)
S                0.3333329924        0.6666669849       -0.1115537957
Mo               0.0000000000        0.0000000000       -0.0591324025
S                0.3333329924        0.6666669849       -0.0066843621
S                0.6666669849        0.3333329924        0.0973444930
Mo               0.3333329924        0.6666669849        0.1498404514
S                0.6666669849        0.3333329924        0.2023185168
S                0.0000000000        0.0000000000        0.3159874866
Mo               0.6666669849        0.3333329924        0.3685079515
S                0.0000000000        0.0000000000        0.4209882888
S                0.3333329924        0.6666669849        0.5266608275
Mo               0.0000000000        0.0000000000        0.5791487978
S                0.3333329924        0.6666669849        0.6315736762



     Writing config-only to output data dir ./tmp/relax2/mos2_slab2.save/ :
     XML data file
     NEW-OLD atomic charge density approx. for the potential

     total cpu time spent up to now is    28471.7 secs

     Self-consistent Calculation

     iteration #  1     ecut=    80.00 Ry     beta= 0.20
     Davidson diagonalization with overlap
     ethr =  1.00E-06,  avg # of iterations = 10.7

     total cpu time spent up to now is    28852.9 secs

     total energy              =   -1978.37224616 Ry
     estimated scf accuracy    <       0.00460224 Ry

     iteration #  2     ecut=    80.00 Ry     beta= 0.20
     Davidson diagonalization with overlap
     ethr =  4.43E-06,  avg # of iterations =  1.0

     total cpu time spent up to now is    28951.7 secs

     total energy              =   -1978.37110567 Ry
     estimated scf accuracy    <       0.00338207 Ry

     iteration #  3     ecut=    80.00 Ry     beta= 0.20
     Davidson diagonalization with overlap
     ethr =  3.25E-06,  avg # of iterations =  2.6

     total cpu time spent up to now is    29069.1 secs

     total energy              =   -1978.37141443 Ry
     estimated scf accuracy    <       0.00013361 Ry

     iteration #  4     ecut=    80.00 Ry     beta= 0.20
     Davidson diagonalization with overlap
     ethr =  1.28E-07,  avg # of iterations =  4.5

     total cpu time spent up to now is    29207.1 secs

     total energy              =   -1978.37144060 Ry
     estimated scf accuracy    <       0.00004970 Ry

     iteration #  5     ecut=    80.00 Ry     beta= 0.20
     Davidson diagonalization with overlap
     ethr =  4.78E-08,  avg # of iterations =  2.3

     total cpu time spent up to now is    29320.0 secs

     total energy              =   -1978.37144215 Ry
     estimated scf accuracy    <       0.00001998 Ry

     iteration #  6     ecut=    80.00 Ry     beta= 0.20
     Davidson diagonalization with overlap
     ethr =  1.92E-08,  avg # of iterations =  2.6

     total cpu time spent up to now is    29431.4 secs

     total energy              =   -1978.37144232 Ry
     estimated scf accuracy    <       0.00000548 Ry

     iteration #  7     ecut=    80.00 Ry     beta= 0.20
     Davidson diagonalization with overlap
     ethr =  5.27E-09,  avg # of iterations =  3.0

     total cpu time spent up to now is    29555.5 secs

     total energy              =   -1978.37144337 Ry
     estimated scf accuracy    <       0.00000086 Ry

     iteration #  8     ecut=    80.00 Ry     beta= 0.20
     Davidson diagonalization with overlap
     ethr =  8.30E-10,  avg # of iterations =  4.9

     total cpu time spent up to now is    29678.8 secs

     total energy              =   -1978.37144340 Ry
     estimated scf accuracy    <       0.00000063 Ry

     iteration #  9     ecut=    80.00 Ry     beta= 0.20
     Davidson diagonalization with overlap
     ethr =  6.10E-10,  avg # of iterations =  2.0

     total cpu time spent up to now is    29792.1 secs

     total energy              =   -1978.37144356 Ry
     estimated scf accuracy    <       0.00000060 Ry

     iteration # 10     ecut=    80.00 Ry     beta= 0.20
     Davidson diagonalization with overlap
     ethr =  5.78E-10,  avg # of iterations =  2.0

     total cpu time spent up to now is    29904.4 secs

     total energy              =   -1978.37144351 Ry
     estimated scf accuracy    <       0.00000033 Ry

     iteration # 11     ecut=    80.00 Ry     beta= 0.20
     Davidson diagonalization with overlap
     ethr =  3.17E-10,  avg # of iterations =  2.0

     total cpu time spent up to now is    30022.4 secs

     total energy              =   -1978.37144353 Ry
     estimated scf accuracy    <       0.00000032 Ry

     iteration # 12     ecut=    80.00 Ry     beta= 0.20
     Davidson diagonalization with overlap
     ethr =  3.06E-10,  avg # of iterations =  2.0

     total cpu time spent up to now is    30133.6 secs

     total energy              =   -1978.37144348 Ry
     estimated scf accuracy    <       0.00000015 Ry

     iteration # 13     ecut=    80.00 Ry     beta= 0.20
     Davidson diagonalization with overlap
     ethr =  1.41E-10,  avg # of iterations =  2.4

     total cpu time spent up to now is    30251.1 secs

     total energy              =   -1978.37144352 Ry
     estimated scf accuracy    <       0.00000007 Ry

     iteration # 14     ecut=    80.00 Ry     beta= 0.20
     Davidson diagonalization with overlap
     ethr =  6.66E-11,  avg # of iterations =  2.5

     total cpu time spent up to now is    30374.0 secs

     total energy              =   -1978.37144355 Ry
     estimated scf accuracy    <       0.00000005 Ry

     iteration # 15     ecut=    80.00 Ry     beta= 0.20
     Davidson diagonalization with overlap
     ethr =  4.40E-11,  avg # of iterations =  2.4

     total cpu time spent up to now is    30489.4 secs

     total energy              =   -1978.37144356 Ry
     estimated scf accuracy    <       0.00000002 Ry

     iteration # 16     ecut=    80.00 Ry     beta= 0.20
     Davidson diagonalization with overlap
     ethr =  2.40E-11,  avg # of iterations =  2.1

     total cpu time spent up to now is    30613.2 secs

     total energy              =   -1978.37144358 Ry
     estimated scf accuracy    <       0.00000001 Ry

     iteration # 17     ecut=    80.00 Ry     beta= 0.20
     Davidson diagonalization with overlap
     ethr =  1.13E-11,  avg # of iterations =  2.0

     total cpu time spent up to now is    30723.0 secs

     total energy              =   -1978.37144359 Ry
     estimated scf accuracy    <          7.9E-09 Ry

     iteration # 18     ecut=    80.00 Ry     beta= 0.20
     Davidson diagonalization with overlap
     ethr =  7.56E-12,  avg # of iterations =  2.4

     total cpu time spent up to now is    30842.1 secs

     total energy              =   -1978.37144360 Ry
     estimated scf accuracy    <          6.6E-09 Ry

     iteration # 19     ecut=    80.00 Ry     beta= 0.20
     Davidson diagonalization with overlap
     ethr =  6.37E-12,  avg # of iterations =  2.1

     total cpu time spent up to now is    30956.0 secs

     End of self-consistent calculation

          k = 0.0000 0.0000 0.0000 ( 21311 PWs)   bands (ev):

   -53.4900 -53.4607 -53.4495 -53.4126 -27.6639 -27.6345 -27.6235 -27.5866
   -27.4266 -27.4266 -27.3966 -27.3966 -27.3856 -27.3856 -27.3497 -27.3497
    -6.8211  -6.7815  -6.7052  -6.6511  -5.5859  -5.5203  -5.3950  -5.3276
     1.3917   1.5340   1.8553   2.0374   4.7871   4.7872   4.7929   4.8234
     4.8234   4.8316   4.8316   4.8602   4.8602   5.1352   5.7602   5.9022
     5.9022   5.9373   5.9373   5.9460   5.9460   5.9777   5.9777   6.2425
     6.9640   7.2981   7.6788   7.8191  10.1367  10.1367  10.1693  10.1693
    10.1873  10.1873  10.2295  10.2295  10.3459  10.3460

          k = 0.0000 0.0722 0.0000 ( 21283 PWs)   bands (ev):

   -53.4884 -53.4591 -53.4479 -53.4110 -27.6608 -27.6315 -27.6205 -27.5836
   -27.4422 -27.4302 -27.4122 -27.4012 -27.4001 -27.3892 -27.3653 -27.3533
    -6.7615  -6.7220  -6.6460  -6.5920  -5.5586  -5.4938  -5.3709  -5.3042
     1.4609   1.6021   1.9230   2.1057   4.6488   4.6605   4.6878   4.6963
     4.7258   4.8494   4.8856   4.8939   4.9227   4.9545   5.3972   5.5790
     5.8051   5.8403   5.8493   5.8815   5.9998   6.0470   6.1983   6.4854
     6.9681   7.2853   7.6235   7.7445  10.0604  10.0928  10.1029  10.1421
    10.1889  10.2241  10.2245  10.2491  10.2603  10.2807

          k = 0.0000 0.1443 0.0000 ( 21263 PWs)   bands (ev):

   -53.4840 -53.4547 -53.4435 -53.4066 -27.6522 -27.6228 -27.6118 -27.5749
   -27.4862 -27.4562 -27.4452 -27.4402 -27.4102 -27.4094 -27.3992 -27.3633
    -6.5877  -6.5485  -6.4736  -6.4197  -5.4790  -5.4165  -5.3006  -5.2363
     1.6538   1.7906   2.1085   2.2919   4.2996   4.3364   4.3403   4.3511
     4.3831   4.5850   4.9140   5.0287   5.0572   5.0648   5.0733   5.1029
     5.5540   5.5893   5.5993   5.6324   6.0575   6.1422   6.3607   6.6358
     6.9432   7.1937   7.4214   7.5015   9.7570   9.8221   9.8829   9.9291
     9.9830  10.0471  10.0604  10.0818  10.1106  10.1190

          k = 0.0000 0.2165 0.0000 ( 21233 PWs)   bands (ev):

   -53.4773 -53.4480 -53.4369 -53.3999 -27.6392 -27.6099 -27.5989 -27.5620
   -27.5516 -27.5215 -27.5106 -27.4748 -27.4552 -27.4252 -27.4142 -27.3783
    -6.3145  -6.2760  -6.2035  -6.1501  -5.3541  -5.2954  -5.1909  -5.1304
     1.9153   2.0410   2.3436   2.5204   3.8655   3.8999   3.9108   3.9333
     3.9955   4.1679   4.4075   4.5088   5.2281   5.2631   5.2728   5.3039
     5.3083   5.3395   5.3498   5.3794   5.9687   6.0799   6.3164   6.5465
     6.8053   6.9473   7.0564   7.1053   9.3670   9.4895   9.6592   9.8352
     9.8609   9.8994   9.9533   9.9586  10.0050  10.0886

          k = 0.0000 0.2887 0.0000 ( 21197 PWs)   bands (ev):

   -53.4695 -53.4402 -53.4290 -53.3921 -27.6279 -27.6239 -27.5977 -27.5945
   -27.5868 -27.5835 -27.5511 -27.5466 -27.4728 -27.4428 -27.4318 -27.3959
    -5.9677  -5.9304  -5.8626  -5.8103  -5.1966  -5.1428  -5.0540  -4.9982
     2.1147   2.2137   2.4546   2.5888   3.4804   3.5104   3.5497   3.5981
     3.6748   3.7781   3.9097   3.9689   4.8999   4.9353   4.9477   4.9827
     5.6276   5.6633   5.6762   5.7099   5.7543   5.8791   6.1135   6.2929
     6.5398   6.6074   6.6559   6.6960   9.2299   9.3816   9.6130   9.6718
     9.7102   9.7621   9.8127   9.8283  10.1725  10.3231

          k = 0.0000 0.3608 0.0000 ( 21187 PWs)   bands (ev):

   -53.4616 -53.4323 -53.4211 -53.3842 -27.7033 -27.6731 -27.6622 -27.6265
   -27.6085 -27.5792 -27.5681 -27.5312 -27.4904 -27.4603 -27.4493 -27.4135
    -5.5858  -5.5501  -5.4908  -5.4405  -5.0256  -4.9775  -4.9078  -4.8573
     2.0706   2.1313   2.2656   2.3400   3.1177   3.1675   3.2786   3.3861
     3.4415   3.5275   3.6055   3.6626   4.6117   4.6471   4.6605   4.6959
     5.5233   5.6455   5.8662   5.9481   5.9835   6.0046   6.0114   6.0419
     6.3240   6.3796   6.4257   6.4657   9.3506   9.4910   9.5667   9.6032
     9.6443   9.6921   9.7191   9.9133  10.4985  10.6482

          k = 0.0000 0.4330 0.0000 ( 21140 PWs)   bands (ev):

   -53.4549 -53.4257 -53.4145 -53.3775 -27.7665 -27.7363 -27.7254 -27.6898
   -27.5954 -27.5661 -27.5551 -27.5181 -27.5052 -27.4751 -27.4642 -27.4283
    -5.2238  -5.1898  -5.1437  -5.0966  -4.8668  -4.8246  -4.7760  -4.7308
     1.8305   1.8702   1.9395   1.9902   2.7748   2.8222   2.9174   2.9839
     3.3456   3.4048   3.5148   3.5835   4.3910   4.4264   4.4406   4.4762
     5.3534   5.4642   5.6686   5.7922   6.2042   6.2400   6.2737   6.3149
     6.3415   6.4044   6.4736   6.5201   9.5591   9.5932   9.6186   9.6190
     9.6623   9.7249   9.9047  10.0468  10.8060  10.9377

          k = 0.0000 0.5052 0.0000 ( 21078 PWs)   bands (ev):

   -53.4505 -53.4212 -53.4100 -53.3731 -27.8084 -27.7782 -27.7673 -27.7317
   -27.5866 -27.5573 -27.5463 -27.5151 -27.5093 -27.4850 -27.4740 -27.4382
    -4.9538  -4.9206  -4.8912  -4.8475  -4.7512  -4.7144  -4.6845  -4.6436
     1.5995   1.6322   1.6757   1.7208   2.5355   2.5730   2.6430   2.7011
     3.2473   3.3014   3.4059   3.4715   4.2534   4.2887   4.3034   4.3391
     5.2619   5.3632   5.5521   5.6584   6.3598   6.3968   6.4420   6.4865
     6.5310   6.5901   6.6601   6.7096   9.6070   9.6393   9.6534   9.6929
     9.9183   9.9830  10.0925  10.1770  11.0014  11.1062

          k = 0.0000-0.5774 0.0000 ( 21006 PWs)   bands (ev):

   -53.4489 -53.4196 -53.4084 -53.3715 -27.8231 -27.7928 -27.7819 -27.7464
   -27.5836 -27.5543 -27.5432 -27.5185 -27.5062 -27.4885 -27.4775 -27.4417
    -4.8514  -4.8180  -4.7980  -4.7561  -4.7083  -4.6742  -4.6520  -4.6130
     1.5072   1.5386   1.5760   1.6206   2.4499   2.4830   2.5438   2.6013
     3.2002   3.2534   3.3553   3.4193   4.2067   4.2420   4.2568   4.2926
     5.2348   5.3321   5.5140   5.6133   6.4104   6.4480   6.4978   6.5436
     6.6488   6.6971   6.7515   6.7967   9.6354   9.6670   9.6786   9.7162
    10.0780  10.1225  10.1694  10.2192  11.0649  11.1509

          k = 0.0625 0.1083 0.0000 ( 21269 PWs)   bands (ev):

   -53.4854 -53.4561 -53.4449 -53.4080 -27.6550 -27.6256 -27.6146 -27.5777
   -27.4715 -27.4415 -27.4374 -27.4305 -27.4074 -27.3964 -27.3946 -27.3605
    -6.6448  -6.6055  -6.5302  -6.4762  -5.5051  -5.4419  -5.3236  -5.2585
     1.5925   1.7309   2.0503   2.2337   4.4097   4.4448   4.4470   4.4570
     4.4884   4.7001   4.9683   5.0044   5.0124   5.0417   5.0638   5.2232
     5.5903   5.6257   5.6337   5.6664   6.0950   6.1666   6.3645   6.6406
     6.9592   7.2354   7.4952   7.5855   9.8852   9.9277   9.9337   9.9552
    10.0123  10.0191  10.0628  10.1057  10.1490  10.1973

          k = 0.0625 0.1804 0.0000 ( 21194 PWs)   bands (ev):

   -53.4799 -53.4506 -53.4394 -53.4025 -27.6442 -27.6148 -27.6038 -27.5669
   -27.5250 -27.4949 -27.4840 -27.4511 -27.4482 -27.4211 -27.4101 -27.3742
    -6.4211  -6.3823  -6.3087  -6.2551  -5.4027  -5.3425  -5.2335  -5.1714
     1.8239   1.9551   2.2669   2.4488   4.0270   4.0609   4.0701   4.0949
     4.1487   4.3506   4.6378   4.7606   5.1845   5.2136   5.2264   5.2329
     5.2529   5.2616   5.2745   5.3007   6.1445   6.2342   6.4404   6.6770
     6.8807   7.0678   7.2082   7.2631   9.4808   9.5801   9.7019   9.8193
     9.8574   9.9172   9.9543   9.9867  10.0116  10.0621

          k = 0.0625 0.2526 0.0000 ( 21202 PWs)   bands (ev):

   -53.4726 -53.4433 -53.4322 -53.3952 -27.6300 -27.6007 -27.5942 -27.5897
   -27.5641 -27.5532 -27.5527 -27.5174 -27.4691 -27.4390 -27.4281 -27.3922
    -6.1105  -6.0727  -6.0026  -5.9498  -5.2609  -5.2050  -5.1095  -5.0517
     2.0685   2.1819   2.4599   2.6203   3.6397   3.6725   3.6892   3.7201
     3.8129   3.9683   4.1600   4.2367   4.8456   4.8790   4.9007   4.9343
     5.4531   5.4887   5.4992   5.5320   6.0416   6.1398   6.3360   6.5166
     6.6762   6.7656   6.8176   6.8568   9.2107   9.3493   9.5388   9.6603
     9.7760   9.8230   9.8520   9.8866   9.9748  10.1206

          k = 0.0625 0.3248 0.0000 ( 21194 PWs)   bands (ev):

   -53.4648 -53.4355 -53.4243 -53.3874 -27.6682 -27.6381 -27.6272 -27.6147
   -27.5915 -27.5853 -27.5743 -27.5374 -27.4884 -27.4584 -27.4474 -27.4116
    -5.7446  -5.7081  -5.6447  -5.5935  -5.0952  -5.0447  -4.9665  -4.9137
     2.1538   2.2317   2.4151   2.5133   3.3179   3.3513   3.4237   3.5091
     3.5749   3.6663   3.6914   3.7443   4.5392   4.5778   4.6155   4.6541
     5.6886   5.7204   5.7367   5.7713   5.8304   5.9240   6.1039   6.2405
     6.4552   6.5003   6.5295   6.5662   9.1758   9.3138   9.4907   9.5732
     9.7132   9.7539   9.7954   9.9164  10.2303  10.3787

          k = 0.0625 0.3969 0.0000 ( 21151 PWs)   bands (ev):

   -53.4575 -53.4282 -53.4170 -53.3801 -27.7359 -27.7057 -27.6948 -27.6592
   -27.6004 -27.5711 -27.5601 -27.5231 -27.5063 -27.4762 -27.4652 -27.4294
    -5.3694  -5.3347  -5.2822  -5.2336  -4.9280  -4.8833  -4.8253  -4.7778
     1.9910   2.0386   2.1342   2.1932   2.9405   2.9891   3.0853   3.1550
     3.4133   3.4741   3.5813   3.6525   4.3411   4.3809   4.4193   4.4581
     5.5746   5.6642   5.8120   5.8342   5.8754   5.8912   5.9197   5.9887
     6.4669   6.5028   6.5289   6.5635   9.3158   9.4204   9.5412   9.6011
     9.7541   9.7945   9.8675   9.9956  10.5687  10.7021

          k = 0.0625 0.4691 0.0000 ( 21105 PWs)   bands (ev):

   -53.4519 -53.4226 -53.4114 -53.3745 -27.7872 -27.7570 -27.7461 -27.7105
   -27.5895 -27.5602 -27.5492 -27.5199 -27.5122 -27.4898 -27.4788 -27.4430
    -5.0484  -5.0150  -4.9781  -4.9329  -4.7878  -4.7486  -4.7112  -4.6686
     1.7486   1.7839   1.8378   1.8848   2.6209   2.6603   2.7284   2.7834
     3.3196   3.3734   3.4811   3.5501   4.2354   4.2703   4.2968   4.3339
     5.3859   5.4750   5.6383   5.7350   5.9588   5.9921   6.0294   6.0771
     6.6400   6.6762   6.7096   6.7473   9.5154   9.5734   9.6318   9.6754
     9.8913   9.9359  10.0253  10.1198  10.8835  10.9917

          k = 0.0625 0.5413 0.0000 ( 21084 PWs)   bands (ev):

   -53.4489 -53.4196 -53.4084 -53.3715 -27.8148 -27.7845 -27.7737 -27.7381
   -27.5836 -27.5543 -27.5433 -27.5272 -27.5063 -27.4971 -27.4862 -27.4504
    -4.8570  -4.8237  -4.8019  -4.7597  -4.7059  -4.6713  -4.6479  -4.6087
     1.5874   1.6188   1.6576   1.7025   2.4413   2.4741   2.5275   2.5814
     3.2323   3.2854   3.3890   3.4541   4.1930   4.2264   4.2368   4.2738
     5.2829   5.3724   5.5353   5.6256   6.0518   6.0866   6.1279   6.1754
     6.7943   6.8328   6.8727   6.9135   9.6337   9.6614   9.6788   9.7134
    10.0711  10.1163  10.1760  10.2323  11.1117  11.1883

          k = 0.1250 0.2165 0.0000 ( 21179 PWs)   bands (ev):

   -53.4737 -53.4444 -53.4333 -53.3963 -27.6322 -27.6028 -27.5918 -27.5802
   -27.5549 -27.5501 -27.5391 -27.5034 -27.4699 -27.4399 -27.4289 -27.3931
    -6.1596  -6.1216  -6.0508  -5.9978  -5.2829  -5.2263  -5.1285  -5.0700
     2.0496   2.1679   2.4582   2.6274   3.7083   3.7378   3.7498   3.7802
     3.9147   4.0997   4.3352   4.4239   4.7074   4.7408   4.7600   4.7920
     5.3736   5.4091   5.4181   5.4507   6.2266   6.3108   6.4796   6.6512
     6.7396   6.8445   6.8872   6.9264   9.2001   9.3298   9.5002   9.6172
     9.7815   9.7912   9.8314   9.8521   9.9081  10.0837

          k = 0.1250 0.2887 0.0000 ( 21199 PWs)   bands (ev):

   -53.4665 -53.4372 -53.4260 -53.3891 -27.6435 -27.6180 -27.6134 -27.6025
   -27.5887 -27.5777 -27.5667 -27.5407 -27.4932 -27.4632 -27.4522 -27.4164
    -5.8282  -5.7914  -5.7260  -5.6743  -5.1314  -5.0795  -4.9969  -4.9429
     2.2048   2.2959   2.5167   2.6361   3.4678   3.5015   3.5174   3.6049
     3.6820   3.7997   3.8840   3.9274   4.2705   4.3212   4.4071   4.4696
     5.4779   5.5119   5.5254   5.5618   6.1537   6.2305   6.3673   6.4838
     6.5603   6.5904   6.6086   6.6392   9.0411   9.1837   9.3778   9.4906
     9.7726   9.7906   9.8225   9.8927   9.9859  10.1488

          k = 0.1250 0.3608 0.0000 ( 21195 PWs)   bands (ev):

   -53.4592 -53.4299 -53.4187 -53.3818 -27.7058 -27.6756 -27.6647 -27.6290
   -27.6038 -27.5745 -27.5634 -27.5265 -27.5169 -27.4868 -27.4759 -27.4400
    -5.4650  -5.4297  -5.3734  -5.3238  -4.9663  -4.9198  -4.8557  -4.8066
     2.1503   2.2086   2.3363   2.4071   3.1402   3.1816   3.2514   3.3109
     3.5013   3.5565   3.6447   3.7227   4.0736   4.1583   4.2747   4.3363
     5.4212   5.4546   5.4735   5.5135   5.9371   6.0014   6.1121   6.1958
     6.5229   6.5544   6.5649   6.6032   9.0811   9.2223   9.4337   9.5587
     9.8451   9.8697   9.9028   9.9872  10.2245  10.3653

          k = 0.1250 0.4330 0.0000 ( 21113 PWs)   bands (ev):

   -53.4530 -53.4238 -53.4126 -53.3756 -27.7579 -27.7276 -27.7168 -27.6812
   -27.5917 -27.5624 -27.5514 -27.5371 -27.5144 -27.5070 -27.4961 -27.4602
    -5.1230  -5.0893  -5.0467  -5.0003  -4.8125  -4.7715  -4.7277  -4.6836
     1.9638   2.0044   2.0780   2.1300   2.7213   2.7564   2.8000   2.8451
     3.4466   3.4948   3.6003   3.6770   4.0480   4.1246   4.2259   4.2821
     5.3689   5.4046   5.4489   5.4961   5.6659   5.7230   5.8248   5.8982
     6.6613   6.6935   6.7076   6.7453   9.2940   9.4158   9.6111   9.7286
     9.9553   9.9832  10.0140  10.0625  10.5409  10.6488

          k = 0.1250 0.5052 0.0000 ( 21081 PWs)   bands (ev):

   -53.4489 -53.4196 -53.4084 -53.3715 -27.7924 -27.7622 -27.7513 -27.7157
   -27.5836 -27.5543 -27.5506 -27.5433 -27.5205 -27.5095 -27.5063 -27.4737
    -4.8702  -4.8370  -4.8111  -4.7682  -4.7000  -4.6643  -4.6381  -4.5983
     1.7980   1.8307   1.8768   1.9232   2.4248   2.4552   2.4887   2.5346
     3.3303   3.3829   3.4886   3.5552   4.1016   4.1543   4.2199   4.2662
     5.3688   5.4228   5.4612   5.4919   5.5137   5.5551   5.6074   5.6837
     6.8469   6.8817   6.9104   6.9496   9.5198   9.5867   9.6734   9.7291
    10.1042  10.1430  10.1994  10.2636  10.8305  10.8907

          k = 0.1250 0.5774 0.0000 ( 21108 PWs)   bands (ev):

   -53.4474 -53.4182 -53.4070 -53.3700 -27.8045 -27.7743 -27.7634 -27.7278
   -27.5808 -27.5553 -27.5515 -27.5404 -27.5252 -27.5143 -27.5034 -27.4785
    -4.7748  -4.7412  -4.7248  -4.6839  -4.6581  -4.6254  -4.6061  -4.5684
     1.7341   1.7644   1.8009   1.8466   2.3192   2.3483   2.3794   2.4263
     3.2702   3.3237   3.4288   3.4935   4.1507   4.1837   4.2173   4.2585
     5.3091   5.3839   5.4443   5.4811   5.5061   5.5508   5.5561   5.6260
     6.9389   6.9766   7.0139   7.0554   9.6009   9.6268   9.6463   9.6826
    10.2154  10.2659  10.3162  10.3618  10.9601  11.0007

          k = 0.1875 0.3248 0.0000 ( 21195 PWs)   bands (ev):

   -53.4598 -53.4305 -53.4193 -53.3824 -27.6922 -27.6620 -27.6511 -27.6154
   -27.6049 -27.5756 -27.5646 -27.5276 -27.5237 -27.4936 -27.4827 -27.4468
    -5.4981  -5.4627  -5.4051  -5.3552  -4.9793  -4.9321  -4.8659  -4.8163
     2.2182   2.2822   2.4264   2.5037   3.2699   3.3019   3.3443   3.3859
     3.5430   3.5935   3.6630   3.7313   3.9214   4.0339   4.1899   4.2609
     5.2471   5.2800   5.2991   5.3395   6.1014   6.1537   6.2383   6.3064
     6.5290   6.5621   6.5744   6.6159   8.9919   9.1448   9.3806   9.5335
     9.8701   9.8820   9.9151   9.9670  10.0793  10.2328

          k = 0.1875 0.3969 0.0000 ( 21153 PWs)   bands (ev):

   -53.4536 -53.4244 -53.4132 -53.3762 -27.7341 -27.7039 -27.6930 -27.6574
   -27.5929 -27.5636 -27.5545 -27.5525 -27.5244 -27.5156 -27.5135 -27.4777
    -5.1640  -5.1301  -5.0845  -5.0373  -4.8248  -4.7827  -4.7352  -4.6902
     2.1270   2.1741   2.2686   2.3265   2.8102   2.8344   2.8523   2.8867
     3.5865   3.6197   3.6952   3.7782   3.9200   4.0295   4.1703   4.2355
     4.9298   4.9643   4.9945   5.0382   5.8812   5.9137   5.9673   6.0188
     6.6316   6.6661   6.6854   6.7269   9.1514   9.3013   9.5638   9.7658
     9.9837  10.0111  10.0244  10.0598  10.2641  10.3866

          k = 0.1875 0.4691 0.0000 ( 21101 PWs)   bands (ev):

   -53.4489 -53.4196 -53.4084 -53.3715 -27.7646 -27.7343 -27.7235 -27.6879
   -27.5836 -27.5794 -27.5543 -27.5493 -27.5433 -27.5384 -27.5063 -27.5026
    -4.8830  -4.8498  -4.8204  -4.7767  -4.6942  -4.6574  -4.6284  -4.5880
     2.0382   2.0754   2.1401   2.1903   2.4126   2.4386   2.4540   2.4909
     3.5041   3.5554   3.6514   3.7092   3.9940   4.0845   4.2092   4.2738
     4.7499   4.7902   4.8624   4.9196   5.5808   5.6259   5.6780   5.7310
     6.8323   6.8666   6.8801   6.9202   9.3766   9.4754   9.6324   9.7291
    10.1473  10.1792  10.2269  10.3000  10.4864  10.5627

          k = 0.1875 0.5413 0.0000 ( 21112 PWs)   bands (ev):

   -53.4463 -53.4171 -53.4059 -53.3689 -27.7806 -27.7503 -27.7395 -27.7039
   -27.5934 -27.5786 -27.5633 -27.5523 -27.5493 -27.5383 -27.5165 -27.5013
    -4.7180  -4.6842  -4.6700  -4.6306  -4.6169  -4.5856  -4.5680  -4.5314
     1.9996   2.0292   2.0701   2.1203   2.1960   2.2244   2.2397   2.2795
     3.3593   3.4146   3.5197   3.5796   4.1328   4.1853   4.2589   4.3127
     4.7098   4.7587   4.8505   4.9087   5.3682   5.4172   5.4768   5.5295
     7.0158   7.0503   7.0762   7.1168   9.4519   9.4891   9.5263   9.5676
    10.3371  10.3846  10.4604  10.5403  10.6136  10.6612

          k = 0.2500 0.4330 0.0000 ( 21125 PWs)   bands (ev):

   -53.4489 -53.4196 -53.4084 -53.3715 -27.7501 -27.7199 -27.7090 -27.6734
   -27.5944 -27.5836 -27.5642 -27.5543 -27.5533 -27.5433 -27.5175 -27.5063
    -4.8882  -4.8550  -4.8242  -4.7802  -4.6918  -4.6545  -4.6244  -4.5837
     2.1483   2.1892   2.2672   2.3186   2.4095   2.4308   2.4454   2.4732
     3.6840   3.7179   3.7447   3.8047   3.9895   4.0862   4.2204   4.2872
     4.4270   4.4629   4.4782   4.5175   5.6557   5.6911   5.6969   5.7641
     6.8157   6.8512   6.8630   6.9036   9.3167   9.4253   9.6056   9.7215
    10.1588  10.1886  10.2216  10.3081  10.3572  10.4660

          k = 0.2500 0.5052 0.0000 ( 21117 PWs)   bands (ev):

   -53.4457 -53.4165 -53.4053 -53.3683 -27.7548 -27.7246 -27.7137 -27.6781
   -27.6269 -27.5968 -27.5859 -27.5774 -27.5501 -27.5482 -27.5371 -27.5001
    -4.6898  -4.6561  -4.6422  -4.6039  -4.5924  -4.5620  -4.5450  -4.5090
     2.1062   2.1331   2.1404   2.1761   2.2586   2.2990   2.3518   2.3981
     3.5315   3.5870   3.6677   3.7051   4.0815   4.1106   4.1555   4.1972
     4.2457   4.3020   4.3571   4.4029   5.3770   5.4123   5.4429   5.5037
     7.0563   7.0905   7.1011   7.1412   9.3196   9.3637   9.4200   9.4685
    10.3081  10.3444  10.3704  10.4006  10.5531  10.6074

          k = 0.2500 0.5774 0.0000 ( 21116 PWs)   bands (ev):

   -53.4446 -53.4154 -53.4042 -53.3672 -27.7547 -27.7244 -27.7135 -27.6779
   -27.6402 -27.6100 -27.5991 -27.5753 -27.5634 -27.5460 -27.5350 -27.4980
    -4.6157  -4.5823  -4.5760  -4.5589  -4.5401  -4.5282  -4.5157  -4.4823
     2.0054   2.0311   2.0399   2.0748   2.3453   2.3739   2.4036   2.4464
     3.3742   3.4294   3.5191   3.5688   4.0498   4.0874   4.1730   4.2303
     4.2990   4.3500   4.3989   4.4410   5.2550   5.2901   5.3043   5.3665
     7.1826   7.2161   7.2330   7.2735   9.2504   9.2801   9.2931   9.3276
    10.3355  10.3691  10.4001  10.4220  10.7102  10.7468

          k = 0.3125 0.5413 0.0000 ( 21100 PWs)   bands (ev):

   -53.4440 -53.4148 -53.4036 -53.3666 -27.7336 -27.7033 -27.6925 -27.6686
   -27.6569 -27.6385 -27.6275 -27.5918 -27.5741 -27.5448 -27.5338 -27.4968
    -4.5795  -4.5487  -4.5413  -4.5365  -4.5131  -4.5050  -4.4957  -4.4638
     1.9369   1.9626   1.9718   2.0057   2.5717   2.6049   2.6452   2.6910
     3.3763   3.3899   3.4048   3.4348   3.8475   3.8732   3.8825   3.9036
     4.3521   4.4036   4.4529   4.4993   5.1691   5.2063   5.2331   5.2969
     7.2651   7.2988   7.3073   7.3481   9.1342   9.1651   9.1785   9.2125
    10.2703  10.2921  10.3053  10.3382  10.8089  10.8625

     the Fermi energy is     8.3495 ev

!    total energy              =   -1978.37144360 Ry
     total all-electron energy =    -38771.692288 Ry
     estimated scf accuracy    <          3.9E-09 Ry
     smearing contrib. (-TS)   =       0.00003129 Ry
     internal energy E=F+TS    =   -1978.37147489 Ry

     The total energy is F=E-TS. E is the sum of the following terms:
     one-electron contribution =   -1466.04296859 Ry
     hartree contribution      =     775.28582434 Ry
     xc contribution           =    -119.23455025 Ry
     ewald contribution        =     101.47130673 Ry
     one-center paw contrib.   =   -1269.85108712 Ry

     convergence has been achieved in  19 iterations

     Forces acting on atoms (cartesian axes, Ry/au):

     atom    1 type  2   force =     0.00000000    0.00000000    0.00046174
     atom    2 type  1   force =     0.00000000   -0.00000000    0.00044138
     atom    3 type  2   force =     0.00000000    0.00000000    0.00029717
     atom    4 type  2   force =     0.00000000   -0.00000000    0.00032490
     atom    5 type  1   force =     0.00000000    0.00000000    0.00040988
     atom    6 type  2   force =     0.00000000    0.00000000    0.00130664
     atom    7 type  2   force =     0.00000000    0.00000000   -0.00091182
     atom    8 type  1   force =     0.00000000    0.00000000   -0.00049276
     atom    9 type  2   force =     0.00000000    0.00000000   -0.00013948
     atom   10 type  2   force =     0.00000000    0.00000000   -0.00027697
     atom   11 type  1   force =     0.00000000    0.00000000   -0.00056394
     atom   12 type  2   force =     0.00000000   -0.00000000   -0.00085672

     Total force =     0.002168     Total SCF correction =     0.000243
     SCF correction compared to forces is large: reduce conv_thr to get better values
     Energy error            =      3.0E-05 Ry
     Gradient error          =      1.3E-03 Ry/Bohr

     number of scf cycles    =  12
     number of bfgs steps    =  11

     energy             old  =   -1978.3714738499 Ry
     energy             new  =   -1978.3714435978 Ry

     CASE: energy            _new > energy            _old

     new trust radius        =       0.0459425871 bohr
     new conv_thr            =       0.0000000060 Ry


ATOMIC_POSITIONS (crystal)
S                0.3333329942        0.6666669883       -0.1121371726
Mo               0.0000000000        0.0000000000       -0.0597088430
S                0.3333329942        0.6666669883       -0.0072458707
S                0.6666669883        0.3333329942        0.0984070688
Mo               0.3333329942        0.6666669883        0.1509228353
S                0.6666669883        0.3333329942        0.2034135569
S                0.0000000000        0.0000000000        0.3148585320
Mo               0.6666669883        0.3333329942        0.3673890387
S                0.0000000000        0.0000000000        0.4198830038
S                0.3333329942        0.6666669883        0.5272680203
Mo               0.0000000000        0.0000000000        0.5797613890
S                0.3333329942        0.6666669883        0.6321883870



     Writing config-only to output data dir ./tmp/relax2/mos2_slab2.save/ :
     XML data file
     NEW-OLD atomic charge density approx. for the potential

     total cpu time spent up to now is    31010.9 secs

     Self-consistent Calculation

     iteration #  1     ecut=    80.00 Ry     beta= 0.20
     Davidson diagonalization with overlap
     ethr =  1.00E-06,  avg # of iterations =  8.1

     total cpu time spent up to now is    31342.6 secs

     total energy              =   -1978.37175109 Ry
     estimated scf accuracy    <       0.00154077 Ry

     iteration #  2     ecut=    80.00 Ry     beta= 0.20
     Davidson diagonalization with overlap
     ethr =  1.48E-06,  avg # of iterations =  1.0

     total cpu time spent up to now is    31441.6 secs

     total energy              =   -1978.37139300 Ry
     estimated scf accuracy    <       0.00114670 Ry

     iteration #  3     ecut=    80.00 Ry     beta= 0.20
     Davidson diagonalization with overlap
     ethr =  1.10E-06,  avg # of iterations =  2.7

     total cpu time spent up to now is    31558.9 secs

     total energy              =   -1978.37149893 Ry
     estimated scf accuracy    <       0.00004013 Ry

     iteration #  4     ecut=    80.00 Ry     beta= 0.20
     Davidson diagonalization with overlap
     ethr =  3.86E-08,  avg # of iterations =  3.9

     total cpu time spent up to now is    31693.6 secs

     total energy              =   -1978.37150553 Ry
     estimated scf accuracy    <       0.00001465 Ry

     iteration #  5     ecut=    80.00 Ry     beta= 0.20
     Davidson diagonalization with overlap
     ethr =  1.41E-08,  avg # of iterations =  2.1

     total cpu time spent up to now is    31809.3 secs

     total energy              =   -1978.37150565 Ry
     estimated scf accuracy    <       0.00000926 Ry

     iteration #  6     ecut=    80.00 Ry     beta= 0.20
     Davidson diagonalization with overlap
     ethr =  8.91E-09,  avg # of iterations =  1.7

     total cpu time spent up to now is    31916.2 secs

     total energy              =   -1978.37150608 Ry
     estimated scf accuracy    <       0.00000175 Ry

     iteration #  7     ecut=    80.00 Ry     beta= 0.20
     Davidson diagonalization with overlap
     ethr =  1.68E-09,  avg # of iterations =  2.9

     total cpu time spent up to now is    32032.8 secs

     total energy              =   -1978.37150609 Ry
     estimated scf accuracy    <       0.00000045 Ry

     iteration #  8     ecut=    80.00 Ry     beta= 0.20
     Davidson diagonalization with overlap
     ethr =  4.37E-10,  avg # of iterations =  4.2

     total cpu time spent up to now is    32156.7 secs

     total energy              =   -1978.37150616 Ry
     estimated scf accuracy    <       0.00000025 Ry

     iteration #  9     ecut=    80.00 Ry     beta= 0.20
     Davidson diagonalization with overlap
     ethr =  2.36E-10,  avg # of iterations =  2.3

     total cpu time spent up to now is    32276.0 secs

     total energy              =   -1978.37150628 Ry
     estimated scf accuracy    <       0.00000021 Ry

     iteration # 10     ecut=    80.00 Ry     beta= 0.20
     Davidson diagonalization with overlap
     ethr =  2.06E-10,  avg # of iterations =  2.0

     total cpu time spent up to now is    32394.0 secs

     total energy              =   -1978.37150633 Ry
     estimated scf accuracy    <       0.00000011 Ry

     iteration # 11     ecut=    80.00 Ry     beta= 0.20
     Davidson diagonalization with overlap
     ethr =  1.10E-10,  avg # of iterations =  2.6

     total cpu time spent up to now is    32510.2 secs

     total energy              =   -1978.37150622 Ry
     estimated scf accuracy    <       0.00000019 Ry

     iteration # 12     ecut=    80.00 Ry     beta= 0.20
     Davidson diagonalization with overlap
     ethr =  1.10E-10,  avg # of iterations =  4.0

     total cpu time spent up to now is    32653.1 secs

     total energy              =   -1978.37150622 Ry
     estimated scf accuracy    <       0.00000020 Ry

     iteration # 13     ecut=    80.00 Ry     beta= 0.20
     Davidson diagonalization with overlap
     ethr =  1.10E-10,  avg # of iterations =  2.7

     total cpu time spent up to now is    32778.4 secs

     total energy              =   -1978.37150625 Ry
     estimated scf accuracy    <       0.00000003 Ry

     iteration # 14     ecut=    80.00 Ry     beta= 0.20
     Davidson diagonalization with overlap
     ethr =  3.00E-11,  avg # of iterations =  2.1

     total cpu time spent up to now is    32906.7 secs

     total energy              =   -1978.37150624 Ry
     estimated scf accuracy    <       0.00000002 Ry

     iteration # 15     ecut=    80.00 Ry     beta= 0.20
     Davidson diagonalization with overlap
     ethr =  1.75E-11,  avg # of iterations =  1.4

     total cpu time spent up to now is    33009.2 secs

     total energy              =   -1978.37150624 Ry
     estimated scf accuracy    <       0.00000001 Ry

     iteration # 16     ecut=    80.00 Ry     beta= 0.20
     Davidson diagonalization with overlap
     ethr =  1.01E-11,  avg # of iterations =  3.5

     total cpu time spent up to now is    33142.6 secs

     total energy              =   -1978.37150625 Ry
     estimated scf accuracy    <       0.00000002 Ry

     iteration # 17     ecut=    80.00 Ry     beta= 0.20
     Davidson diagonalization with overlap
     ethr =  1.01E-11,  avg # of iterations =  2.2

     total cpu time spent up to now is    33256.7 secs

     total energy              =   -1978.37150625 Ry
     estimated scf accuracy    <          6.9E-09 Ry

     iteration # 18     ecut=    80.00 Ry     beta= 0.20
     Davidson diagonalization with overlap
     ethr =  6.59E-12,  avg # of iterations =  2.9

     total cpu time spent up to now is    33380.4 secs

     total energy              =   -1978.37150624 Ry
     estimated scf accuracy    <       0.00000001 Ry

     iteration # 19     ecut=    80.00 Ry     beta= 0.20
     Davidson diagonalization with overlap
     ethr =  6.59E-12,  avg # of iterations =  2.0

     total cpu time spent up to now is    33489.1 secs

     End of self-consistent calculation

          k = 0.0000 0.0000 0.0000 ( 21311 PWs)   bands (ev):

   -53.4896 -53.4646 -53.4466 -53.4136 -27.6634 -27.6383 -27.6205 -27.5875
   -27.4262 -27.4262 -27.4003 -27.4003 -27.3825 -27.3825 -27.3506 -27.3506
    -6.8166  -6.7728  -6.7087  -6.6515  -5.5830  -5.5099  -5.4028  -5.3308
     1.3967   1.5562   1.8399   2.0353   4.7887   4.7887   4.7929   4.8219
     4.8219   4.8376   4.8376   4.8618   4.8618   5.1592   5.7340   5.9039
     5.9039   5.9355   5.9355   5.9512   5.9513   5.9789   5.9789   6.2377
     6.9619   7.3085   7.6494   7.8087  10.1390  10.1390  10.1695  10.1695
    10.1882  10.1882  10.2294  10.2294  10.3457  10.3458

          k = 0.0000 0.0722 0.0000 ( 21283 PWs)   bands (ev):

   -53.4881 -53.4630 -53.4451 -53.4121 -27.6604 -27.6352 -27.6175 -27.5845
   -27.4418 -27.4298 -27.4158 -27.4038 -27.3981 -27.3861 -27.3661 -27.3541
    -6.7570  -6.7133  -6.6495  -6.5923  -5.5558  -5.4835  -5.3785  -5.3074
     1.4660   1.6244   1.9077   2.1036   4.6500   4.6613   4.6863   4.7022
     4.7273   4.8510   4.8841   4.8998   4.9243   4.9749   5.3816   5.5786
     5.8068   5.8387   5.8544   5.8827   6.0003   6.0510   6.1906   6.4830
     6.9662   7.2951   7.5975   7.7350  10.0619  10.0897  10.1061  10.1419
    10.1879  10.2226  10.2290  10.2479  10.2664  10.2787

          k = 0.0000 0.1443 0.0000 ( 21263 PWs)   bands (ev):

   -53.4836 -53.4586 -53.4406 -53.4076 -27.6518 -27.6266 -27.6088 -27.5758
   -27.4858 -27.4599 -27.4421 -27.4398 -27.4139 -27.4102 -27.3961 -27.3642
    -6.5832  -6.5399  -6.4770  -6.4200  -5.4762  -5.4068  -5.3077  -5.2392
     1.6591   1.8132   2.0935   2.2901   4.3013   4.3352   4.3425   4.3557
     4.3844   4.6014   4.9005   5.0304   5.0560   5.0635   5.0791   5.1044
     5.5558   5.5881   5.6040   5.6336   6.0575   6.1484   6.3522   6.6341
     6.9416   7.2010   7.4049   7.4948   9.7549   9.8208   9.8819   9.9285
     9.9819  10.0455  10.0591  10.0838  10.1042  10.1216

          k = 0.0000 0.2165 0.0000 ( 21233 PWs)   bands (ev):

   -53.4770 -53.4519 -53.4340 -53.4010 -27.6388 -27.6137 -27.5959 -27.5628
   -27.5512 -27.5252 -27.5074 -27.4756 -27.4548 -27.4288 -27.4111 -27.3792
    -6.3100  -6.2676  -6.2068  -6.1504  -5.3515  -5.2866  -5.1973  -5.1330
     1.9210   2.0636   2.3296   2.5190   3.8677   3.8992   3.9154   3.9359
     3.9965   4.1801   4.3961   4.5072   5.2304   5.2624   5.2777   5.3051
     5.3097   5.3384   5.3546   5.3808   5.9681   6.0871   6.3075   6.5449
     6.8042   6.9508   7.0498   7.1020   9.3646   9.4898   9.6533   9.8333
     9.8629   9.9035   9.9499   9.9573  10.0025  10.0910

          k = 0.0000 0.2887 0.0000 ( 21197 PWs)   bands (ev):

   -53.4691 -53.4441 -53.4262 -53.3931 -27.6275 -27.6234 -27.6014 -27.5983
   -27.5836 -27.5805 -27.5519 -27.5475 -27.4724 -27.4464 -27.4287 -27.3968
    -5.9632  -5.9224  -5.8655  -5.8105  -5.1941  -5.1354  -5.0592  -5.0004
     2.1207   2.2339   2.4443   2.5885   3.4843   3.5146   3.5525   3.5999
     3.6761   3.7836   3.9013   3.9653   4.9021   4.9352   4.9515   4.9837
     5.6297   5.6634   5.6800   5.7112   5.7536   5.8873   6.1041   6.2912
     6.5394   6.6090   6.6535   6.6945   9.2275   9.3841   9.6040   9.6738
     9.7141   9.7589   9.8105   9.8259  10.1708  10.3254

          k = 0.0000 0.3608 0.0000 ( 21187 PWs)   bands (ev):

   -53.4613 -53.4362 -53.4183 -53.3853 -27.7028 -27.6767 -27.6590 -27.6273
   -27.6080 -27.5830 -27.5652 -27.5321 -27.4899 -27.4640 -27.4462 -27.4143
    -5.5813  -5.5428  -5.4931  -5.4405  -5.0233  -4.9717  -4.9115  -4.8589
     2.0758   2.1450   2.2610   2.3410   3.1213   3.1788   3.2768   3.3890
     3.4416   3.5311   3.5983   3.6594   4.6139   4.6472   4.6640   4.6969
     5.5228   5.6548   5.8565   5.9507   5.9853   6.0064   6.0094   6.0428
     6.3238   6.3815   6.4235   6.4643   9.3486   9.4950   9.5685   9.6059
     9.6421   9.6904   9.7098   9.9109  10.4965  10.6505

          k = 0.0000 0.4330 0.0000 ( 21140 PWs)   bands (ev):

   -53.4546 -53.4296 -53.4116 -53.3786 -27.7661 -27.7399 -27.7222 -27.6906
   -27.5950 -27.5699 -27.5521 -27.5190 -27.5048 -27.4788 -27.4610 -27.4292
    -5.2194  -5.1837  -5.1451  -5.0963  -4.8649  -4.8209  -4.7780  -4.7317
     1.8347   1.8785   1.9382   1.9918   2.7780   2.8320   2.9145   2.9851
     3.3469   3.4120   3.5085   3.5822   4.3933   4.4268   4.4439   4.4772
     5.3533   5.4744   5.6589   5.7896   6.2072   6.2436   6.2736   6.3152
     6.3413   6.4073   6.4704   6.5193   9.5606   9.5938   9.6176   9.6183
     9.6612   9.7293   9.8970  10.0449  10.8040  10.9395

          k = 0.0000 0.5052 0.0000 ( 21078 PWs)   bands (ev):

   -53.4501 -53.4251 -53.4072 -53.3741 -27.8080 -27.7818 -27.7641 -27.7325
   -27.5862 -27.5612 -27.5434 -27.5146 -27.5102 -27.4887 -27.4709 -27.4390
    -4.9497  -4.9164  -4.8910  -4.8468  -4.7496  -4.7128  -4.6845  -4.6437
     1.6032   1.6381   1.6757   1.7227   2.5388   2.5811   2.6406   2.7019
     3.2495   3.3095   3.4003   3.4703   4.2557   4.2892   4.3066   4.3402
     5.2623   5.3737   5.5425   5.6553   6.3631   6.4016   6.4406   6.4863
     6.5309   6.5932   6.6575   6.7093   9.6081   9.6375   9.6555   9.6924
     9.9175   9.9868  10.0875  10.1756  10.9996  11.1085

          k = 0.0000-0.5774 0.0000 ( 21006 PWs)   bands (ev):

   -53.4485 -53.4235 -53.4056 -53.3726 -27.8226 -27.7964 -27.7787 -27.7471
   -27.5831 -27.5581 -27.5403 -27.5181 -27.5072 -27.4921 -27.4744 -27.4425
    -4.8475  -4.8152  -4.7965  -4.7551  -4.7068  -4.6739  -4.6509  -4.6127
     1.5108   1.5438   1.5763   1.6224   2.4534   2.4904   2.5415   2.6021
     3.2026   3.2616   3.3499   3.4182   4.2090   4.2426   4.2600   4.2936
     5.2353   5.3427   5.5044   5.6100   6.4137   6.4533   6.4960   6.5432
     6.6486   6.6995   6.7499   6.7967   9.6364   9.6644   9.6816   9.7157
    10.0780  10.1247  10.1672  10.2176  11.0631  11.1537

          k = 0.0625 0.1083 0.0000 ( 21269 PWs)   bands (ev):

   -53.4851 -53.4600 -53.4421 -53.4091 -27.6546 -27.6294 -27.6116 -27.5786
   -27.4711 -27.4452 -27.4370 -27.4274 -27.4111 -27.3955 -27.3933 -27.3614
    -6.6403  -6.5969  -6.5336  -6.4766  -5.5023  -5.4320  -5.3309  -5.2616
     1.5977   1.7535   2.0351   2.2318   4.4113   4.4451   4.4462   4.4628
     4.4899   4.7177   4.9699   5.0028   5.0181   5.0432   5.0497   5.2221
     5.5921   5.6237   5.6391   5.6675   6.0952   6.1721   6.3566   6.6389
     6.9575   7.2436   7.4757   7.5779   9.8836   9.9264   9.9334   9.9563
    10.0113  10.0182  10.0595  10.1042  10.1507  10.1908

          k = 0.0625 0.1804 0.0000 ( 21194 PWs)   bands (ev):

   -53.4795 -53.4545 -53.4365 -53.4035 -27.6437 -27.6186 -27.6008 -27.5678
   -27.5246 -27.4986 -27.4809 -27.4507 -27.4490 -27.4248 -27.4070 -27.3751
    -6.4166  -6.3739  -6.3121  -6.2554  -5.4000  -5.3333  -5.2401  -5.1742
     1.8294   1.9778   2.2523   2.4471   4.0289   4.0596   4.0751   4.0973
     4.1499   4.3652   4.6249   4.7591   5.1863   5.2141   5.2304   5.2342
     5.2555   5.2603   5.2781   5.3017   6.1441   6.2402   6.4331   6.6757
     6.8795   7.0727   7.1988   7.2583   9.4787   9.5800   9.6983   9.8184
     9.8571   9.9179   9.9549   9.9866  10.0112  10.0518

          k = 0.0625 0.2526 0.0000 ( 21202 PWs)   bands (ev):

   -53.4723 -53.4472 -53.4293 -53.3963 -27.6296 -27.6045 -27.5938 -27.5867
   -27.5677 -27.5536 -27.5500 -27.5182 -27.4687 -27.4427 -27.4249 -27.3930
    -6.1060  -6.0645  -6.0057  -5.9501  -5.2583  -5.1970  -5.1152  -5.0541
     2.0745   2.2038   2.4474   2.6194   3.6424   3.6727   3.6936   3.7226
     3.8139   3.9781   4.1501   4.2346   4.8468   4.8799   4.9025   4.9355
     5.4551   5.4880   5.5038   5.5333   6.0410   6.1458   6.3290   6.5154
     6.6755   6.7672   6.8151   6.8550   9.2084   9.3514   9.5323   9.6599
     9.7777   9.8208   9.8522   9.8855   9.9732  10.1241

          k = 0.0625 0.3248 0.0000 ( 21194 PWs)   bands (ev):

   -53.4644 -53.4394 -53.4214 -53.3884 -27.6678 -27.6417 -27.6240 -27.6142
   -27.5923 -27.5891 -27.5713 -27.5383 -27.4880 -27.4621 -27.4443 -27.4124
    -5.7401  -5.7005  -5.6473  -5.5936  -5.0929  -5.0382  -4.9709  -4.9156
     2.1596   2.2488   2.4079   2.5137   3.3223   3.3597   3.4249   3.5111
     3.5773   3.6688   3.6871   3.7367   4.5405   4.5803   4.6154   4.6551
     5.6910   5.7207   5.7397   5.7728   5.8297   5.9299   6.0967   6.2392
     6.4553   6.5008   6.5291   6.5656   9.1738   9.3176   9.4853   9.5730
     9.7116   9.7535   9.7933   9.9148  10.2286  10.3814

          k = 0.0625 0.3969 0.0000 ( 21151 PWs)   bands (ev):

   -53.4571 -53.4321 -53.4142 -53.3812 -27.7355 -27.7093 -27.6916 -27.6599
   -27.6000 -27.5749 -27.5571 -27.5240 -27.5058 -27.4799 -27.4621 -27.4302
    -5.3650  -5.3281  -5.2840  -5.2334  -4.9260  -4.8786  -4.8281  -4.7791
     1.9956   2.0492   2.1316   2.1945   2.9437   2.9989   3.0831   3.1570
     3.4141   3.4802   3.5751   3.6514   4.3426   4.3837   4.4193   4.4590
     5.5745   5.6722   5.8071   5.8365   5.8767   5.8907   5.9181   5.9871
     6.4671   6.5031   6.5292   6.5635   9.3144   9.4245   9.5378   9.6010
     9.7527   9.7952   9.8630   9.9939  10.5669  10.7039

          k = 0.0625 0.4691 0.0000 ( 21105 PWs)   bands (ev):

   -53.4516 -53.4265 -53.4086 -53.3756 -27.7868 -27.7606 -27.7429 -27.7113
   -27.5891 -27.5640 -27.5462 -27.5194 -27.5131 -27.4935 -27.4757 -27.4438
    -5.0441  -5.0099  -4.9786  -4.9323  -4.7860  -4.7462  -4.7121  -4.6691
     1.7525   1.7908   1.8372   1.8866   2.6240   2.6680   2.7265   2.7846
     3.3217   3.3815   3.4755   3.5491   4.2373   4.2722   4.2981   4.3351
     5.3861   5.4838   5.6303   5.7325   5.9615   5.9950   6.0286   6.0768
     6.6403   6.6773   6.7092   6.7475   9.5149   9.5760   9.6303   9.6754
     9.8905   9.9381  10.0206  10.1184  10.8819  10.9940

          k = 0.0625 0.5413 0.0000 ( 21084 PWs)   bands (ev):

   -53.4485 -53.4235 -53.4056 -53.3726 -27.8144 -27.7881 -27.7704 -27.7389
   -27.5831 -27.5581 -27.5403 -27.5268 -27.5072 -27.5008 -27.4830 -27.4512
    -4.8530  -4.8205  -4.8007  -4.7587  -4.7044  -4.6708  -4.6470  -4.6085
     1.5911   1.6242   1.6578   1.7044   2.4446   2.4805   2.5259   2.5824
     3.2348   3.2939   3.3837   3.4532   4.1953   4.2254   4.2411   4.2751
     5.2832   5.3818   5.5268   5.6226   6.0551   6.0911   6.1263   6.1746
     6.7946   6.8345   6.8718   6.9137   9.6340   9.6601   9.6803   9.7136
    10.0709  10.1188  10.1732  10.2311  11.1105  11.1907

          k = 0.1250 0.2165 0.0000 ( 21179 PWs)   bands (ev):

   -53.4734 -53.4483 -53.4304 -53.3974 -27.6317 -27.6066 -27.5888 -27.5798
   -27.5558 -27.5537 -27.5360 -27.5042 -27.4695 -27.4436 -27.4258 -27.3939
    -6.1551  -6.1133  -6.0540  -5.9981  -5.2803  -5.2181  -5.1343  -5.0725
     2.0555   2.1903   2.4449   2.6263   3.7106   3.7363   3.7548   3.7829
     3.9159   4.1122   4.3236   4.4221   4.7083   4.7408   4.7623   4.7928
     5.3756   5.4079   5.4233   5.4521   6.2259   6.3157   6.4743   6.6503
     6.7390   6.8459   6.8852   6.9240   9.1981   9.3319   9.4943   9.6165
     9.7793   9.7939   9.8311   9.8513   9.9070  10.0674

          k = 0.1250 0.2887 0.0000 ( 21199 PWs)   bands (ev):

   -53.4661 -53.4411 -53.4232 -53.3901 -27.6431 -27.6176 -27.6170 -27.5993
   -27.5925 -27.5747 -27.5675 -27.5416 -27.4928 -27.4669 -27.4491 -27.4172
    -5.8238  -5.7836  -5.7288  -5.6744  -5.1290  -5.0726  -5.0016  -4.9449
     2.2109   2.3153   2.5074   2.6360   3.4732   3.5037   3.5199   3.6078
     3.6832   3.8047   3.8801   3.9244   4.2714   4.3248   4.4022   4.4687
     5.4804   5.5119   5.5288   5.5630   6.1528   6.2344   6.3631   6.4833
     6.5605   6.5892   6.6099   6.6396   9.0391   9.1876   9.3709   9.4897
     9.7707   9.7905   9.8228   9.8932   9.9843  10.1540

          k = 0.1250 0.3608 0.0000 ( 21195 PWs)   bands (ev):

   -53.4589 -53.4338 -53.4159 -53.3829 -27.7053 -27.6792 -27.6615 -27.6298
   -27.6033 -27.5783 -27.5605 -27.5274 -27.5165 -27.4905 -27.4727 -27.4409
    -5.4605  -5.4227  -5.3755  -5.3237  -4.9642  -4.9145  -4.8589  -4.8081
     2.1555   2.2219   2.3319   2.4079   3.1433   3.1895   3.2521   3.3143
     3.5017   3.5604   3.6409   3.7227   4.0746   4.1641   4.2683   4.3347
     5.4238   5.4556   5.4753   5.5142   5.9364   6.0054   6.1082   6.1953
     6.5243   6.5517   6.5684   6.6029   9.0794   9.2279   9.4258   9.5575
     9.8437   9.8697   9.9025   9.9868  10.2231  10.3685

          k = 0.1250 0.4330 0.0000 ( 21113 PWs)   bands (ev):

   -53.4527 -53.4276 -53.4097 -53.3767 -27.7574 -27.7313 -27.7136 -27.6819
   -27.5913 -27.5662 -27.5484 -27.5367 -27.5153 -27.5107 -27.4929 -27.4611
    -5.1187  -5.0836  -5.0478  -4.9999  -4.8107  -4.7683  -4.7292  -4.6843
     1.9680   2.0132   2.0764   2.1314   2.7239   2.7615   2.8001   2.8473
     3.4492   3.5031   3.5961   3.6769   4.0492   4.1306   4.2212   4.2813
     5.3718   5.4091   5.4477   5.4961   5.6655   5.7275   5.8200   5.8967
     6.6624   6.6918   6.7102   6.7451   9.2928   9.4220   9.6037   9.7274
     9.9549   9.9829  10.0136  10.0618  10.5396  10.6509

          k = 0.1250 0.5052 0.0000 ( 21081 PWs)   bands (ev):

   -53.4486 -53.4235 -53.4056 -53.3726 -27.7920 -27.7658 -27.7481 -27.7165
   -27.5832 -27.5581 -27.5502 -27.5403 -27.5242 -27.5072 -27.5064 -27.4746
    -4.8661  -4.8332  -4.8105  -4.7673  -4.6986  -4.6634  -4.6376  -4.5982
     1.8019   1.8370   1.8766   1.9249   2.4276   2.4591   2.4889   2.5363
     3.3333   3.3922   3.4838   3.5547   4.1033   4.1592   4.2181   4.2665
     5.3714   5.4304   5.4655   5.4907   5.5147   5.5527   5.6013   5.6812
     6.8476   6.8825   6.9105   6.9494   9.5194   9.5903   9.6705   9.7287
    10.1040  10.1450  10.1968  10.2626  10.8305  10.8946

          k = 0.1250 0.5774 0.0000 ( 21108 PWs)   bands (ev):

   -53.4471 -53.4221 -53.4041 -53.3711 -27.8041 -27.7779 -27.7602 -27.7286
   -27.5803 -27.5553 -27.5549 -27.5375 -27.5289 -27.5111 -27.5043 -27.4793
    -4.7709  -4.7390  -4.7226  -4.6827  -4.6568  -4.6257  -4.6045  -4.5679
     1.7380   1.7697   1.8012   1.8486   2.3222   2.3518   2.3795   2.4278
     3.2733   3.3329   3.4240   3.4928   4.1526   4.1863   4.2180   4.2598
     5.3102   5.3931   5.4472   5.4859   5.5014   5.5449   5.5540   5.6234
     6.9396   6.9783   7.0131   7.0551   9.6011   9.6258   9.6475   9.6829
    10.2153  10.2684  10.3142  10.3607  10.9615  11.0070

          k = 0.1875 0.3248 0.0000 ( 21195 PWs)   bands (ev):

   -53.4595 -53.4344 -53.4165 -53.3835 -27.6917 -27.6656 -27.6479 -27.6162
   -27.6045 -27.5794 -27.5616 -27.5285 -27.5233 -27.4973 -27.4795 -27.4477
    -5.4937  -5.4556  -5.4073  -5.3552  -4.9771  -4.9267  -4.8693  -4.8178
     2.2236   2.2968   2.4211   2.5043   3.2733   3.3073   3.3474   3.3902
     3.5439   3.5965   3.6615   3.7320   3.9220   4.0406   4.1796   4.2572
     5.2498   5.2811   5.3008   5.3403   6.1003   6.1567   6.2360   6.3070
     6.5307   6.5605   6.5769   6.6153   8.9901   9.1509   9.3718   9.5320
     9.8684   9.8823   9.9157   9.9678  10.0778  10.2348

          k = 0.1875 0.3969 0.0000 ( 21153 PWs)   bands (ev):

   -53.4533 -53.4283 -53.4103 -53.3773 -27.7337 -27.7075 -27.6898 -27.6581
   -27.5924 -27.5674 -27.5541 -27.5496 -27.5281 -27.5165 -27.5103 -27.4785
    -5.1596  -5.1241  -5.0858  -5.0370  -4.8229  -4.7791  -4.7370  -4.6911
     2.1317   2.1847   2.2657   2.3274   2.8124   2.8355   2.8554   2.8902
     3.5921   3.6281   3.6933   3.7801   3.9204   4.0353   4.1609   4.2315
     4.9324   4.9670   4.9944   5.0383   5.8811   5.9168   5.9649   6.0184
     6.6330   6.6658   6.6865   6.7261   9.1501   9.3093   9.5535   9.7635
     9.9847  10.0084  10.0271  10.0598  10.2626  10.3894

          k = 0.1875 0.4691 0.0000 ( 21101 PWs)   bands (ev):

   -53.4486 -53.4235 -53.4056 -53.3726 -27.7641 -27.7379 -27.7202 -27.6886
   -27.5832 -27.5790 -27.5581 -27.5530 -27.5403 -27.5352 -27.5072 -27.5034
    -4.8788  -4.8455  -4.8201  -4.7759  -4.6928  -4.6561  -4.6283  -4.5880
     2.0426   2.0837   2.1387   2.1916   2.4149   2.4386   2.4572   2.4933
     3.5080   3.5657   3.6486   3.7096   3.9950   4.0914   4.2028   4.2721
     4.7532   4.7970   4.8587   4.9187   5.5814   5.6293   5.6748   5.7288
     6.8335   6.8649   6.8826   6.9196   9.3760   9.4816   9.6267   9.7282
    10.1474  10.1809  10.2248  10.2994  10.4860  10.5656

          k = 0.1875 0.5413 0.0000 ( 21112 PWs)   bands (ev):

   -53.4460 -53.4210 -53.4030 -53.3700 -27.7801 -27.7539 -27.7362 -27.7046
   -27.5929 -27.5782 -27.5669 -27.5531 -27.5492 -27.5353 -27.5174 -27.5022
    -4.7142  -4.6825  -4.6673  -4.6293  -4.6156  -4.5864  -4.5662  -4.5308
     2.0047   2.0358   2.0697   2.1222   2.1984   2.2242   2.2425   2.2811
     3.3629   3.4246   3.5154   3.5792   4.1344   4.1911   4.2568   4.3130
     4.7134   4.7677   4.8457   4.9073   5.3675   5.4199   5.4730   5.5269
     7.0167   7.0508   7.0764   7.1162   9.4521   9.4905   9.5256   9.5677
    10.3369  10.3888  10.4581  10.5398  10.6166  10.6635

          k = 0.2500 0.4330 0.0000 ( 21125 PWs)   bands (ev):

   -53.4486 -53.4235 -53.4056 -53.3726 -27.7496 -27.7235 -27.7058 -27.6741
   -27.5939 -27.5832 -27.5679 -27.5582 -27.5501 -27.5404 -27.5184 -27.5072
    -4.8840  -4.8505  -4.8241  -4.7795  -4.6904  -4.6531  -4.6244  -4.5838
     2.1530   2.1988   2.2650   2.3194   2.4112   2.4301   2.4492   2.4759
     3.6924   3.7233   3.7473   3.8080   3.9898   4.0915   4.2115   4.2831
     4.4286   4.4622   4.4809   4.5177   5.6600   5.6886   5.6972   5.7618
     6.8170   6.8491   6.8658   6.9027   9.3161   9.4324   9.5992   9.7207
    10.1597  10.1896  10.2199  10.3075  10.3567  10.4683

          k = 0.2500 0.5052 0.0000 ( 21117 PWs)   bands (ev):

   -53.4454 -53.4204 -53.4024 -53.3694 -27.7544 -27.7282 -27.7105 -27.6789
   -27.6265 -27.6004 -27.5827 -27.5770 -27.5520 -27.5509 -27.5342 -27.5010
    -4.6861  -4.6544  -4.6393  -4.6027  -4.5912  -4.5630  -4.5431  -4.5084
     2.1099   2.1320   2.1465   2.1799   2.2608   2.3040   2.3507   2.3990
     3.5353   3.5969   3.6664   3.7055   4.0852   4.1173   4.1611   4.2029
     4.2407   4.2980   4.3535   4.4002   5.3794   5.4137   5.4401   5.5003
     7.0574   7.0878   7.1044   7.1404   9.3200   9.3665   9.4183   9.4686
    10.3088  10.3430  10.3735  10.4030  10.5524  10.6061

          k = 0.2500 0.5774 0.0000 ( 21116 PWs)   bands (ev):

   -53.4443 -53.4193 -53.4013 -53.3683 -27.7542 -27.7280 -27.7103 -27.6787
   -27.6397 -27.6137 -27.5959 -27.5748 -27.5642 -27.5498 -27.5320 -27.4989
    -4.6124  -4.5833  -4.5704  -4.5580  -4.5388  -4.5293  -4.5131  -4.4815
     2.0085   2.0300   2.0453   2.0781   2.3480   2.3770   2.4048   2.4486
     3.3776   3.4385   3.5161   3.5686   4.0548   4.0986   4.1727   4.2338
     4.2952   4.3487   4.3979   4.4400   5.2567   5.2883   5.3033   5.3629
     7.1836   7.2150   7.2346   7.2727   9.2513   9.2781   9.2962   9.3279
    10.3344  10.3701  10.4022  10.4247  10.7100  10.7454

          k = 0.3125 0.5413 0.0000 ( 21100 PWs)   bands (ev):

   -53.4437 -53.4187 -53.4007 -53.3677 -27.7332 -27.7069 -27.6892 -27.6682
   -27.6577 -27.6421 -27.6244 -27.5926 -27.5737 -27.5486 -27.5308 -27.4977
    -4.5764  -4.5495  -4.5378  -4.5335  -4.5143  -4.5036  -4.4930  -4.4630
     1.9396   1.9613   1.9771   2.0088   2.5753   2.6103   2.6449   2.6924
     3.3799   3.3905   3.4087   3.4405   3.8510   3.8729   3.8856   3.9051
     4.3525   4.4061   4.4512   4.4983   5.1718   5.2074   5.2292   5.2921
     7.2661   7.2952   7.3111   7.3472   9.1351   9.1634   9.1816   9.2129
    10.2686  10.2899  10.3083  10.3424  10.8078  10.8620

     the Fermi energy is     8.3435 ev

!    total energy              =   -1978.37150623 Ry
     total all-electron energy =    -38771.692351 Ry
     estimated scf accuracy    <          5.4E-09 Ry
     smearing contrib. (-TS)   =       0.00002889 Ry
     internal energy E=F+TS    =   -1978.37153512 Ry

     The total energy is F=E-TS. E is the sum of the following terms:
     one-electron contribution =   -1458.32193489 Ry
     hartree contribution      =     771.42533339 Ry
     xc contribution           =    -119.22995617 Ry
     ewald contribution        =      97.60582197 Ry
     one-center paw contrib.   =   -1269.85079942 Ry

     convergence has been achieved in  19 iterations

     Forces acting on atoms (cartesian axes, Ry/au):

     atom    1 type  2   force =     0.00000000    0.00000000    0.00063955
     atom    2 type  1   force =     0.00000000   -0.00000000    0.00058161
     atom    3 type  2   force =     0.00000000    0.00000000    0.00045597
     atom    4 type  2   force =     0.00000000   -0.00000000    0.00031380
     atom    5 type  1   force =     0.00000000    0.00000000    0.00020260
     atom    6 type  2   force =     0.00000000    0.00000000    0.00078837
     atom    7 type  2   force =     0.00000000    0.00000000   -0.00045197
     atom    8 type  1   force =     0.00000000    0.00000000   -0.00032305
     atom    9 type  2   force =     0.00000000    0.00000000   -0.00002701
     atom   10 type  2   force =     0.00000000    0.00000000   -0.00053469
     atom   11 type  1   force =     0.00000000    0.00000000   -0.00072946
     atom   12 type  2   force =     0.00000000   -0.00000000   -0.00091573

     Total force =     0.001919     Total SCF correction =     0.000309
     SCF correction compared to forces is large: reduce conv_thr to get better values
     Energy error            =      3.2E-05 Ry
     Gradient error          =      9.2E-04 Ry/Bohr

     number of scf cycles    =  13
     number of bfgs steps    =  11

     energy             old  =   -1978.3714738499 Ry
     energy             new  =   -1978.3715062317 Ry

     CASE: energy            _new < energy            _old

     new trust radius        =       0.0291713616 bohr
     new conv_thr            =       0.0000000010 Ry


ATOMIC_POSITIONS (crystal)
S                0.3333329931        0.6666669861       -0.1118377256
Mo               0.0000000000        0.0000000000       -0.0594151217
S                0.3333329931        0.6666669861       -0.0069650443
S                0.6666669861        0.3333329931        0.0979392601
Mo               0.3333329931        0.6666669861        0.1504391607
S                0.6666669861        0.3333329931        0.2029219815
S                0.0000000000        0.0000000000        0.3153730927
Mo               0.6666669861        0.3333329931        0.3678939918
S                0.0000000000        0.0000000000        0.4203799819
S                0.3333329931        0.6666669861        0.5269583703
Mo               0.0000000000        0.0000000000        0.5794442922
S                0.3333329931        0.6666669861        0.6318676957



     Writing config-only to output data dir ./tmp/relax2/mos2_slab2.save/ :
     XML data file
     NEW-OLD atomic charge density approx. for the potential

     total cpu time spent up to now is    33544.0 secs

     Self-consistent Calculation

     iteration #  1     ecut=    80.00 Ry     beta= 0.20
     Davidson diagonalization with overlap
     ethr =  1.00E-06,  avg # of iterations =  6.9

     total cpu time spent up to now is    33814.9 secs

     total energy              =   -1978.37154471 Ry
     estimated scf accuracy    <       0.00026746 Ry

     iteration #  2     ecut=    80.00 Ry     beta= 0.20
     Davidson diagonalization with overlap
     ethr =  2.57E-07,  avg # of iterations =  1.7

     total cpu time spent up to now is    33921.7 secs

     total energy              =   -1978.37148054 Ry
     estimated scf accuracy    <       0.00021695 Ry

     iteration #  3     ecut=    80.00 Ry     beta= 0.20
     Davidson diagonalization with overlap
     ethr =  2.09E-07,  avg # of iterations =  2.4

     total cpu time spent up to now is    34037.7 secs

     total energy              =   -1978.37150096 Ry
     estimated scf accuracy    <       0.00000802 Ry

     iteration #  4     ecut=    80.00 Ry     beta= 0.20
     Davidson diagonalization with overlap
     ethr =  7.71E-09,  avg # of iterations =  3.8

     total cpu time spent up to now is    34168.7 secs

     total energy              =   -1978.37150151 Ry
     estimated scf accuracy    <       0.00000580 Ry

     iteration #  5     ecut=    80.00 Ry     beta= 0.20
     Davidson diagonalization with overlap
     ethr =  5.58E-09,  avg # of iterations =  1.1

     total cpu time spent up to now is    34268.2 secs

     total energy              =   -1978.37150087 Ry
     estimated scf accuracy    <       0.00000524 Ry

     iteration #  6     ecut=    80.00 Ry     beta= 0.20
     Davidson diagonalization with overlap
     ethr =  5.04E-09,  avg # of iterations =  2.0

     total cpu time spent up to now is    34383.5 secs

     total energy              =   -1978.37150113 Ry
     estimated scf accuracy    <       0.00000099 Ry

     iteration #  7     ecut=    80.00 Ry     beta= 0.20
     Davidson diagonalization with overlap
     ethr =  9.53E-10,  avg # of iterations =  2.4

     total cpu time spent up to now is    34492.0 secs

     total energy              =   -1978.37150102 Ry
     estimated scf accuracy    <       0.00000050 Ry

     iteration #  8     ecut=    80.00 Ry     beta= 0.20
     Davidson diagonalization with overlap
     ethr =  4.82E-10,  avg # of iterations =  3.5

     total cpu time spent up to now is    34612.3 secs

     total energy              =   -1978.37150111 Ry
     estimated scf accuracy    <       0.00000009 Ry

     iteration #  9     ecut=    80.00 Ry     beta= 0.20
     Davidson diagonalization with overlap
     ethr =  8.33E-11,  avg # of iterations =  3.0

     total cpu time spent up to now is    34725.4 secs

     total energy              =   -1978.37150110 Ry
     estimated scf accuracy    <       0.00000007 Ry

     iteration # 10     ecut=    80.00 Ry     beta= 0.20
     Davidson diagonalization with overlap
     ethr =  6.37E-11,  avg # of iterations =  2.3

     total cpu time spent up to now is    34845.6 secs

     total energy              =   -1978.37150112 Ry
     estimated scf accuracy    <       0.00000005 Ry

     iteration # 11     ecut=    80.00 Ry     beta= 0.20
     Davidson diagonalization with overlap
     ethr =  5.22E-11,  avg # of iterations =  2.2

     total cpu time spent up to now is    34966.9 secs

     total energy              =   -1978.37150112 Ry
     estimated scf accuracy    <       0.00000004 Ry

     iteration # 12     ecut=    80.00 Ry     beta= 0.20
     Davidson diagonalization with overlap
     ethr =  4.29E-11,  avg # of iterations =  1.1

     total cpu time spent up to now is    35066.6 secs

     total energy              =   -1978.37150111 Ry
     estimated scf accuracy    <       0.00000003 Ry

     iteration # 13     ecut=    80.00 Ry     beta= 0.20
     Davidson diagonalization with overlap
     ethr =  2.85E-11,  avg # of iterations =  3.2

     total cpu time spent up to now is    35198.3 secs

     total energy              =   -1978.37150112 Ry
     estimated scf accuracy    <       0.00000005 Ry

     iteration # 14     ecut=    80.00 Ry     beta= 0.20
     Davidson diagonalization with overlap
     ethr =  2.85E-11,  avg # of iterations =  2.4

     total cpu time spent up to now is    35320.0 secs

     total energy              =   -1978.37150110 Ry
     estimated scf accuracy    <       0.00000002 Ry

     iteration # 15     ecut=    80.00 Ry     beta= 0.20
     Davidson diagonalization with overlap
     ethr =  1.67E-11,  avg # of iterations =  2.4

     total cpu time spent up to now is    35437.4 secs

     total energy              =   -1978.37150110 Ry
     estimated scf accuracy    <       0.00000002 Ry

     iteration # 16     ecut=    80.00 Ry     beta= 0.20
     Davidson diagonalization with overlap
     ethr =  1.67E-11,  avg # of iterations =  1.0

     total cpu time spent up to now is    35536.8 secs

     total energy              =   -1978.37150110 Ry
     estimated scf accuracy    <       0.00000002 Ry

     iteration # 17     ecut=    80.00 Ry     beta= 0.20
     Davidson diagonalization with overlap
     ethr =  1.60E-11,  avg # of iterations =  1.6

     total cpu time spent up to now is    35642.7 secs

     total energy              =   -1978.37150111 Ry
     estimated scf accuracy    <       0.00000001 Ry

     iteration # 18     ecut=    80.00 Ry     beta= 0.20
     Davidson diagonalization with overlap
     ethr =  1.13E-11,  avg # of iterations =  2.1

     total cpu time spent up to now is    35759.2 secs

     total energy              =   -1978.37150111 Ry
     estimated scf accuracy    <       0.00000001 Ry

     iteration # 19     ecut=    80.00 Ry     beta= 0.20
     Davidson diagonalization with overlap
     ethr =  1.08E-11,  avg # of iterations =  1.2

     total cpu time spent up to now is    35860.2 secs

     total energy              =   -1978.37150111 Ry
     estimated scf accuracy    <          8.0E-09 Ry

     iteration # 20     ecut=    80.00 Ry     beta= 0.20
     Davidson diagonalization with overlap
     ethr =  7.70E-12,  avg # of iterations =  1.9

     total cpu time spent up to now is    35969.5 secs

     total energy              =   -1978.37150111 Ry
     estimated scf accuracy    <          7.4E-09 Ry

     iteration # 21     ecut=    80.00 Ry     beta= 0.20
     Davidson diagonalization with overlap
     ethr =  7.10E-12,  avg # of iterations =  2.0

     total cpu time spent up to now is    36096.5 secs

     total energy              =   -1978.37150111 Ry
     estimated scf accuracy    <          7.9E-09 Ry

     iteration # 22     ecut=    80.00 Ry     beta= 0.20
     Davidson diagonalization with overlap
     ethr =  7.10E-12,  avg # of iterations =  1.2

     total cpu time spent up to now is    36197.5 secs

     total energy              =   -1978.37150111 Ry
     estimated scf accuracy    <          5.3E-09 Ry

     iteration # 23     ecut=    80.00 Ry     beta= 0.20
     Davidson diagonalization with overlap
     ethr =  5.13E-12,  avg # of iterations =  2.7

     total cpu time spent up to now is    36326.2 secs

     total energy              =   -1978.37150111 Ry
     estimated scf accuracy    <          9.9E-09 Ry

     iteration # 24     ecut=    80.00 Ry     beta= 0.20
     Davidson diagonalization with overlap
     ethr =  5.13E-12,  avg # of iterations =  2.1

     total cpu time spent up to now is    36437.7 secs

     total energy              =   -1978.37150111 Ry
     estimated scf accuracy    <          4.5E-09 Ry

     iteration # 25     ecut=    80.00 Ry     beta= 0.20
     Davidson diagonalization with overlap
     ethr =  4.36E-12,  avg # of iterations =  1.0

     total cpu time spent up to now is    36536.9 secs

     total energy              =   -1978.37150111 Ry
     estimated scf accuracy    <          4.1E-09 Ry

     iteration # 26     ecut=    80.00 Ry     beta= 0.20
     Davidson diagonalization with overlap
     ethr =  3.98E-12,  avg # of iterations =  2.5

     total cpu time spent up to now is    36655.0 secs

     total energy              =   -1978.37150111 Ry
     estimated scf accuracy    <          2.6E-09 Ry

     iteration # 27     ecut=    80.00 Ry     beta= 0.20
     Davidson diagonalization with overlap
     ethr =  2.54E-12,  avg # of iterations =  1.6

     total cpu time spent up to now is    36760.6 secs

     total energy              =   -1978.37150111 Ry
     estimated scf accuracy    <          1.2E-09 Ry

     iteration # 28     ecut=    80.00 Ry     beta= 0.20
     Davidson diagonalization with overlap
     ethr =  1.18E-12,  avg # of iterations =  4.2

     total cpu time spent up to now is    36899.0 secs

     total energy              =   -1978.37150111 Ry
     estimated scf accuracy    <          2.9E-09 Ry

     iteration # 29     ecut=    80.00 Ry     beta= 0.20
     Davidson diagonalization with overlap
     ethr =  1.18E-12,  avg # of iterations =  3.6

     total cpu time spent up to now is    37032.8 secs

     End of self-consistent calculation

          k = 0.0000 0.0000 0.0000 ( 21311 PWs)   bands (ev):

   -53.4897 -53.4628 -53.4480 -53.4133 -27.6636 -27.6366 -27.6220 -27.5873
   -27.4264 -27.4264 -27.3987 -27.3987 -27.3841 -27.3841 -27.3504 -27.3504
    -6.8189  -6.7771  -6.7076  -6.6519  -5.5842  -5.5146  -5.3993  -5.3295
     1.3942   1.5457   1.8465   2.0358   4.7874   4.7874   4.7931   4.8220
     4.8220   4.8340   4.8340   4.8601   4.8601   5.1484   5.7461   5.9027
     5.9027   5.9359   5.9359   5.9481   5.9481   5.9776   5.9776   6.2401
     6.9631   7.3043   7.6633   7.8135  10.1381  10.1381  10.1697  10.1698
    10.1875  10.1875  10.2293  10.2293  10.3459  10.3459

          k = 0.0000 0.0722 0.0000 ( 21283 PWs)   bands (ev):

   -53.4881 -53.4612 -53.4465 -53.4117 -27.6606 -27.6335 -27.6190 -27.5843
   -27.4419 -27.4299 -27.4142 -27.4022 -27.3996 -27.3876 -27.3660 -27.3539
    -6.7593  -6.7176  -6.6484  -6.5927  -5.5570  -5.4882  -5.3751  -5.3061
     1.4635   1.6138   1.9142   2.1041   4.6491   4.6608   4.6864   4.6986
     4.7257   4.8497   4.8843   4.8962   4.9226   4.9656   5.3886   5.5784
     5.8056   5.8390   5.8513   5.8814   5.9997   6.0487   6.1938   6.4842
     6.9673   7.2912   7.6098   7.7393  10.0613  10.0913  10.1046  10.1419
    10.1888  10.2238  10.2267  10.2486  10.2628  10.2798

          k = 0.0000 0.1443 0.0000 ( 21263 PWs)   bands (ev):

   -53.4837 -53.4568 -53.4420 -53.4073 -27.6519 -27.6249 -27.6103 -27.5756
   -27.4860 -27.4582 -27.4437 -27.4400 -27.4122 -27.4100 -27.3977 -27.3640
    -6.5855  -6.5441  -6.4759  -6.4204  -5.4774  -5.4112  -5.3046  -5.2381
     1.6565   1.8025   2.0999   2.2904   4.3000   4.3353   4.3411   4.3530
     4.3830   4.5938   4.9064   5.0290   5.0561   5.0636   5.0755   5.1028
     5.5545   5.5883   5.6010   5.6323   6.0573   6.1454   6.3560   6.6349
     6.9425   7.1981   7.4128   7.4980   9.7562   9.8217   9.8825   9.9288
     9.9824  10.0474  10.0588  10.0832  10.1074  10.1204

          k = 0.0000 0.2165 0.0000 ( 21233 PWs)   bands (ev):

   -53.4771 -53.4501 -53.4354 -53.4006 -27.6389 -27.6119 -27.5974 -27.5626
   -27.5514 -27.5235 -27.5090 -27.4754 -27.4550 -27.4272 -27.4126 -27.3790
    -6.3123  -6.2717  -6.2058  -6.1508  -5.3526  -5.2906  -5.1945  -5.1320
     1.9182   2.0528   2.3355   2.5191   3.8663   3.8992   3.9127   3.9342
     3.9956   4.1743   4.4011   4.5075   5.2289   5.2624   5.2746   5.3039
     5.3084   5.3384   5.3515   5.3793   5.9683   6.0838   6.3116   6.5458
     6.8049   6.9494   7.0530   7.1037   9.3660   9.4900   9.6563   9.8344
     9.8623   9.9020   9.9516   9.9580  10.0038  10.0900

          k = 0.0000 0.2887 0.0000 ( 21197 PWs)   bands (ev):

   -53.4692 -53.4423 -53.4275 -53.3928 -27.6277 -27.6236 -27.5998 -27.5966
   -27.5853 -27.5820 -27.5518 -27.5472 -27.4726 -27.4448 -27.4303 -27.3966
    -5.9655  -5.9263  -5.8647  -5.8110  -5.1953  -5.1388  -5.0570  -4.9997
     2.1177   2.2242   2.4484   2.5880   3.4822   3.5125   3.5506   3.5988
     3.6750   3.7809   3.9048   3.9664   4.9007   4.9350   4.9489   4.9825
     5.6282   5.6630   5.6774   5.7098   5.7540   5.8837   6.1085   6.2921
     6.5397   6.6084   6.6546   6.6952   9.2288   9.3833   9.6084   9.6732
     9.7126   9.7604   9.8115   9.8273  10.1717  10.3245

          k = 0.0000 0.3608 0.0000 ( 21187 PWs)   bands (ev):

   -53.4613 -53.4344 -53.4197 -53.3849 -27.7030 -27.6751 -27.6606 -27.6272
   -27.6082 -27.5812 -27.5666 -27.5318 -27.4901 -27.4623 -27.4478 -27.4142
    -5.5836  -5.5464  -5.4925  -5.4411  -5.0244  -4.9744  -4.9101  -4.8585
     2.0731   2.1382   2.2625   2.3399   3.1196   3.1734   3.2773   3.3874
     3.4413   3.5292   3.6012   3.6604   4.6124   4.6469   4.6615   4.6957
     5.5232   5.6508   5.8611   5.9491   5.9842   6.0048   6.0105   6.0417
     6.3239   6.3806   6.4244   6.4648   9.3497   9.4935   9.5678   9.6049
     9.6430   9.6911   9.7144   9.9122  10.4976  10.6496

          k = 0.0000 0.4330 0.0000 ( 21140 PWs)   bands (ev):

   -53.4547 -53.4278 -53.4130 -53.3782 -27.7663 -27.7383 -27.7238 -27.6904
   -27.5951 -27.5682 -27.5536 -27.5188 -27.5049 -27.4772 -27.4626 -27.4290
    -5.2216  -5.1867  -5.1450  -5.0969  -4.8659  -4.8227  -4.7774  -4.7317
     1.8325   1.8743   1.9383   1.9905   2.7765   2.8274   2.9156   2.9843
     3.3461   3.4084   3.5111   3.5823   4.3918   4.4263   4.4415   4.4760
     5.3536   5.4699   5.6635   5.7909   6.2055   6.2417   6.2730   6.3144
     6.3414   6.4059   6.4718   6.5195   9.5600   9.5937   9.6182   9.6184
     9.6616   9.7275   9.9007  10.0459  10.8051  10.9387

          k = 0.0000 0.5052 0.0000 ( 21078 PWs)   bands (ev):

   -53.4502 -53.4233 -53.4085 -53.3738 -27.8082 -27.7802 -27.7657 -27.7324
   -27.5864 -27.5594 -27.5448 -27.5148 -27.5100 -27.4870 -27.4725 -27.4389
    -4.9518  -4.9184  -4.8917  -4.8476  -4.7505  -4.7136  -4.6849  -4.6441
     1.6013   1.6352   1.6753   1.7213   2.5373   2.5773   2.6415   2.7013
     3.2483   3.3054   3.4025   3.4704   4.2542   4.2887   4.3042   4.3389
     5.2624   5.3691   5.5471   5.6568   6.3613   6.3992   6.4407   6.4858
     6.5309   6.5917   6.6586   6.7093   9.6076   9.6384   9.6542   9.6924
     9.9179   9.9851  10.0899  10.1762  11.0006  11.1074

          k = 0.0000-0.5774 0.0000 ( 21006 PWs)   bands (ev):

   -53.4486 -53.4217 -53.4070 -53.3722 -27.8229 -27.7948 -27.7804 -27.7470
   -27.5833 -27.5564 -27.5418 -27.5183 -27.5069 -27.4905 -27.4760 -27.4423
    -4.8495  -4.8164  -4.7980  -4.7561  -4.7077  -4.6742  -4.6518  -4.6133
     1.5090   1.5412   1.5757   1.6211   2.4519   2.4870   2.5423   2.6015
     3.2012   3.2575   3.3519   3.4182   4.2075   4.2421   4.2576   4.2924
     5.2353   5.3381   5.5089   5.6116   6.4119   6.4507   6.4963   6.5428
     6.6487   6.6984   6.7505   6.7966   9.6358   9.6656   9.6799   9.7156
    10.0781  10.1238  10.1681  10.2182  11.0640  11.1524

          k = 0.0625 0.1083 0.0000 ( 21269 PWs)   bands (ev):

   -53.4851 -53.4582 -53.4435 -53.4087 -27.6547 -27.6277 -27.6131 -27.5784
   -27.4713 -27.4435 -27.4372 -27.4290 -27.4094 -27.3953 -27.3949 -27.3612
    -6.6426  -6.6011  -6.5325  -6.4770  -5.5035  -5.4365  -5.3277  -5.2604
     1.5951   1.7428   2.0416   2.2322   4.4101   4.4452   4.4456   4.4595
     4.4884   4.7096   4.9686   5.0030   5.0146   5.0416   5.0559   5.2221
     5.5908   5.6242   5.6359   5.6662   6.0949   6.1693   6.3601   6.6397
     6.9584   7.2403   7.4850   7.5814   9.8847   9.9273   9.9336   9.9559
    10.0116  10.0187  10.0612  10.1052  10.1502  10.1920

          k = 0.0625 0.1804 0.0000 ( 21194 PWs)   bands (ev):

   -53.4796 -53.4527 -53.4379 -53.4032 -27.6439 -27.6169 -27.6023 -27.5676
   -27.5248 -27.4970 -27.4825 -27.4509 -27.4488 -27.4231 -27.4086 -27.3749
    -6.4189  -6.3780  -6.3110  -6.2559  -5.4012  -5.3375  -5.2372  -5.1732
     1.8267   1.9670   2.2585   2.4474   4.0276   4.0598   4.0721   4.0955
     4.1490   4.3583   4.6305   4.7593   5.1849   5.2135   5.2283   5.2326
     5.2537   5.2603   5.2757   5.3005   6.1442   6.2373   6.4364   6.6764
     6.8802   7.0708   7.2033   7.2606   9.4800   9.5804   9.7002   9.8189
     9.8574   9.9178   9.9548   9.9868  10.0113  10.0564

          k = 0.0625 0.2526 0.0000 ( 21202 PWs)   bands (ev):

   -53.4724 -53.4454 -53.4307 -53.3959 -27.6297 -27.6028 -27.5940 -27.5882
   -27.5661 -27.5534 -27.5516 -27.5181 -27.4688 -27.4411 -27.4265 -27.3929
    -6.1083  -6.0685  -6.0048  -5.9505  -5.2595  -5.2007  -5.1128  -5.0533
     2.0715   2.1933   2.4525   2.6192   3.6407   3.6723   3.6910   3.7210
     3.8130   3.9734   4.1543   4.2351   4.8458   4.8791   4.9011   4.9342
     5.4536   5.4880   5.5008   5.5319   6.0413   6.1431   6.3322   6.5161
     6.6759   6.7667   6.8163   6.8559   9.2097   9.3508   9.5356   9.6603
     9.7772   9.8220   9.8522   9.8861   9.9740  10.1227

          k = 0.0625 0.3248 0.0000 ( 21194 PWs)   bands (ev):

   -53.4645 -53.4376 -53.4228 -53.3881 -27.6680 -27.6401 -27.6256 -27.6144
   -27.5921 -27.5874 -27.5728 -27.5380 -27.4882 -27.4604 -27.4459 -27.4122
    -5.7424  -5.7042  -5.6466  -5.5940  -5.0940  -5.0412  -4.9691  -4.9151
     2.1566   2.2405   2.4106   2.5129   3.3202   3.3557   3.4238   3.5100
     3.5757   3.6687   3.6875   3.7398   4.5395   4.5787   4.6149   4.6540
     5.6895   5.7203   5.7376   5.7714   5.8300   5.9273   6.1001   6.2399
     6.4552   6.5006   6.5291   6.5657   9.1750   9.3162   9.4880   9.5733
     9.7125   9.7538   9.7943   9.9158  10.2295  10.3803

          k = 0.0625 0.3969 0.0000 ( 21151 PWs)   bands (ev):

   -53.4572 -53.4303 -53.4156 -53.3808 -27.7357 -27.7077 -27.6932 -27.6598
   -27.6001 -27.5732 -27.5586 -27.5238 -27.5060 -27.4782 -27.4637 -27.4301
    -5.3673  -5.3313  -5.2837  -5.2340  -4.9270  -4.8808  -4.8271  -4.7789
     1.9931   2.0439   2.1322   2.1933   2.9421   2.9942   3.0839   3.1558
     3.4135   3.4771   3.5776   3.6515   4.3415   4.3820   4.4188   4.4580
     5.5747   5.6686   5.8094   5.8352   5.8760   5.8905   5.9184   5.9877
     6.4669   6.5028   6.5287   6.5632   9.3153   9.4229   9.5395   9.6011
     9.7534   9.7949   9.8651   9.9948  10.5679  10.7030

          k = 0.0625 0.4691 0.0000 ( 21105 PWs)   bands (ev):

   -53.4516 -53.4247 -53.4100 -53.3752 -27.7870 -27.7590 -27.7445 -27.7112
   -27.5892 -27.5623 -27.5477 -27.5196 -27.5128 -27.4918 -27.4773 -27.4437
    -5.0463  -5.0124  -4.9789  -4.9331  -4.7870  -4.7474  -4.7121  -4.6693
     1.7505   1.7873   1.8370   1.8853   2.6225   2.6643   2.7271   2.7837
     3.3205   3.3775   3.4777   3.5491   4.2361   4.2710   4.2969   4.3339
     5.3862   5.4800   5.6341   5.7337   5.9601   5.9935   6.0285   6.0765
     6.6400   6.6766   6.7091   6.7471   9.5152   9.5749   9.6310   9.6753
     9.8909   9.9370  10.0228  10.1191  10.8829  10.9931

          k = 0.0625 0.5413 0.0000 ( 21084 PWs)   bands (ev):

   -53.4486 -53.4217 -53.4070 -53.3722 -27.8146 -27.7866 -27.7721 -27.7388
   -27.5833 -27.5564 -27.5418 -27.5270 -27.5069 -27.4992 -27.4846 -27.4510
    -4.8551  -4.8220  -4.8020  -4.7597  -4.7053  -4.6711  -4.6478  -4.6090
     1.5892   1.6216   1.6573   1.7030   2.4431   2.4775   2.5263   2.5816
     3.2334   3.2897   3.3857   3.4531   4.1938   4.2256   4.2384   4.2738
     5.2833   5.3777   5.5309   5.6241   6.0535   6.0890   6.1266   6.1745
     6.7943   6.8336   6.8720   6.9133   9.6339   9.6607   9.6794   9.7133
    10.0710  10.1177  10.1744  10.2315  11.1112  11.1892

          k = 0.1250 0.2165 0.0000 ( 21179 PWs)   bands (ev):

   -53.4735 -53.4465 -53.4318 -53.3970 -27.6319 -27.6049 -27.5903 -27.5800
   -27.5556 -27.5521 -27.5376 -27.5040 -27.4697 -27.4419 -27.4274 -27.3937
    -6.1574  -6.1173  -6.0530  -5.9985  -5.2814  -5.2218  -5.1318  -5.0716
     2.0526   2.1796   2.4504   2.6262   3.7091   3.7366   3.7519   3.7811
     3.9150   4.1063   4.3286   4.4224   4.7075   4.7405   4.7606   4.7918
     5.3742   5.4081   5.4201   5.4506   6.2262   6.3135   6.4767   6.6508
     6.7393   6.8455   6.8861   6.9252   9.1993   9.3313   9.4973   9.6170
     9.7804   9.7928   9.8314   9.8518   9.9074  10.0738

          k = 0.1250 0.2887 0.0000 ( 21199 PWs)   bands (ev):

   -53.4662 -53.4393 -53.4245 -53.3898 -27.6433 -27.6177 -27.6154 -27.6009
   -27.5907 -27.5762 -27.5674 -27.5414 -27.4930 -27.4652 -27.4507 -27.4170
    -5.8260  -5.7874  -5.7280  -5.6749  -5.1301  -5.0758  -4.9997  -4.9443
     2.2079   2.3059   2.5110   2.6354   3.4704   3.5032   3.5177   3.6062
     3.6822   3.8023   3.8815   3.9252   4.2706   4.3227   4.4040   4.4686
     5.4789   5.5117   5.5264   5.5618   6.1532   6.2327   6.3651   6.4836
     6.5605   6.5897   6.6091   6.6393   9.0403   9.1861   9.3744   9.4903
     9.7717   9.7906   9.8227   9.8931   9.9851  10.1517

          k = 0.1250 0.3608 0.0000 ( 21195 PWs)   bands (ev):

   -53.4589 -53.4320 -53.4173 -53.3825 -27.7055 -27.6776 -27.6631 -27.6297
   -27.6035 -27.5765 -27.5619 -27.5271 -27.5167 -27.4889 -27.4743 -27.4407
    -5.4628  -5.4261  -5.3750  -5.3243  -4.9652  -4.9170  -4.8577  -4.8078
     2.1528   2.2153   2.3334   2.4069   3.1417   3.1856   3.2514   3.3123
     3.5012   3.5582   3.6423   3.7224   4.0738   4.1611   4.2709   4.3349
     5.4223   5.4551   5.4738   5.5134   5.9368   6.0037   6.1101   6.1956
     6.5235   6.5529   6.5664   6.6027   9.0804   9.2256   9.4297   9.5582
     9.8444   9.8697   9.9026   9.9871  10.2239  10.3672

          k = 0.1250 0.4330 0.0000 ( 21113 PWs)   bands (ev):

   -53.4528 -53.4259 -53.4111 -53.3763 -27.7577 -27.7297 -27.7152 -27.6818
   -27.5914 -27.5645 -27.5499 -27.5368 -27.5150 -27.5090 -27.4945 -27.4609
    -5.1209  -5.0864  -5.0478  -5.0006  -4.8117  -4.7699  -4.7288  -4.6844
     1.9658   2.0088   2.0766   2.1302   2.7225   2.7589   2.7997   2.8458
     3.4478   3.4990   3.5977   3.6766   4.0483   4.1276   4.2230   4.2812
     5.3704   5.4069   5.4478   5.4957   5.6658   5.7255   5.8223   5.8975
     6.6617   6.6925   6.7085   6.7448   9.2935   9.4193   9.6073   9.7280
     9.9551   9.9830  10.0136  10.0620  10.5404  10.6494

          k = 0.1250 0.5052 0.0000 ( 21081 PWs)   bands (ev):

   -53.4486 -53.4217 -53.4070 -53.3722 -27.7922 -27.7642 -27.7497 -27.7164
   -27.5833 -27.5564 -27.5503 -27.5418 -27.5225 -27.5080 -27.5069 -27.4744
    -4.8682  -4.8350  -4.8115  -4.7683  -4.6994  -4.6639  -4.6382  -4.5987
     1.8000   1.8339   1.8762   1.9237   2.4262   2.4572   2.4884   2.5351
     3.3317   3.3876   3.4856   3.5545   4.1023   4.1567   4.2186   4.2659
     5.3703   5.4269   5.4635   5.4914   5.5139   5.5535   5.6041   5.6823
     6.8471   6.8820   6.9101   6.9491   9.5196   9.5887   9.6718   9.7287
    10.1041  10.1440  10.1979  10.2630  10.8308  10.8928

          k = 0.1250 0.5774 0.0000 ( 21108 PWs)   bands (ev):

   -53.4472 -53.4203 -53.4055 -53.3708 -27.8043 -27.7763 -27.7618 -27.7285
   -27.5805 -27.5551 -27.5535 -27.5389 -27.5273 -27.5127 -27.5041 -27.4791
    -4.7729  -4.7399  -4.7244  -4.6837  -4.6576  -4.6257  -4.6057  -4.5685
     1.7361   1.7671   1.8006   1.8473   2.3207   2.3501   2.3790   2.4267
     3.2716   3.3283   3.4258   3.4926   4.1515   4.1849   4.2172   4.2587
     5.3099   5.3891   5.4458   5.4836   5.5037   5.5472   5.5549   5.6244
     6.9391   6.9774   7.0131   7.0549   9.6010   9.6262   9.6468   9.6825
    10.2154  10.2674  10.3151  10.3611  10.9613  11.0041

          k = 0.1875 0.3248 0.0000 ( 21195 PWs)   bands (ev):

   -53.4595 -53.4326 -53.4179 -53.3831 -27.6920 -27.6640 -27.6495 -27.6161
   -27.6047 -27.5777 -27.5631 -27.5283 -27.5234 -27.4956 -27.4811 -27.4475
    -5.4959  -5.4591  -5.4068  -5.3557  -4.9782  -4.9292  -4.8680  -4.8175
     2.2208   2.2896   2.4229   2.5033   3.2715   3.3046   3.3456   3.3878
     3.5432   3.5948   3.6618   3.7314   3.9214   4.0373   4.1841   4.2584
     5.2483   5.2806   5.2994   5.3394   6.1009   6.1554   6.2372   6.3068
     6.5298   6.5613   6.5752   6.6152   8.9912   9.1484   9.3761   9.5329
     9.8693   9.8822   9.9154   9.9675  10.0785  10.2337

          k = 0.1875 0.3969 0.0000 ( 21153 PWs)   bands (ev):

   -53.4534 -53.4265 -53.4117 -53.3769 -27.7339 -27.7059 -27.6914 -27.6580
   -27.5926 -27.5656 -27.5543 -27.5511 -27.5264 -27.5162 -27.5119 -27.4783
    -5.1619  -5.1270  -5.0857  -5.0377  -4.8239  -4.7808  -4.7365  -4.6911
     2.1292   2.1794   2.2665   2.3264   2.8111   2.8347   2.8535   2.8880
     3.5895   3.6242   3.6937   3.7790   3.9199   4.0325   4.1649   4.2329
     4.9310   4.9657   4.9940   5.0378   5.8814   5.9155   5.9660   6.0186
     6.6322   6.6659   6.6854   6.7260   9.1509   9.3059   9.5585   9.7648
     9.9842  10.0096  10.0256  10.0595  10.2635  10.3883

          k = 0.1875 0.4691 0.0000 ( 21101 PWs)   bands (ev):

   -53.4486 -53.4217 -53.4070 -53.3722 -27.7644 -27.7364 -27.7219 -27.6885
   -27.5833 -27.5792 -27.5564 -27.5514 -27.5418 -27.5368 -27.5070 -27.5033
    -4.8810  -4.8476  -4.8209  -4.7768  -4.6936  -4.6568  -4.6287  -4.5884
     2.0404   2.0796   2.1389   2.1905   2.4136   2.4384   2.4552   2.4916
     3.5060   3.5608   3.6496   3.7091   3.9944   4.0881   4.2055   4.2725
     4.7516   4.7937   4.8600   4.9187   5.5814   5.6280   5.6763   5.7299
     6.8328   6.8657   6.8810   6.9195   9.3764   9.4789   9.6293   9.7286
    10.1474  10.1801  10.2257  10.2996  10.4865  10.5646

          k = 0.1875 0.5413 0.0000 ( 21112 PWs)   bands (ev):

   -53.4461 -53.4192 -53.4044 -53.3696 -27.7804 -27.7523 -27.7379 -27.7045
   -27.5931 -27.5783 -27.5653 -27.5514 -27.5508 -27.5368 -27.5172 -27.5019
    -4.7162  -4.6832  -4.6694  -4.6303  -4.6165  -4.5861  -4.5674  -4.5315
     2.0022   2.0327   2.0694   2.1209   2.1970   2.2241   2.2406   2.2798
     3.3610   3.4197   3.5170   3.5790   4.1336   4.1883   4.2576   4.3126
     4.7117   4.7634   4.8476   4.9075   5.3680   5.4189   5.4748   5.5281
     7.0161   7.0505   7.0759   7.1161   9.4520   9.4898   9.5257   9.5674
    10.3371  10.3870  10.4593  10.5401  10.6157  10.6629

          k = 0.2500 0.4330 0.0000 ( 21125 PWs)   bands (ev):

   -53.4486 -53.4217 -53.4070 -53.3722 -27.7499 -27.7219 -27.7074 -27.6740
   -27.5941 -27.5833 -27.5663 -27.5564 -27.5518 -27.5418 -27.5182 -27.5070
    -4.8862  -4.8527  -4.8248  -4.7803  -4.6912  -4.6538  -4.6248  -4.5842
     2.1506   2.1940   2.2655   2.3185   2.4100   2.4301   2.4469   2.4740
     3.6885   3.7215   3.7451   3.8063   3.9894   4.0890   4.2154   4.2846
     4.4277   4.4625   4.4791   4.5172   5.6583   5.6926   5.6945   5.7628
     6.8162   6.8501   6.8639   6.9027   9.3165   9.4293   9.6022   9.7210
    10.1593  10.1891  10.2205  10.3077  10.3572  10.4675

          k = 0.2500 0.5052 0.0000 ( 21117 PWs)   bands (ev):

   -53.4455 -53.4186 -53.4038 -53.3690 -27.7546 -27.7266 -27.7121 -27.6788
   -27.6267 -27.5988 -27.5843 -27.5772 -27.5508 -27.5502 -27.5356 -27.5008
    -4.6881  -4.6551  -4.6414  -4.6036  -4.5920  -4.5627  -4.5444  -4.5091
     2.1079   2.1323   2.1432   2.1775   2.2595   2.3014   2.3508   2.3981
     3.5334   3.5922   3.6667   3.7050   4.0835   4.1141   4.1583   4.2001
     4.2427   4.2996   4.3550   4.4012   5.3786   5.4136   5.4411   5.5018
     7.0568   7.0891   7.1024   7.1404   9.3197   9.3651   9.4189   9.4682
    10.3088  10.3441  10.3721  10.4023  10.5529  10.6069

          k = 0.2500 0.5774 0.0000 ( 21116 PWs)   bands (ev):

   -53.4444 -53.4175 -53.4027 -53.3679 -27.7544 -27.7264 -27.7120 -27.6786
   -27.6399 -27.6121 -27.5976 -27.5750 -27.5640 -27.5481 -27.5335 -27.4986
    -4.6142  -4.5829  -4.5735  -4.5587  -4.5397  -4.5292  -4.5147  -4.4823
     2.0067   2.0302   2.0423   2.0760   2.3466   2.3754   2.4039   2.4472
     3.3758   3.4341   3.5171   3.5682   4.0525   4.0934   4.1727   4.2321
     4.2967   4.3491   4.3982   4.4403   5.2562   5.2900   5.3031   5.3646
     7.1831   7.2155   7.2335   7.2727   9.2507   9.2789   9.2944   9.3273
    10.3354  10.3701  10.4017  10.4238  10.7103  10.7462

          k = 0.3125 0.5413 0.0000 ( 21100 PWs)   bands (ev):

   -53.4438 -53.4169 -53.4021 -53.3673 -27.7334 -27.7054 -27.6909 -27.6684
   -27.6575 -27.6405 -27.6260 -27.5925 -27.5738 -27.5469 -27.5323 -27.4974
    -4.5781  -4.5492  -4.5392  -4.5358  -4.5139  -4.5048  -4.4947  -4.4638
     1.9380   1.9615   1.9741   2.0067   2.5735   2.6077   2.6446   2.6913
     3.3781   3.3900   3.4067   3.4375   3.8492   3.8728   3.8841   3.9038
     4.3523   4.4050   4.4518   4.4986   5.1708   5.2076   5.2305   5.2943
     7.2656   7.2968   7.3090   7.3473   9.1345   9.1640   9.1797   9.2122
    10.2698  10.2914  10.3074  10.3409  10.8084  10.8624

     the Fermi energy is     8.3464 ev

!    total energy              =   -1978.37150111 Ry
     total all-electron energy =    -38771.692346 Ry
     estimated scf accuracy    <          2.4E-10 Ry
     smearing contrib. (-TS)   =       0.00002991 Ry
     internal energy E=F+TS    =   -1978.37153102 Ry

     The total energy is F=E-TS. E is the sum of the following terms:
     one-electron contribution =   -1462.81048694 Ry
     hartree contribution      =     773.66959014 Ry
     xc contribution           =    -119.23276127 Ry
     ewald contribution        =      99.85313111 Ry
     one-center paw contrib.   =   -1269.85100407 Ry

     convergence has been achieved in  29 iterations

     Forces acting on atoms (cartesian axes, Ry/au):

     atom    1 type  2   force =     0.00000000    0.00000000    0.00050030
     atom    2 type  1   force =     0.00000000    0.00000000    0.00046514
     atom    3 type  2   force =     0.00000000    0.00000000    0.00051821
     atom    4 type  2   force =     0.00000000    0.00000000    0.00017516
     atom    5 type  1   force =     0.00000000    0.00000000    0.00037203
     atom    6 type  2   force =     0.00000000    0.00000000    0.00108763
     atom    7 type  2   force =     0.00000000    0.00000000   -0.00077247
     atom    8 type  1   force =     0.00000000    0.00000000   -0.00034588
     atom    9 type  2   force =     0.00000000    0.00000000   -0.00003117
     atom   10 type  2   force =     0.00000000    0.00000000   -0.00052255
     atom   11 type  1   force =     0.00000000   -0.00000000   -0.00061858
     atom   12 type  2   force =     0.00000000    0.00000000   -0.00082783

     Total force =     0.002036     Total SCF correction =     0.000066
     Energy error            =      5.1E-06 Ry
     Gradient error          =      1.1E-03 Ry/Bohr

     number of scf cycles    =  14
     number of bfgs steps    =  12

     energy             old  =   -1978.3715062317 Ry
     energy             new  =   -1978.3715011090 Ry

     CASE: energy            _new > energy            _old

     new trust radius        =       0.0088514864 bohr
     new conv_thr            =       0.0000000010 Ry


ATOMIC_POSITIONS (crystal)
S                0.3333329938        0.6666669877       -0.1120463112
Mo               0.0000000000        0.0000000000       -0.0596197190
S                0.3333329938        0.6666669877       -0.0071606594
S                0.6666669877        0.3333329938        0.0982651213
Mo               0.3333329938        0.6666669877        0.1507760736
S                0.6666669877        0.3333329938        0.2032643978
S                0.0000000000        0.0000000000        0.3150146655
Mo               0.6666669877        0.3333329938        0.3675422570
S                0.0000000000        0.0000000000        0.4200338022
S                0.3333329938        0.6666669877        0.5271740630
Mo               0.0000000000        0.0000000000        0.5796651721
S                0.3333329938        0.6666669877        0.6320910794



     Writing config-only to output data dir ./tmp/relax2/mos2_slab2.save/ :
     XML data file
     NEW-OLD atomic charge density approx. for the potential

     total cpu time spent up to now is    37087.7 secs

     Self-consistent Calculation

     iteration #  1     ecut=    80.00 Ry     beta= 0.20
     Davidson diagonalization with overlap
     ethr =  1.00E-06,  avg # of iterations =  6.0

     total cpu time spent up to now is    37333.8 secs

     total energy              =   -1978.37152621 Ry
     estimated scf accuracy    <       0.00011572 Ry

     iteration #  2     ecut=    80.00 Ry     beta= 0.20
     Davidson diagonalization with overlap
     ethr =  1.11E-07,  avg # of iterations =  2.7

     total cpu time spent up to now is    37445.9 secs

     total energy              =   -1978.37150475 Ry
     estimated scf accuracy    <       0.00010175 Ry

     iteration #  3     ecut=    80.00 Ry     beta= 0.20
     Davidson diagonalization with overlap
     ethr =  9.78E-08,  avg # of iterations =  1.1

     total cpu time spent up to now is    37546.3 secs

     total energy              =   -1978.37150611 Ry
     estimated scf accuracy    <       0.00002359 Ry

     iteration #  4     ecut=    80.00 Ry     beta= 0.20
     Davidson diagonalization with overlap
     ethr =  2.27E-08,  avg # of iterations =  2.8

     total cpu time spent up to now is    37660.0 secs

     total energy              =   -1978.37150755 Ry
     estimated scf accuracy    <       0.00000343 Ry

     iteration #  5     ecut=    80.00 Ry     beta= 0.20
     Davidson diagonalization with overlap
     ethr =  3.30E-09,  avg # of iterations =  2.6

     total cpu time spent up to now is    37771.5 secs

     total energy              =   -1978.37150756 Ry
     estimated scf accuracy    <       0.00000263 Ry

     iteration #  6     ecut=    80.00 Ry     beta= 0.20
     Davidson diagonalization with overlap
     ethr =  2.53E-09,  avg # of iterations =  2.5

     total cpu time spent up to now is    37888.0 secs

     total energy              =   -1978.37150760 Ry
     estimated scf accuracy    <       0.00000030 Ry

     iteration #  7     ecut=    80.00 Ry     beta= 0.20
     Davidson diagonalization with overlap
     ethr =  2.84E-10,  avg # of iterations =  4.9

     total cpu time spent up to now is    38014.6 secs

     total energy              =   -1978.37150764 Ry
     estimated scf accuracy    <       0.00000008 Ry

     iteration #  8     ecut=    80.00 Ry     beta= 0.20
     Davidson diagonalization with overlap
     ethr =  8.14E-11,  avg # of iterations =  2.9

     total cpu time spent up to now is    38130.2 secs

     total energy              =   -1978.37150764 Ry
     estimated scf accuracy    <       0.00000006 Ry

     iteration #  9     ecut=    80.00 Ry     beta= 0.20
     Davidson diagonalization with overlap
     ethr =  5.40E-11,  avg # of iterations =  2.1

     total cpu time spent up to now is    38246.2 secs

     total energy              =   -1978.37150765 Ry
     estimated scf accuracy    <       0.00000003 Ry

     iteration # 10     ecut=    80.00 Ry     beta= 0.20
     Davidson diagonalization with overlap
     ethr =  2.93E-11,  avg # of iterations =  1.7

     total cpu time spent up to now is    38351.6 secs

     total energy              =   -1978.37150765 Ry
     estimated scf accuracy    <       0.00000002 Ry

     iteration # 11     ecut=    80.00 Ry     beta= 0.20
     Davidson diagonalization with overlap
     ethr =  1.48E-11,  avg # of iterations =  1.2

     total cpu time spent up to now is    38453.1 secs

     total energy              =   -1978.37150765 Ry
     estimated scf accuracy    <       0.00000001 Ry

     iteration # 12     ecut=    80.00 Ry     beta= 0.20
     Davidson diagonalization with overlap
     ethr =  1.16E-11,  avg # of iterations =  2.4

     total cpu time spent up to now is    38578.9 secs

     total energy              =   -1978.37150765 Ry
     estimated scf accuracy    <          7.5E-09 Ry

     iteration # 13     ecut=    80.00 Ry     beta= 0.20
     Davidson diagonalization with overlap
     ethr =  7.21E-12,  avg # of iterations =  1.0

     total cpu time spent up to now is    38677.7 secs

     total energy              =   -1978.37150766 Ry
     estimated scf accuracy    <          6.6E-09 Ry

     iteration # 14     ecut=    80.00 Ry     beta= 0.20
     Davidson diagonalization with overlap
     ethr =  6.38E-12,  avg # of iterations =  3.0

     total cpu time spent up to now is    38809.7 secs

     total energy              =   -1978.37150766 Ry
     estimated scf accuracy    <          9.6E-09 Ry

     iteration # 15     ecut=    80.00 Ry     beta= 0.20
     Davidson diagonalization with overlap
     ethr =  6.38E-12,  avg # of iterations =  2.1

     total cpu time spent up to now is    38922.7 secs

     total energy              =   -1978.37150765 Ry
     estimated scf accuracy    <          3.2E-09 Ry

     iteration # 16     ecut=    80.00 Ry     beta= 0.20
     Davidson diagonalization with overlap
     ethr =  3.12E-12,  avg # of iterations =  2.0

     total cpu time spent up to now is    39031.3 secs

     total energy              =   -1978.37150767 Ry
     estimated scf accuracy    <          1.6E-09 Ry

     iteration # 17     ecut=    80.00 Ry     beta= 0.20
     Davidson diagonalization with overlap
     ethr =  1.49E-12,  avg # of iterations =  2.5

     total cpu time spent up to now is    39148.8 secs

     End of self-consistent calculation

          k = 0.0000 0.0000 0.0000 ( 21311 PWs)   bands (ev):

   -53.4895 -53.4637 -53.4472 -53.4140 -27.6633 -27.6375 -27.6211 -27.5879
   -27.4261 -27.4261 -27.3995 -27.3995 -27.3831 -27.3831 -27.3510 -27.3510
    -6.8171  -6.7742  -6.7083  -6.6519  -5.5832  -5.5114  -5.4017  -5.3306
     1.3961   1.5530   1.8419   2.0353   4.7885   4.7885   4.7930   4.8222
     4.8222   4.8364   4.8364   4.8608   4.8608   5.1559   5.7376   5.9037
     5.9037   5.9359   5.9359   5.9502   5.9502   5.9781   5.9781   6.2383
     6.9622   7.3072   7.6536   7.8100  10.1390  10.1390  10.1697  10.1697
    10.1880  10.1880  10.2290  10.2290  10.3459  10.3459

          k = 0.0000 0.0722 0.0000 ( 21283 PWs)   bands (ev):

   -53.4879 -53.4622 -53.4456 -53.4124 -27.6603 -27.6344 -27.6180 -27.5849
   -27.4416 -27.4296 -27.4151 -27.4031 -27.3986 -27.3866 -27.3665 -27.3545
    -6.7575  -6.7147  -6.6491  -6.5927  -5.5560  -5.4850  -5.3774  -5.3072
     1.4654   1.6212   1.9096   2.1037   4.6499   4.6612   4.6866   4.7010
     4.7264   4.8508   4.8845   4.8987   4.9233   4.9721   5.3837   5.5784
     5.8066   5.8390   5.8534   5.8819   6.0003   6.0501   6.1915   6.4833
     6.9665   7.2939   7.6012   7.7361  10.0619  10.0904  10.1056  10.1415
    10.1884  10.2231  10.2284  10.2480  10.2641  10.2787

          k = 0.0000 0.1443 0.0000 ( 21263 PWs)   bands (ev):

   -53.4835 -53.4578 -53.4412 -53.4080 -27.6516 -27.6258 -27.6094 -27.5762
   -27.4857 -27.4591 -27.4427 -27.4397 -27.4131 -27.4106 -27.3967 -27.3646
    -6.5837  -6.5413  -6.4766  -6.4204  -5.4764  -5.4082  -5.3067  -5.2391
     1.6584   1.8099   2.0954   2.2901   4.3011   4.3355   4.3421   4.3548
     4.3836   4.5990   4.9023   5.0302   5.0560   5.0638   5.0779   5.1035
     5.5556   5.5884   5.6030   5.6328   6.0575   6.1474   6.3533   6.6343
     6.9419   7.2001   7.4073   7.4956   9.7554   9.8210   9.8820   9.9287
     9.9817  10.0465  10.0589  10.0838  10.1048  10.1211

          k = 0.0000 0.2165 0.0000 ( 21233 PWs)   bands (ev):

   -53.4768 -53.4511 -53.4345 -53.4013 -27.6386 -27.6129 -27.5964 -27.5632
   -27.5511 -27.5244 -27.5080 -27.4760 -27.4546 -27.4281 -27.4116 -27.3796
    -6.3105  -6.2689  -6.2064  -6.1508  -5.3516  -5.2879  -5.1964  -5.1329
     1.9203   2.0603   2.3314   2.5190   3.8675   3.8994   3.9146   3.9351
     3.9962   4.1783   4.3976   4.5072   5.2301   5.2626   5.2767   5.3048
     5.3090   5.3386   5.3535   5.3799   5.9683   6.0860   6.3087   6.5451
     6.8045   6.9503   7.0509   7.1023   9.3652   9.4898   9.6542   9.8336
     9.8629   9.9030   9.9505   9.9575  10.0026  10.0906

          k = 0.0000 0.2887 0.0000 ( 21197 PWs)   bands (ev):

   -53.4690 -53.4433 -53.4267 -53.3935 -27.6273 -27.6233 -27.6006 -27.5975
   -27.5842 -27.5811 -27.5523 -27.5479 -27.4723 -27.4457 -27.4292 -27.3972
    -5.9637  -5.9236  -5.8652  -5.8109  -5.1943  -5.1365  -5.0584  -5.0004
     2.1200   2.2309   2.4455   2.5883   3.4838   3.5140   3.5518   3.5997
     3.6755   3.7828   3.9024   3.9655   4.9019   4.9353   4.9507   4.9830
     5.6294   5.6634   5.6792   5.7103   5.7539   5.8861   6.1054   6.2914
     6.5397   6.6088   6.6540   6.6944   9.2280   9.3838   9.6053   9.6738
     9.7136   9.7594   9.8105   9.8263  10.1711  10.3250

          k = 0.0000 0.3608 0.0000 ( 21187 PWs)   bands (ev):

   -53.4611 -53.4354 -53.4188 -53.3856 -27.7027 -27.6759 -27.6596 -27.6277
   -27.6079 -27.5822 -27.5657 -27.5325 -27.4898 -27.4632 -27.4468 -27.4147
    -5.5818  -5.5439  -5.4929  -5.4410  -5.0235  -4.9726  -4.9110  -4.8591
     2.0752   2.1429   2.2615   2.3405   3.1210   3.1772   3.2770   3.3883
     3.4415   3.5306   3.5992   3.6595   4.6137   4.6473   4.6632   4.6961
     5.5230   5.6535   5.8579   5.9505   5.9851   6.0059   6.0096   6.0421
     6.3240   6.3812   6.4239   6.4641   9.3490   9.4945   9.5685   9.6055
     9.6425   9.6903   9.7111   9.9112  10.4969  10.6501

          k = 0.0000 0.4330 0.0000 ( 21140 PWs)   bands (ev):

   -53.4544 -53.4287 -53.4121 -53.3789 -27.7660 -27.7391 -27.7228 -27.6910
   -27.5948 -27.5691 -27.5526 -27.5194 -27.5046 -27.4780 -27.4616 -27.4296
    -5.2199  -5.1846  -5.1450  -5.0967  -4.8650  -4.8215  -4.7777  -4.7320
     1.8342   1.8772   1.9383   1.9912   2.7777   2.8306   2.9149   2.9846
     3.3468   3.4109   3.5094   3.5820   4.3931   4.4268   4.4431   4.4765
     5.3535   5.4730   5.6603   5.7899   6.2069   6.2430   6.2734   6.3147
     6.3415   6.4068   6.4709   6.5191   9.5607   9.5938   9.6179   9.6183
     9.6610   9.7287   9.8981  10.0451  10.8044  10.9392

          k = 0.0000 0.5052 0.0000 ( 21078 PWs)   bands (ev):

   -53.4500 -53.4243 -53.4077 -53.3745 -27.8079 -27.7810 -27.7647 -27.7329
   -27.5861 -27.5604 -27.5439 -27.5145 -27.5106 -27.4879 -27.4715 -27.4394
    -4.9501  -4.9169  -4.8912  -4.8473  -4.7497  -4.7131  -4.6845  -4.6441
     1.6029   1.6372   1.6757   1.7220   2.5386   2.5799   2.6410   2.7014
     3.2493   3.3082   3.4010   3.4701   4.2554   4.2893   4.3058   4.3394
     5.2624   5.3723   5.5439   5.6556   6.3627   6.4009   6.4407   6.4859
     6.5310   6.5927   6.6579   6.7090   9.6081   9.6379   9.6550   9.6920
     9.9178   9.9862  10.0882  10.1756  11.0000  11.1080

          k = 0.0000-0.5774 0.0000 ( 21006 PWs)   bands (ev):

   -53.4484 -53.4227 -53.4061 -53.3729 -27.8225 -27.7956 -27.7793 -27.7476
   -27.5830 -27.5573 -27.5408 -27.5180 -27.5075 -27.4914 -27.4749 -27.4429
    -4.8479  -4.8154  -4.7970  -4.7557  -4.7069  -4.6739  -4.6512  -4.6133
     1.5105   1.5430   1.5762   1.6217   2.4532   2.4894   2.5419   2.6016
     3.2023   3.2603   3.3506   3.4180   4.2088   4.2426   4.2592   4.2929
     5.2354   5.3413   5.5058   5.6103   6.4134   6.4525   6.4962   6.5428
     6.6488   6.6991   6.7501   6.7964   9.6364   9.6649   9.6810   9.7153
    10.0782  10.1245  10.1676  10.2174  11.0635  11.1532

          k = 0.0625 0.1083 0.0000 ( 21269 PWs)   bands (ev):

   -53.4849 -53.4592 -53.4426 -53.4094 -27.6544 -27.6286 -27.6122 -27.5790
   -27.4710 -27.4444 -27.4369 -27.4280 -27.4103 -27.3959 -27.3939 -27.3618
    -6.6408  -6.5982  -6.5332  -6.4769  -5.5025  -5.4334  -5.3299  -5.2614
     1.5971   1.7502   2.0371   2.2318   4.4111   4.4454   4.4461   4.4617
     4.4890   4.7152   4.9697   5.0032   5.0170   5.0423   5.0515   5.2220
     5.5919   5.6242   5.6380   5.6667   6.0952   6.1712   6.3576   6.6391
     6.9578   7.2426   7.4786   7.5787   9.8841   9.9267   9.9335   9.9561
    10.0109  10.0185  10.0600  10.1043  10.1507  10.1902

          k = 0.0625 0.1804 0.0000 ( 21194 PWs)   bands (ev):

   -53.4794 -53.4537 -53.4371 -53.4039 -27.6436 -27.6178 -27.6014 -27.5682
   -27.5245 -27.4978 -27.4814 -27.4506 -27.4494 -27.4240 -27.4076 -27.3755
    -6.4171  -6.3752  -6.3117  -6.2558  -5.4002  -5.3347  -5.2392  -5.1741
     1.8287   1.9745   2.2541   2.4471   4.0287   4.0599   4.0741   4.0964
     4.1496   4.3631   4.6266   4.7590   5.1861   5.2142   5.2299   5.2336
     5.2547   5.2605   5.2772   5.3009   6.1443   6.2392   6.4341   6.6758
     6.8797   7.0721   7.2003   7.2588   9.4792   9.5800   9.6989   9.8185
     9.8571   9.9180   9.9548   9.9866  10.0111  10.0532

          k = 0.0625 0.2526 0.0000 ( 21202 PWs)   bands (ev):

   -53.4721 -53.4464 -53.4298 -53.3966 -27.6295 -27.6037 -27.5936 -27.5872
   -27.5670 -27.5540 -27.5506 -27.5186 -27.4685 -27.4419 -27.4255 -27.3934
    -6.1065  -6.0658  -6.0054  -5.9505  -5.2585  -5.1982  -5.1144  -5.0541
     2.0738   2.2006   2.4489   2.6192   3.6421   3.6727   3.6928   3.7220
     3.8135   3.9766   4.1514   4.2346   4.8467   4.8798   4.9021   4.9347
     5.4548   5.4882   5.5028   5.5325   6.0412   6.1449   6.3299   6.5156
     6.6757   6.7670   6.8156   6.8550   9.2089   9.3512   9.5333   9.6599
     9.7777   9.8213   9.8521   9.8855   9.9733  10.1235

          k = 0.0625 0.3248 0.0000 ( 21194 PWs)   bands (ev):

   -53.4643 -53.4386 -53.4220 -53.3888 -27.6677 -27.6409 -27.6246 -27.6141
   -27.5927 -27.5883 -27.5719 -27.5386 -27.4879 -27.4613 -27.4449 -27.4128
    -5.7406  -5.7017  -5.6470  -5.5940  -5.0931  -5.0391  -4.9703  -4.9157
     2.1589   2.2463   2.4087   2.5133   3.3219   3.3585   3.4245   3.5109
     3.5764   3.6692   3.6870   3.7373   4.5404   4.5798   4.6153   4.6544
     5.6908   5.7208   5.7391   5.7720   5.8299   5.9291   6.0977   6.2393
     6.4554   6.5008   6.5291   6.5652   9.1742   9.3171   9.4862   9.5730
     9.7120   9.7536   9.7934   9.9150  10.2289  10.3809

          k = 0.0625 0.3969 0.0000 ( 21151 PWs)   bands (ev):

   -53.4570 -53.4313 -53.4147 -53.3815 -27.7353 -27.7085 -27.6922 -27.6604
   -27.5998 -27.5741 -27.5577 -27.5244 -27.5057 -27.4791 -27.4627 -27.4306
    -5.3655  -5.3291  -5.2839  -5.2338  -4.9261  -4.8793  -4.8277  -4.7793
     1.9950   2.0476   2.1318   2.1939   2.9434   2.9974   3.0834   3.1564
     3.4140   3.4792   3.5759   3.6512   4.3425   4.3832   4.4192   4.4584
     5.5747   5.6711   5.8079   5.8363   5.8766   5.8903   5.9181   5.9872
     6.4672   6.5031   6.5291   6.5630   9.3148   9.4240   9.5384   9.6008
     9.7531   9.7950   9.8636   9.9941  10.5673  10.7035

          k = 0.0625 0.4691 0.0000 ( 21105 PWs)   bands (ev):

   -53.4514 -53.4257 -53.4091 -53.3759 -27.7866 -27.7598 -27.7435 -27.7117
   -27.5889 -27.5632 -27.5467 -27.5193 -27.5135 -27.4927 -27.4763 -27.4442
    -5.0445  -5.0106  -4.9786  -4.9328  -4.7861  -4.7466  -4.7120  -4.6695
     1.7521   1.7897   1.8373   1.8859   2.6237   2.6668   2.7268   2.7841
     3.3215   3.3802   3.4763   3.5489   4.2372   4.2719   4.2977   4.3344
     5.3862   5.4826   5.6315   5.7327   5.9613   5.9945   6.0286   6.0764
     6.6404   6.6772   6.7092   6.7470   9.5151   9.5756   9.6306   9.6751
     9.8908   9.9377  10.0212  10.1185  10.8823  10.9936

          k = 0.0625 0.5413 0.0000 ( 21084 PWs)   bands (ev):

   -53.4484 -53.4227 -53.4061 -53.3729 -27.8143 -27.7874 -27.7710 -27.7393
   -27.5830 -27.5573 -27.5408 -27.5267 -27.5075 -27.5000 -27.4836 -27.4516
    -4.8534  -4.8209  -4.8010  -4.7593  -4.7045  -4.6708  -4.6472  -4.6090
     1.5907   1.6234   1.6577   1.7036   2.4444   2.4796   2.5261   2.5818
     3.2346   3.2926   3.3844   3.4529   4.1951   4.2257   4.2402   4.2743
     5.2834   5.3805   5.5281   5.6229   6.0549   6.0904   6.1264   6.1742
     6.7947   6.8343   6.8719   6.9132   9.6342   9.6605   9.6800   9.7131
    10.0711  10.1184  10.1736  10.2309  11.1108  11.1899

          k = 0.1250 0.2165 0.0000 ( 21179 PWs)   bands (ev):

   -53.4732 -53.4475 -53.4309 -53.3977 -27.6316 -27.6058 -27.5894 -27.5796
   -27.5562 -27.5530 -27.5366 -27.5046 -27.4694 -27.4428 -27.4264 -27.3943
    -6.1556  -6.1146  -6.0536  -5.9985  -5.2805  -5.2193  -5.1335  -5.0724
     2.0548   2.1870   2.4466   2.6262   3.7104   3.7367   3.7538   3.7820
     3.9157   4.1104   4.3252   4.4220   4.7083   4.7409   4.7617   4.7921
     5.3754   5.4082   5.4222   5.4512   6.2261   6.3150   6.4750   6.6505
     6.7390   6.8459   6.8856   6.9241   9.1985   9.3317   9.4952   9.6165
     9.7798   9.7937   9.8312   9.8513   9.9067  10.0556

          k = 0.1250 0.2887 0.0000 ( 21199 PWs)   bands (ev):

   -53.4660 -53.4403 -53.4237 -53.3905 -27.6430 -27.6174 -27.6162 -27.5999
   -27.5917 -27.5752 -27.5680 -27.5420 -27.4927 -27.4661 -27.4497 -27.4176
    -5.8242  -5.7848  -5.7285  -5.6748  -5.1291  -5.0736  -5.0009  -4.9450
     2.2102   2.3124   2.5085   2.6357   3.4726   3.5037   3.5190   3.6074
     3.6827   3.8040   3.8807   3.9244   4.2713   4.3241   4.4028   4.4685
     5.4801   5.5120   5.5280   5.5622   6.1530   6.2338   6.3637   6.4834
     6.5606   6.5895   6.6096   6.6391   9.0395   9.1871   9.3719   9.4897
     9.7712   9.7907   9.8225   9.8933   9.9843  10.1529

          k = 0.1250 0.3608 0.0000 ( 21195 PWs)   bands (ev):

   -53.4587 -53.4330 -53.4164 -53.3832 -27.7052 -27.6784 -27.6621 -27.6302
   -27.6032 -27.5775 -27.5610 -27.5278 -27.5164 -27.4897 -27.4733 -27.4413
    -5.4610  -5.4238  -5.3753  -5.3242  -4.9643  -4.9153  -4.8585  -4.8083
     2.1548   2.2198   2.3324   2.4075   3.1430   3.1883   3.2519   3.3135
     3.5017   3.5597   3.6413   3.7225   4.0745   4.1631   4.2691   4.3346
     5.4236   5.4556   5.4749   5.5136   5.9367   6.0048   6.1087   6.1953
     6.5242   6.5523   6.5677   6.6024   9.0798   9.2271   9.4270   9.5576
     9.8441   9.8698   9.9023   9.9867  10.2234  10.3680

          k = 0.1250 0.4330 0.0000 ( 21113 PWs)   bands (ev):

   -53.4525 -53.4268 -53.4102 -53.3770 -27.7573 -27.7305 -27.7142 -27.6824
   -27.5911 -27.5654 -27.5489 -27.5365 -27.5157 -27.5099 -27.4935 -27.4615
    -5.1191  -5.0845  -5.0477  -5.0004  -4.8108  -4.7688  -4.7290  -4.6846
     1.9676   2.0118   2.0765   2.1308   2.7237   2.7607   2.8001   2.8465
     3.4490   3.5018   3.5966   3.6767   4.0491   4.1296   4.2218   4.2811
     5.3716   5.4084   5.4478   5.4957   5.6658   5.7268   5.8207   5.8967
     6.6624   6.6922   6.7096   6.7446   9.2931   9.4211   9.6048   9.7275
     9.9552   9.9830  10.0134  10.0616  10.5399  10.6502

          k = 0.1250 0.5052 0.0000 ( 21081 PWs)   bands (ev):

   -53.4484 -53.4227 -53.4061 -53.3729 -27.7919 -27.7650 -27.7487 -27.7169
   -27.5830 -27.5573 -27.5500 -27.5409 -27.5234 -27.5076 -27.5070 -27.4750
    -4.8665  -4.8337  -4.8108  -4.7679  -4.6987  -4.6635  -4.6378  -4.5987
     1.8016   1.8360   1.8765   1.9242   2.4274   2.4586   2.4888   2.5356
     3.3330   3.3907   3.4844   3.5544   4.1031   4.1584   4.2183   4.2660
     5.3712   5.4294   5.4650   5.4910   5.5144   5.5526   5.6021   5.6813
     6.8476   6.8824   6.9104   6.9489   9.5196   9.5897   9.6709   9.7285
    10.1042  10.1446  10.1971  10.2625  10.8308  10.8939

          k = 0.1250 0.5774 0.0000 ( 21108 PWs)   bands (ev):

   -53.4469 -53.4213 -53.4047 -53.3715 -27.8040 -27.7771 -27.7608 -27.7290
   -27.5802 -27.5548 -27.5545 -27.5380 -27.5281 -27.5117 -27.5047 -27.4797
    -4.7713  -4.7391  -4.7232  -4.6833  -4.6569  -4.6256  -4.6049  -4.5684
     1.7377   1.7689   1.8011   1.8478   2.3220   2.3514   2.3795   2.4271
     3.2729   3.3315   3.4246   3.4925   4.1525   4.1859   4.2178   4.2591
     5.3103   5.3919   5.4470   5.4851   5.5022   5.5456   5.5540   5.6235
     6.9396   6.9780   7.0132   7.0547   9.6013   9.6260   9.6472   9.6824
    10.2155  10.2681  10.3146  10.3604  10.9617  11.0060

          k = 0.1875 0.3248 0.0000 ( 21195 PWs)   bands (ev):

   -53.4593 -53.4336 -53.4170 -53.3838 -27.6916 -27.6649 -27.6485 -27.6166
   -27.6044 -27.5786 -27.5622 -27.5289 -27.5231 -27.4965 -27.4801 -27.4481
    -5.4941  -5.4567  -5.4071  -5.3556  -4.9773  -4.9275  -4.8688  -4.8180
     2.2229   2.2945   2.4217   2.5039   3.2730   3.3065   3.3469   3.3893
     3.5438   3.5959   3.6616   3.7318   3.9218   4.0395   4.1810   4.2573
     5.2495   5.2811   5.3004   5.3396   6.1007   6.1562   6.2364   6.3068
     6.5306   6.5609   6.5763   6.6149   8.9905   9.1500   9.3730   9.5322
     9.8689   9.8824   9.9154   9.9677  10.0779  10.2344

          k = 0.1875 0.3969 0.0000 ( 21153 PWs)   bands (ev):

   -53.4531 -53.4274 -53.4108 -53.3776 -27.7335 -27.7067 -27.6904 -27.6586
   -27.5923 -27.5666 -27.5539 -27.5501 -27.5273 -27.5169 -27.5109 -27.4789
    -5.1601  -5.1250  -5.0857  -5.0375  -4.8230  -4.7797  -4.7368  -4.6914
     2.1311   2.1830   2.2660   2.3269   2.8122   2.8354   2.8548   2.8891
     3.5916   3.6268   3.6934   3.7798   3.9201   4.0344   4.1622   4.2317
     4.9322   4.9666   4.9943   5.0378   5.8814   5.9165   5.9653   6.0182
     6.6330   6.6660   6.6861   6.7257   9.1504   9.3082   9.5549   9.7638
     9.9847  10.0090  10.0266  10.0593  10.2630  10.3890

          k = 0.1875 0.4691 0.0000 ( 21101 PWs)   bands (ev):

   -53.4484 -53.4227 -53.4061 -53.3729 -27.7640 -27.7372 -27.7208 -27.6891
   -27.5831 -27.5789 -27.5573 -27.5522 -27.5409 -27.5358 -27.5076 -27.5038
    -4.8792  -4.8461  -4.8203  -4.7765  -4.6928  -4.6563  -4.6283  -4.5885
     2.0421   2.0824   2.1388   2.1910   2.4147   2.4388   2.4566   2.4924
     3.5076   3.5641   3.6490   3.7093   3.9949   4.0903   4.2037   4.2721
     4.7529   4.7959   4.8592   4.9184   5.5816   5.6290   5.6754   5.7288
     6.8334   6.8653   6.8821   6.9191   9.3762   9.4807   9.6275   9.7282
    10.1476  10.1807  10.2250  10.2992  10.4863  10.5652

          k = 0.1875 0.5413 0.0000 ( 21112 PWs)   bands (ev):

   -53.4458 -53.4201 -53.4036 -53.3703 -27.7800 -27.7532 -27.7368 -27.7051
   -27.5928 -27.5780 -27.5661 -27.5523 -27.5497 -27.5359 -27.5178 -27.5026
    -4.7146  -4.6826  -4.6680  -4.6299  -4.6158  -4.5862  -4.5666  -4.5314
     2.0042   2.0349   2.0697   2.1215   2.1981   2.2244   2.2419   2.2802
     3.3625   3.4230   3.5160   3.5790   4.1343   4.1902   4.2571   4.3126
     4.7130   4.7663   4.8464   4.9071   5.3679   5.4196   5.4737   5.5269
     7.0167   7.0508   7.0763   7.1158   9.4523   9.4903   9.5257   9.5673
    10.3372  10.3882  10.4585  10.5396  10.6166  10.6632

          k = 0.2500 0.4330 0.0000 ( 21125 PWs)   bands (ev):

   -53.4484 -53.4227 -53.4061 -53.3729 -27.7495 -27.7227 -27.7064 -27.6746
   -27.5938 -27.5831 -27.5671 -27.5573 -27.5507 -27.5409 -27.5188 -27.5076
    -4.8844  -4.8512  -4.8243  -4.7801  -4.6904  -4.6533  -4.6245  -4.5842
     2.1525   2.1973   2.2653   2.3189   2.4110   2.4304   2.4484   2.4749
     3.6915   3.7229   3.7464   3.8076   3.9896   4.0907   4.2127   4.2834
     4.4285   4.4624   4.4803   4.5172   5.6597   5.6901   5.6963   5.7617
     6.8169   6.8496   6.8652   6.9023   9.3163   9.4314   9.6001   9.7207
    10.1598  10.1895  10.2200  10.3072  10.3570  10.4680

          k = 0.2500 0.5052 0.0000 ( 21117 PWs)   bands (ev):

   -53.4452 -53.4195 -53.4030 -53.3697 -27.7543 -27.7274 -27.7111 -27.6793
   -27.6264 -27.5997 -27.5833 -27.5769 -27.5513 -27.5512 -27.5347 -27.5014
    -4.6864  -4.6544  -4.6400  -4.6032  -4.5914  -4.5628  -4.5435  -4.5090
     2.1095   2.1324   2.1454   2.1787   2.2606   2.3032   2.3508   2.3984
     3.5349   3.5954   3.6666   3.7052   4.0849   4.1163   4.1602   4.2020
     4.2413   4.2984   4.3539   4.4003   5.3794   5.4137   5.4404   5.5004
     7.0574   7.0884   7.1037   7.1400   9.3201   9.3660   9.4185   9.4682
    10.3090  10.3434  10.3729  10.4030  10.5524  10.6062

          k = 0.2500 0.5774 0.0000 ( 21116 PWs)   bands (ev):

   -53.4441 -53.4184 -53.4018 -53.3686 -27.7541 -27.7273 -27.7109 -27.6791
   -27.6396 -27.6129 -27.5965 -27.5747 -27.5646 -27.5490 -27.5325 -27.4992
    -4.6128  -4.5829  -4.5714  -4.5581  -4.5392  -4.5293  -4.5137  -4.4821
     2.0081   2.0303   2.0443   2.0771   2.3478   2.3766   2.4046   2.4478
     3.3772   3.4371   3.5165   3.5683   4.0543   4.0970   4.1728   4.2332
     4.2958   4.3487   4.3979   4.4399   5.2568   5.2890   5.3031   5.3630
     7.1836   7.2153   7.2342   7.2723   9.2513   9.2785   9.2956   9.3273
    10.3349  10.3701  10.4022  10.4242  10.7102  10.7453

          k = 0.3125 0.5413 0.0000 ( 21100 PWs)   bands (ev):

   -53.4435 -53.4178 -53.4012 -53.3680 -27.7330 -27.7062 -27.6898 -27.6680
   -27.6581 -27.6414 -27.6250 -27.5930 -27.5735 -27.5478 -27.5314 -27.4981
    -4.5767  -4.5491  -4.5380  -4.5343  -4.5140  -4.5042  -4.4937  -4.4637
     1.9393   1.9617   1.9761   2.0077   2.5750   2.6095   2.6449   2.6917
     3.3796   3.3905   3.4080   3.4392   3.8507   3.8731   3.8850   3.9043
     4.3526   4.4057   4.4514   4.4981   5.1717   5.2077   5.2296   5.2924
     7.2662   7.2960   7.3104   7.3468   9.1351   9.1638   9.1810   9.2123
    10.2693  10.2903  10.3082  10.3415  10.8080  10.8618

     the Fermi energy is     8.3443 ev

!    total energy              =   -1978.37150767 Ry
     total all-electron energy =    -38771.692352 Ry
     estimated scf accuracy    <          5.0E-10 Ry
     smearing contrib. (-TS)   =       0.00002914 Ry
     internal energy E=F+TS    =   -1978.37153681 Ry

     The total energy is F=E-TS. E is the sum of the following terms:
     one-electron contribution =   -1459.66594256 Ry
     hartree contribution      =     772.09718730 Ry
     xc contribution           =    -119.23079351 Ry
     ewald contribution        =      98.27887364 Ry
     one-center paw contrib.   =   -1269.85086168 Ry

     convergence has been achieved in  17 iterations

     Forces acting on atoms (cartesian axes, Ry/au):

     atom    1 type  2   force =     0.00000000    0.00000000    0.00060354
     atom    2 type  1   force =     0.00000000    0.00000000    0.00055408
     atom    3 type  2   force =     0.00000000    0.00000000    0.00047769
     atom    4 type  2   force =     0.00000000   -0.00000000    0.00026420
     atom    5 type  1   force =     0.00000000    0.00000000    0.00023496
     atom    6 type  2   force =     0.00000000    0.00000000    0.00087530
     atom    7 type  2   force =     0.00000000   -0.00000000   -0.00055085
     atom    8 type  1   force =     0.00000000    0.00000000   -0.00032689
     atom    9 type  2   force =     0.00000000   -0.00000000   -0.00002093
     atom   10 type  2   force =     0.00000000    0.00000000   -0.00052868
     atom   11 type  1   force =     0.00000000    0.00000000   -0.00069342
     atom   12 type  2   force =     0.00000000    0.00000000   -0.00088900

     Total force =     0.001937     Total SCF correction =     0.000072
     Energy error            =      1.4E-06 Ry
     Gradient error          =      8.9E-04 Ry/Bohr

     number of scf cycles    =  15
     number of bfgs steps    =  12

     energy             old  =   -1978.3715062317 Ry
     energy             new  =   -1978.3715076669 Ry

     CASE: energy            _new < energy            _old

     new trust radius        =       0.0265544592 bohr
     new conv_thr            =       0.0000000010 Ry


ATOMIC_POSITIONS (crystal)
S                0.3333329918        0.6666669835       -0.1117579902
Mo               0.0000000000        0.0000000000       -0.0593388658
S                0.3333329918        0.6666669835       -0.0068978539
S                0.6666669835        0.3333329918        0.0978720289
Mo               0.3333329918        0.6666669835        0.1503576943
S                0.6666669835        0.3333329918        0.2028154277
S                0.0000000000        0.0000000000        0.3154830660
Mo               0.6666669835        0.3333329918        0.3679885043
S                0.0000000000        0.0000000000        0.4204583152
S                0.3333329918        0.6666669835        0.5268768799
Mo               0.0000000000        0.0000000000        0.5793598530
S                0.3333329918        0.6666669835        0.6317828637



     Writing config-only to output data dir ./tmp/relax2/mos2_slab2.save/ :
     XML data file
     NEW-OLD atomic charge density approx. for the potential

     total cpu time spent up to now is    39203.8 secs

     Self-consistent Calculation

     iteration #  1     ecut=    80.00 Ry     beta= 0.20
     Davidson diagonalization with overlap
     ethr =  1.00E-06,  avg # of iterations =  6.7

     total cpu time spent up to now is    39468.9 secs

     total energy              =   -1978.37152887 Ry
     estimated scf accuracy    <       0.00018082 Ry

     iteration #  2     ecut=    80.00 Ry     beta= 0.20
     Davidson diagonalization with overlap
     ethr =  1.74E-07,  avg # of iterations =  2.7

     total cpu time spent up to now is    39582.2 secs

     total energy              =   -1978.37151281 Ry
     estimated scf accuracy    <       0.00016739 Ry

     iteration #  3     ecut=    80.00 Ry     beta= 0.20
     Davidson diagonalization with overlap
     ethr =  1.61E-07,  avg # of iterations =  1.0

     total cpu time spent up to now is    39681.0 secs

     total energy              =   -1978.37149200 Ry
     estimated scf accuracy    <       0.00009634 Ry

     iteration #  4     ecut=    80.00 Ry     beta= 0.20
     Davidson diagonalization with overlap
     ethr =  9.26E-08,  avg # of iterations =  2.1

     total cpu time spent up to now is    39791.6 secs

     total energy              =   -1978.37149839 Ry
     estimated scf accuracy    <       0.00000780 Ry

     iteration #  5     ecut=    80.00 Ry     beta= 0.20
     Davidson diagonalization with overlap
     ethr =  7.50E-09,  avg # of iterations =  4.1

     total cpu time spent up to now is    39913.2 secs

     total energy              =   -1978.37149952 Ry
     estimated scf accuracy    <       0.00000100 Ry

     iteration #  6     ecut=    80.00 Ry     beta= 0.20
     Davidson diagonalization with overlap
     ethr =  9.57E-10,  avg # of iterations =  3.8

     total cpu time spent up to now is    40033.3 secs

     total energy              =   -1978.37149944 Ry
     estimated scf accuracy    <       0.00000030 Ry

     iteration #  7     ecut=    80.00 Ry     beta= 0.20
     Davidson diagonalization with overlap
     ethr =  2.92E-10,  avg # of iterations =  2.3

     total cpu time spent up to now is    40146.0 secs

     total energy              =   -1978.37149944 Ry
     estimated scf accuracy    <       0.00000013 Ry

     iteration #  8     ecut=    80.00 Ry     beta= 0.20
     Davidson diagonalization with overlap
     ethr =  1.22E-10,  avg # of iterations =  2.2

     total cpu time spent up to now is    40266.3 secs

     total energy              =   -1978.37149946 Ry
     estimated scf accuracy    <       0.00000005 Ry

     iteration #  9     ecut=    80.00 Ry     beta= 0.20
     Davidson diagonalization with overlap
     ethr =  5.21E-11,  avg # of iterations =  1.6

     total cpu time spent up to now is    40369.7 secs

     total energy              =   -1978.37149944 Ry
     estimated scf accuracy    <       0.00000004 Ry

     iteration # 10     ecut=    80.00 Ry     beta= 0.20
     Davidson diagonalization with overlap
     ethr =  3.94E-11,  avg # of iterations =  3.0

     total cpu time spent up to now is    40500.6 secs

     total energy              =   -1978.37149948 Ry
     estimated scf accuracy    <       0.00000006 Ry

     iteration # 11     ecut=    80.00 Ry     beta= 0.20
     Davidson diagonalization with overlap
     ethr =  3.94E-11,  avg # of iterations =  1.0

     total cpu time spent up to now is    40599.2 secs

     total energy              =   -1978.37149947 Ry
     estimated scf accuracy    <       0.00000004 Ry

     iteration # 12     ecut=    80.00 Ry     beta= 0.20
     Davidson diagonalization with overlap
     ethr =  3.78E-11,  avg # of iterations =  2.3

     total cpu time spent up to now is    40722.2 secs

     total energy              =   -1978.37149944 Ry
     estimated scf accuracy    <       0.00000002 Ry

     iteration # 13     ecut=    80.00 Ry     beta= 0.20
     Davidson diagonalization with overlap
     ethr =  1.67E-11,  avg # of iterations =  2.1

     total cpu time spent up to now is    40838.2 secs

     total energy              =   -1978.37149944 Ry
     estimated scf accuracy    <       0.00000002 Ry

     iteration # 14     ecut=    80.00 Ry     beta= 0.20
     Davidson diagonalization with overlap
     ethr =  1.55E-11,  avg # of iterations =  2.4

     total cpu time spent up to now is    40960.1 secs

     total energy              =   -1978.37149944 Ry
     estimated scf accuracy    <       0.00000001 Ry

     iteration # 15     ecut=    80.00 Ry     beta= 0.20
     Davidson diagonalization with overlap
     ethr =  1.17E-11,  avg # of iterations =  2.1

     total cpu time spent up to now is    41071.0 secs

     total energy              =   -1978.37149944 Ry
     estimated scf accuracy    <          4.2E-09 Ry

     iteration # 16     ecut=    80.00 Ry     beta= 0.20
     Davidson diagonalization with overlap
     ethr =  4.01E-12,  avg # of iterations =  1.3

     total cpu time spent up to now is    41172.8 secs

     total energy              =   -1978.37149946 Ry
     estimated scf accuracy    <          3.0E-09 Ry

     iteration # 17     ecut=    80.00 Ry     beta= 0.20
     Davidson diagonalization with overlap
     ethr =  2.89E-12,  avg # of iterations =  2.0

     total cpu time spent up to now is    41286.5 secs

     total energy              =   -1978.37149946 Ry
     estimated scf accuracy    <          1.2E-09 Ry

     iteration # 18     ecut=    80.00 Ry     beta= 0.20
     Davidson diagonalization with overlap
     ethr =  1.18E-12,  avg # of iterations =  2.7

     total cpu time spent up to now is    41403.5 secs

     End of self-consistent calculation

          k = 0.0000 0.0000 0.0000 ( 21311 PWs)   bands (ev):

   -53.4895 -53.4623 -53.4483 -53.4133 -27.6634 -27.6362 -27.6225 -27.5873
   -27.4262 -27.4262 -27.3984 -27.3984 -27.3847 -27.3847 -27.3505 -27.3505
    -6.8201  -6.7790  -6.7081  -6.6531  -5.5844  -5.5156  -5.3986  -5.3294
     1.3928   1.5430   1.8474   2.0347   4.7872   4.7872   4.7940   4.8195
     4.8195   4.8301   4.8301   4.8589   4.8589   5.1467   5.7492   5.9025
     5.9025   5.9341   5.9341   5.9451   5.9451   5.9766   5.9766   6.2410
     6.9641   7.3042   7.6669   7.8157  10.1381  10.1381  10.1698  10.1698
    10.1875  10.1875  10.2294  10.2294  10.3464  10.3464

          k = 0.0000 0.0722 0.0000 ( 21283 PWs)   bands (ev):

   -53.4879 -53.4607 -53.4468 -53.4117 -27.6604 -27.6332 -27.6194 -27.5843
   -27.4418 -27.4297 -27.4140 -27.4020 -27.4002 -27.3882 -27.3660 -27.3540
    -6.7605  -6.7195  -6.6489  -6.5939  -5.5572  -5.4892  -5.3744  -5.3060
     1.4620   1.6111   1.9151   2.1030   4.6491   4.6611   4.6840   4.6949
     4.7245   4.8495   4.8818   4.8924   4.9214   4.9639   5.3899   5.5773
     5.8054   5.8372   5.8484   5.8804   5.9986   6.0473   6.1944   6.4844
     6.9682   7.2911   7.6131   7.7413  10.0614  10.0918  10.1044  10.1420
    10.1893  10.2251  10.2266  10.2499  10.2620  10.2806

          k = 0.0000 0.1443 0.0000 ( 21263 PWs)   bands (ev):

   -53.4835 -53.4563 -53.4423 -53.4073 -27.6517 -27.6245 -27.6108 -27.5756
   -27.4858 -27.4580 -27.4443 -27.4398 -27.4120 -27.4101 -27.3983 -27.3641
    -6.5866  -6.5460  -6.4764  -6.4216  -5.4776  -5.4122  -5.3039  -5.2381
     1.6549   1.7997   2.1007   2.2893   4.2998   4.3330   4.3397   4.3506
     4.3820   4.5920   4.9073   5.0288   5.0551   5.0611   5.0719   5.1016
     5.5542   5.5864   5.5983   5.6312   6.0568   6.1445   6.3570   6.6352
     6.9433   7.1982   7.4151   7.4994   9.7573   9.8225   9.8830   9.9292
     9.9825  10.0480  10.0600  10.0837  10.1084  10.1209

          k = 0.0000 0.2165 0.0000 ( 21233 PWs)   bands (ev):

   -53.4769 -53.4497 -53.4357 -53.4006 -27.6388 -27.6116 -27.5978 -27.5626
   -27.5512 -27.5233 -27.5097 -27.4755 -27.4548 -27.4270 -27.4132 -27.3790
    -6.3134  -6.2736  -6.2062  -6.1520  -5.3530  -5.2916  -5.1940  -5.1321
     1.9164   2.0500   2.3361   2.5178   3.8658   3.8975   3.9100   3.9329
     3.9949   4.1727   4.4016   4.5065   5.2285   5.2605   5.2721   5.3035
     5.3071   5.3361   5.3482   5.3780   5.9685   6.0832   6.3128   6.5462
     6.8054   6.9497   7.0542   7.1044   9.3673   9.4906   9.6576   9.8354
     9.8627   9.9023   9.9525   9.9584  10.0045  10.0905

          k = 0.0000 0.2887 0.0000 ( 21197 PWs)   bands (ev):

   -53.4690 -53.4418 -53.4278 -53.3928 -27.6275 -27.6234 -27.5996 -27.5962
   -27.5859 -27.5825 -27.5519 -27.5473 -27.4724 -27.4446 -27.4309 -27.3967
    -5.9666  -5.9281  -5.8652  -5.8121  -5.1957  -5.1398  -5.0567  -4.9999
     2.1158   2.2213   2.4485   2.5863   3.4814   3.5112   3.5487   3.5984
     3.6741   3.7797   3.9050   3.9657   4.9003   4.9329   4.9464   4.9813
     5.6278   5.6607   5.6746   5.7084   5.7546   5.8832   6.1098   6.2927
     6.5400   6.6086   6.6552   6.6953   9.2301   9.3837   9.6100   9.6734
     9.7128   9.7611   9.8120   9.8286  10.1723  10.3248

          k = 0.0000 0.3608 0.0000 ( 21187 PWs)   bands (ev):

   -53.4611 -53.4339 -53.4200 -53.3849 -27.7029 -27.6750 -27.6613 -27.6273
   -27.6080 -27.5809 -27.5671 -27.5319 -27.4899 -27.4621 -27.4484 -27.4142
    -5.5846  -5.5481  -5.4931  -5.4422  -5.0249  -4.9754  -4.9100  -4.8589
     2.0712   2.1358   2.2620   2.3382   3.1188   3.1718   3.2768   3.3866
     3.4409   3.5281   3.6013   3.6598   4.6120   4.6448   4.6591   4.6944
     5.5239   5.6503   5.8625   5.9485   5.9821   6.0028   6.0112   6.0403
     6.3241   6.3805   6.4246   6.4647   9.3508   9.4937   9.5679   9.6049
     9.6435   9.6914   9.7159   9.9134  10.4984  10.6500

          k = 0.0000 0.4330 0.0000 ( 21140 PWs)   bands (ev):

   -53.4545 -53.4273 -53.4133 -53.3782 -27.7661 -27.7382 -27.7246 -27.6906
   -27.5949 -27.5678 -27.5540 -27.5188 -27.5048 -27.4769 -27.4632 -27.4291
    -5.2226  -5.1885  -5.1457  -5.0981  -4.8663  -4.8236  -4.7777  -4.7322
     1.8310   1.8723   1.9375   1.9891   2.7758   2.8260   2.9155   2.9836
     3.3455   3.4071   3.5111   3.5816   4.3913   4.4242   4.4391   4.4747
     5.3543   5.4695   5.6649   5.7917   6.2047   6.2398   6.2716   6.3131
     6.3414   6.4056   6.4720   6.5193   9.5600   9.5936   9.6182   9.6192
     9.6615   9.7276   9.9019  10.0466  10.8061  10.9391

          k = 0.0000 0.5052 0.0000 ( 21078 PWs)   bands (ev):

   -53.4500 -53.4228 -53.4088 -53.3737 -27.8080 -27.7801 -27.7665 -27.7325
   -27.5862 -27.5590 -27.5452 -27.5146 -27.5100 -27.4868 -27.4731 -27.4389
    -4.9526  -4.9202  -4.8928  -4.8487  -4.7509  -4.7145  -4.6856  -4.6447
     1.6003   1.6335   1.6744   1.7203   2.5368   2.5762   2.6414   2.7008
     3.2474   3.3039   3.4024   3.4695   4.2537   4.2866   4.3018   4.3376
     5.2631   5.3686   5.5485   5.6577   6.3604   6.3975   6.4398   6.4846
     6.5309   6.5914   6.6588   6.7091   9.6076   9.6382   9.6535   9.6922
     9.9184   9.9851  10.0906  10.1765  11.0017  11.1077

          k = 0.0000-0.5774 0.0000 ( 21006 PWs)   bands (ev):

   -53.4484 -53.4212 -53.4073 -53.3722 -27.8227 -27.7947 -27.7811 -27.7472
   -27.5831 -27.5560 -27.5422 -27.5181 -27.5069 -27.4903 -27.4766 -27.4424
    -4.8502  -4.8182  -4.7992  -4.7572  -4.7080  -4.6750  -4.6529  -4.6139
     1.5082   1.5397   1.5748   1.6202   2.4514   2.4859   2.5423   2.6010
     3.2003   3.2560   3.3518   3.4173   4.2070   4.2399   4.2553   4.2911
     5.2360   5.3376   5.5103   5.6125   6.4111   6.4490   6.4956   6.5417
     6.6487   6.6981   6.7507   6.7964   9.6359   9.6654   9.6790   9.7154
    10.0784  10.1239  10.1685  10.2183  11.0651  11.1527

          k = 0.0625 0.1083 0.0000 ( 21269 PWs)   bands (ev):

   -53.4849 -53.4577 -53.4438 -53.4087 -27.6545 -27.6274 -27.6136 -27.5784
   -27.4711 -27.4433 -27.4370 -27.4296 -27.4092 -27.3955 -27.3954 -27.3613
    -6.6438  -6.6030  -6.5330  -6.4782  -5.5038  -5.4374  -5.3270  -5.2603
     1.5936   1.7400   2.0424   2.2311   4.4099   4.4432   4.4450   4.4560
     4.4873   4.7078   4.9684   5.0006   5.0109   5.0404   5.0569   5.2211
     5.5907   5.6225   5.6329   5.6653   6.0941   6.1684   6.3610   6.6399
     6.9592   7.2404   7.4876   7.5830   9.8858   9.9279   9.9339   9.9560
    10.0115  10.0194  10.0624  10.1063  10.1506  10.1925

          k = 0.0625 0.1804 0.0000 ( 21194 PWs)   bands (ev):

   -53.4794 -53.4522 -53.4382 -53.4032 -27.6437 -27.6165 -27.6028 -27.5676
   -27.5246 -27.4968 -27.4831 -27.4507 -27.4489 -27.4229 -27.4092 -27.3750
    -6.4201  -6.3799  -6.3115  -6.2570  -5.4015  -5.3385  -5.2366  -5.1732
     1.8250   1.9642   2.2592   2.4461   4.0273   4.0577   4.0691   4.0944
     4.1485   4.3567   4.6313   4.7583   5.1847   5.2118   5.2253   5.2313
     5.2518   5.2585   5.2733   5.2996   6.1439   6.2366   6.4374   6.6766
     6.8807   7.0710   7.2049   7.2616   9.4812   9.5811   9.7012   9.8195
     9.8577   9.9183   9.9553   9.9872  10.0117  10.0580

          k = 0.0625 0.2526 0.0000 ( 21202 PWs)   bands (ev):

   -53.4722 -53.4450 -53.4310 -53.3959 -27.6296 -27.6024 -27.5938 -27.5886
   -27.5659 -27.5534 -27.5523 -27.5181 -27.4687 -27.4408 -27.4271 -27.3929
    -6.1094  -6.0703  -6.0053  -5.9517  -5.2599  -5.2016  -5.1124  -5.0535
     2.0697   2.1904   2.4529   2.6177   3.6401   3.6711   3.6887   3.7200
     3.8123   3.9719   4.1547   4.2341   4.8455   4.8772   4.8991   4.9331
     5.4533   5.4857   5.4978   5.5306   6.0415   6.1426   6.3332   6.5165
     6.6762   6.7670   6.8169   6.8562   9.2110   9.3513   9.5369   9.6611
     9.7775   9.8227   9.8528   9.8867   9.9744  10.1233

          k = 0.0625 0.3248 0.0000 ( 21194 PWs)   bands (ev):

   -53.4643 -53.4371 -53.4231 -53.3880 -27.6678 -27.6399 -27.6263 -27.6142
   -27.5922 -27.5870 -27.5733 -27.5380 -27.4880 -27.4602 -27.4465 -27.4123
    -5.7435  -5.7060  -5.6472  -5.5952  -5.0945  -5.0421  -4.9690  -4.9154
     2.1546   2.2378   2.4103   2.5110   3.3194   3.3541   3.4226   3.5098
     3.5749   3.6675   3.6873   3.7395   4.5388   4.5771   4.6136   4.6526
     5.6890   5.7186   5.7354   5.7702   5.8303   5.9269   6.1011   6.2405
     6.4553   6.5005   6.5291   6.5656   9.1762   9.3165   9.4891   9.5738
     9.7130   9.7542   9.7948   9.9167  10.2301  10.3806

          k = 0.0625 0.3969 0.0000 ( 21151 PWs)   bands (ev):

   -53.4570 -53.4298 -53.4158 -53.3808 -27.7355 -27.7076 -27.6939 -27.6599
   -27.5999 -27.5728 -27.5590 -27.5238 -27.5058 -27.4780 -27.4643 -27.4301
    -5.3682  -5.3331  -5.2844  -5.2351  -4.9275  -4.8817  -4.8273  -4.7794
     1.9914   2.0417   2.1316   2.1917   2.9414   2.9927   3.0836   3.1549
     3.4129   3.4759   3.5777   3.6507   4.3408   4.3803   4.4174   4.4567
     5.5752   5.6682   5.8097   5.8350   5.8745   5.8901   5.9179   5.9880
     6.4667   6.5022   6.5281   6.5627   9.3162   9.4230   9.5401   9.6012
     9.7537   9.7949   9.8659   9.9955  10.5687  10.7033

          k = 0.0625 0.4691 0.0000 ( 21105 PWs)   bands (ev):

   -53.4514 -53.4243 -53.4103 -53.3752 -27.7868 -27.7589 -27.7453 -27.7113
   -27.5890 -27.5619 -27.5481 -27.5194 -27.5129 -27.4916 -27.4779 -27.4438
    -5.0472  -5.0142  -4.9798  -4.9342  -4.7874  -4.7483  -4.7126  -4.6699
     1.7493   1.7855   1.8362   1.8841   2.6219   2.6631   2.7268   2.7831
     3.3197   3.3760   3.4777   3.5483   4.2355   4.2692   4.2951   4.3327
     5.3868   5.4796   5.6353   5.7345   5.9596   5.9923   6.0279   6.0758
     6.6398   6.6759   6.7086   6.7466   9.5156   9.5748   9.6312   9.6752
     9.8911   9.9369  10.0234  10.1194  10.8839  10.9935

          k = 0.0625 0.5413 0.0000 ( 21084 PWs)   bands (ev):

   -53.4484 -53.4212 -53.4073 -53.3722 -27.8144 -27.7864 -27.7729 -27.7389
   -27.5831 -27.5560 -27.5422 -27.5268 -27.5069 -27.4990 -27.4853 -27.4511
    -4.8558  -4.8237  -4.8032  -4.7608  -4.7056  -4.6720  -4.6488  -4.6096
     1.5883   1.6200   1.6564   1.7021   2.4425   2.4764   2.5260   2.5811
     3.2325   3.2881   3.3856   3.4522   4.1936   4.2239   4.2358   4.2729
     5.2839   5.3773   5.5321   5.6249   6.0529   6.0877   6.1262   6.1739
     6.7941   6.8329   6.8717   6.9129   9.6340   9.6606   9.6788   9.7130
    10.0713  10.1176  10.1748  10.2316  11.1122  11.1895

          k = 0.1250 0.2165 0.0000 ( 21179 PWs)   bands (ev):

   -53.4733 -53.4461 -53.4321 -53.3970 -27.6317 -27.6046 -27.5908 -27.5798
   -27.5556 -27.5519 -27.5383 -27.5041 -27.4695 -27.4417 -27.4280 -27.3938
    -6.1585  -6.1192  -6.0535  -5.9997  -5.2818  -5.2228  -5.1314  -5.0717
     2.0508   2.1767   2.4509   2.6248   3.7089   3.7351   3.7492   3.7801
     3.9144   4.1047   4.3292   4.4213   4.7073   4.7387   4.7586   4.7908
     5.3739   5.4059   5.4169   5.4495   6.2263   6.3130   6.4775   6.6511
     6.7395   6.8459   6.8868   6.9255   9.2006   9.3318   9.4986   9.6178
     9.7810   9.7930   9.8317   9.8523   9.9076  10.0526

          k = 0.1250 0.2887 0.0000 ( 21199 PWs)   bands (ev):

   -53.4660 -53.4388 -53.4248 -53.3898 -27.6431 -27.6175 -27.6152 -27.6016
   -27.5904 -27.5766 -27.5675 -27.5414 -27.4928 -27.4650 -27.4513 -27.4171
    -5.8271  -5.7892  -5.7285  -5.6760  -5.1305  -5.0767  -4.9994  -4.9446
     2.2058   2.3031   2.5110   2.6336   3.4695   3.5022   3.5160   3.6055
     3.6814   3.8011   3.8810   3.9242   4.2697   4.3214   4.4038   4.4675
     5.4785   5.5099   5.5242   5.5607   6.1535   6.2324   6.3657   6.4840
     6.5605   6.5897   6.6089   6.6391   9.0416   9.1865   9.3756   9.4910
     9.7723   9.7911   9.8229   9.8935   9.9853  10.1522

          k = 0.1250 0.3608 0.0000 ( 21195 PWs)   bands (ev):

   -53.4587 -53.4315 -53.4176 -53.3825 -27.7054 -27.6774 -27.6638 -27.6298
   -27.6033 -27.5762 -27.5624 -27.5272 -27.5165 -27.4887 -27.4750 -27.4408
    -5.4638  -5.4279  -5.3757  -5.3254  -4.9657  -4.9179  -4.8578  -4.8082
     2.1508   2.2129   2.3328   2.4052   3.1408   3.1841   3.2507   3.3111
     3.5006   3.5571   3.6421   3.7215   4.0730   4.1599   4.2709   4.3340
     5.4219   5.4538   5.4725   5.5126   5.9373   6.0036   6.1108   6.1961
     6.5235   6.5524   6.5651   6.6023   9.0816   9.2257   9.4310   9.5588
     9.8447   9.8699   9.9027   9.9875  10.2245  10.3675

          k = 0.1250 0.4330 0.0000 ( 21113 PWs)   bands (ev):

   -53.4526 -53.4254 -53.4114 -53.3763 -27.7575 -27.7295 -27.7159 -27.6819
   -27.5912 -27.5641 -27.5503 -27.5367 -27.5151 -27.5088 -27.4951 -27.4610
    -5.1218  -5.0882  -5.0486  -5.0017  -4.8121  -4.7708  -4.7292  -4.6850
     1.9643   2.0067   2.0759   2.1288   2.7218   2.7576   2.7988   2.8449
     3.4470   3.4976   3.5976   3.6757   4.0475   4.1263   4.2228   4.2803
     5.3697   5.4056   5.4473   5.4949   5.6663   5.7255   5.8231   5.8980
     6.6617   6.6918   6.7073   6.7444   9.2945   9.4193   9.6084   9.7284
     9.9552   9.9828  10.0135  10.0621  10.5411  10.6497

          k = 0.1250 0.5052 0.0000 ( 21081 PWs)   bands (ev):

   -53.4484 -53.4212 -53.4073 -53.3722 -27.7920 -27.7641 -27.7505 -27.7165
   -27.5831 -27.5560 -27.5502 -27.5422 -27.5223 -27.5086 -27.5070 -27.4745
    -4.8690  -4.8367  -4.8126  -4.7694  -4.6998  -4.6647  -4.6391  -4.5993
     1.7990   1.8322   1.8754   1.9226   2.4256   2.4559   2.4875   2.5343
     3.3307   3.3860   3.4855   3.5535   4.1015   4.1554   4.2180   4.2649
     5.3700   5.4260   5.4631   5.4914   5.5135   5.5532   5.6051   5.6829
     6.8469   6.8812   6.9094   6.9486   9.5199   9.5885   9.6722   9.7286
    10.1042  10.1438  10.1982  10.2631  10.8317  10.8934

          k = 0.1250 0.5774 0.0000 ( 21108 PWs)   bands (ev):

   -53.4470 -53.4198 -53.4058 -53.3707 -27.8041 -27.7762 -27.7626 -27.7286
   -27.5803 -27.5549 -27.5532 -27.5394 -27.5271 -27.5134 -27.5041 -27.4792
    -4.7736  -4.7416  -4.7258  -4.6848  -4.6579  -4.6265  -4.6068  -4.5692
     1.7353   1.7656   1.7998   1.8463   2.3202   2.3488   2.3781   2.4259
     3.2705   3.3267   3.4256   3.4916   4.1510   4.1835   4.2161   4.2579
     5.3102   5.3886   5.4453   5.4827   5.5044   5.5475   5.5551   5.6244
     6.9389   6.9766   7.0127   7.0544   9.6011   9.6260   9.6463   9.6822
    10.2157  10.2673  10.3154  10.3612  10.9623  11.0047

          k = 0.1875 0.3248 0.0000 ( 21195 PWs)   bands (ev):

   -53.4593 -53.4321 -53.4182 -53.3831 -27.6918 -27.6639 -27.6502 -27.6162
   -27.6045 -27.5773 -27.5636 -27.5283 -27.5233 -27.4954 -27.4817 -27.4476
    -5.4970  -5.4609  -5.4074  -5.3569  -4.9786  -4.9302  -4.8680  -4.8179
     2.2188   2.2870   2.4225   2.5015   3.2705   3.3030   3.3446   3.3863
     3.5424   3.5937   3.6613   3.7307   3.9207   4.0362   4.1846   4.2579
     5.2479   5.2793   5.2980   5.3386   6.1014   6.1554   6.2377   6.3072
     6.5297   6.5607   6.5742   6.6148   8.9925   9.1485   9.3775   9.5336
     9.8696   9.8823   9.9153   9.9677  10.0789  10.2341

          k = 0.1875 0.3969 0.0000 ( 21153 PWs)   bands (ev):

   -53.4532 -53.4260 -53.4120 -53.3769 -27.7337 -27.7058 -27.6922 -27.6581
   -27.5924 -27.5653 -27.5541 -27.5515 -27.5262 -27.5162 -27.5125 -27.4784
    -5.1628  -5.1288  -5.0865  -5.0388  -4.8243  -4.7818  -4.7368  -4.6917
     2.1276   2.1772   2.2659   2.3249   2.8106   2.8334   2.8515   2.8869
     3.5885   3.6227   3.6935   3.7784   3.9193   4.0315   4.1655   4.2326
     4.9305   4.9645   4.9931   5.0371   5.8818   5.9157   5.9667   6.0189
     6.6320   6.6651   6.6844   6.7255   9.1521   9.3059   9.5601   9.7657
     9.9843  10.0096  10.0249  10.0593  10.2642  10.3887

          k = 0.1875 0.4691 0.0000 ( 21101 PWs)   bands (ev):

   -53.4484 -53.4212 -53.4073 -53.3722 -27.7642 -27.7362 -27.7226 -27.6886
   -27.5831 -27.5790 -27.5560 -27.5512 -27.5422 -27.5375 -27.5070 -27.5034
    -4.8818  -4.8493  -4.8219  -4.7779  -4.6940  -4.6576  -4.6295  -4.5890
     2.0391   2.0777   2.1382   2.1893   2.4132   2.4370   2.4531   2.4907
     3.5050   3.5592   3.6494   3.7082   3.9939   4.0871   4.2058   4.2721
     4.7508   4.7924   4.8599   4.9180   5.5818   5.6282   5.6772   5.7303
     6.8327   6.8650   6.8797   6.9191   9.3771   9.4787   9.6301   9.7286
    10.1474  10.1797  10.2259  10.2997  10.4872  10.5654

          k = 0.1875 0.5413 0.0000 ( 21112 PWs)   bands (ev):

   -53.4459 -53.4187 -53.4047 -53.3696 -27.7802 -27.7522 -27.7386 -27.7046
   -27.5930 -27.5781 -27.5651 -27.5514 -27.5510 -27.5372 -27.5173 -27.5020
    -4.7168  -4.6848  -4.6708  -4.6314  -4.6168  -4.5869  -4.5687  -4.5322
     2.0013   2.0310   2.0687   2.1200   2.1968   2.2227   2.2386   2.2789
     3.3599   3.4180   3.5168   3.5779   4.1331   4.1873   4.2574   4.3121
     4.7109   4.7621   4.8477   4.9070   5.3686   5.4191   5.4758   5.5287
     7.0160   7.0497   7.0752   7.1156   9.4519   9.4893   9.5254   9.5669
    10.3377  10.3870  10.4600  10.5403  10.6160  10.6642

          k = 0.2500 0.4330 0.0000 ( 21125 PWs)   bands (ev):

   -53.4484 -53.4212 -53.4073 -53.3722 -27.7497 -27.7217 -27.7081 -27.6741
   -27.5939 -27.5832 -27.5661 -27.5560 -27.5524 -27.5422 -27.5183 -27.5070
    -4.8870  -4.8545  -4.8257  -4.7815  -4.6916  -4.6547  -4.6255  -4.5848
     2.1492   2.1921   2.2650   2.3172   2.4099   2.4285   2.4444   2.4731
     3.6872   3.7202   3.7447   3.8056   3.9890   4.0882   4.2161   4.2845
     4.4273   4.4618   4.4778   4.5166   5.6582   5.6940   5.6946   5.7632
     6.8162   6.8494   6.8627   6.9023   9.3173   9.4290   9.6031   9.7211
    10.1593  10.1887  10.2208  10.3077  10.3577  10.4683

          k = 0.2500 0.5052 0.0000 ( 21117 PWs)   bands (ev):

   -53.4453 -53.4181 -53.4041 -53.3690 -27.7544 -27.7265 -27.7129 -27.6789
   -27.6265 -27.5986 -27.5850 -27.5770 -27.5509 -27.5499 -27.5361 -27.5008
    -4.6887  -4.6567  -4.6429  -4.6046  -4.5924  -4.5634  -4.5456  -4.5097
     2.1075   2.1308   2.1405   2.1764   2.2587   2.3000   2.3501   2.3971
     3.5323   3.5906   3.6664   3.7040   4.0827   4.1131   4.1575   4.1991
     4.2428   4.2996   4.3549   4.4011   5.3787   5.4141   5.4420   5.5023
     7.0568   7.0886   7.1011   7.1401   9.3196   9.3646   9.4187   9.4676
    10.3098  10.3454  10.3726  10.4026  10.5535  10.6076

          k = 0.2500 0.5774 0.0000 ( 21116 PWs)   bands (ev):

   -53.4442 -53.4170 -53.4030 -53.3679 -27.7543 -27.7263 -27.7127 -27.6787
   -27.6398 -27.6119 -27.5982 -27.5748 -27.5641 -27.5477 -27.5339 -27.4986
    -4.6146  -4.5841  -4.5754  -4.5589  -4.5409  -4.5299  -4.5161  -4.4828
     2.0064   2.0287   2.0396   2.0749   2.3461   2.3742   2.4029   2.4463
     3.3747   3.4325   3.5168   3.5672   4.0515   4.0919   4.1725   4.2311
     4.2969   4.3490   4.3980   4.4401   5.2563   5.2908   5.3040   5.3650
     7.1830   7.2150   7.2326   7.2723   9.2507   9.2782   9.2929   9.3268
    10.3370  10.3716  10.4020  10.4244  10.7113  10.7467

          k = 0.3125 0.5413 0.0000 ( 21100 PWs)   bands (ev):

   -53.4436 -53.4164 -53.4024 -53.3673 -27.7332 -27.7052 -27.6916 -27.6682
   -27.6577 -27.6403 -27.6267 -27.5926 -27.5736 -27.5465 -27.5327 -27.4975
    -4.5784  -4.5503  -4.5408  -4.5367  -4.5148  -4.5061  -4.4960  -4.4643
     1.9378   1.9599   1.9713   2.0057   2.5728   2.6064   2.6439   2.6906
     3.3772   3.3893   3.4053   3.4364   3.8481   3.8728   3.8829   3.9028
     4.3523   4.4047   4.4520   4.4985   5.1709   5.2082   5.2315   5.2948
     7.2657   7.2966   7.3078   7.3470   9.1344   9.1631   9.1781   9.2116
    10.2716  10.2936  10.3075  10.3412  10.8095  10.8630

     the Fermi energy is     8.3479 ev

!    total energy              =   -1978.37149946 Ry
     total all-electron energy =    -38771.692344 Ry
     estimated scf accuracy    <          7.2E-10 Ry
     smearing contrib. (-TS)   =       0.00003017 Ry
     internal energy E=F+TS    =   -1978.37152963 Ry

     The total energy is F=E-TS. E is the sum of the following terms:
     one-electron contribution =   -1464.47825025 Ry
     hartree contribution      =     774.50261632 Ry
     xc contribution           =    -119.23494645 Ry
     ewald contribution        =     100.69027040 Ry
     one-center paw contrib.   =   -1269.85121966 Ry

     convergence has been achieved in  18 iterations

     Forces acting on atoms (cartesian axes, Ry/au):

     atom    1 type  2   force =     0.00000000    0.00000000    0.00041002
     atom    2 type  1   force =     0.00000000    0.00000000    0.00036112
     atom    3 type  2   force =     0.00000000    0.00000000    0.00066534
     atom    4 type  2   force =     0.00000000    0.00000000   -0.00012063
     atom    5 type  1   force =     0.00000000    0.00000000    0.00018962
     atom    6 type  2   force =     0.00000000    0.00000000    0.00162936
     atom    7 type  2   force =     0.00000000    0.00000000   -0.00112961
     atom    8 type  1   force =     0.00000000    0.00000000   -0.00037203
     atom    9 type  2   force =     0.00000000    0.00000000    0.00028127
     atom   10 type  2   force =     0.00000000    0.00000000   -0.00054638
     atom   11 type  1   force =     0.00000000    0.00000000   -0.00055627
     atom   12 type  2   force =     0.00000000    0.00000000   -0.00081183

     Total force =     0.002491     Total SCF correction =     0.000087
     Energy error            =      8.2E-06 Ry
     Gradient error          =      1.6E-03 Ry/Bohr

     number of scf cycles    =  16
     number of bfgs steps    =  13

     energy             old  =   -1978.3715076669 Ry
     energy             new  =   -1978.3714994628 Ry

     CASE: energy            _new > energy            _old

     new trust radius        =       0.0050940051 bohr
     new conv_thr            =       0.0000000010 Ry


ATOMIC_POSITIONS (crystal)
S                0.3333329934        0.6666669869       -0.1119910019
Mo               0.0000000000        0.0000000000       -0.0595658422
S                0.3333329934        0.6666669869       -0.0071102448
S                0.6666669869        0.3333329934        0.0981897134
Mo               0.3333329934        0.6666669869        0.1506958149
S                0.6666669869        0.3333329934        0.2031782708
S                0.0000000000        0.0000000000        0.3151045199
Mo               0.6666669869        0.3333329934        0.3676278617
S                0.0000000000        0.0000000000        0.4201152375
S                0.3333329934        0.6666669869        0.5271170536
Mo               0.0000000000        0.0000000000        0.5796066020
S                0.3333329934        0.6666669869        0.6320319536



     Writing config-only to output data dir ./tmp/relax2/mos2_slab2.save/ :
     XML data file
     NEW-OLD atomic charge density approx. for the potential

     total cpu time spent up to now is    41458.6 secs

     Self-consistent Calculation

     iteration #  1     ecut=    80.00 Ry     beta= 0.20
     Davidson diagonalization with overlap
     ethr =  1.00E-06,  avg # of iterations =  6.0

     total cpu time spent up to now is    41709.0 secs

     total energy              =   -1978.37152899 Ry
     estimated scf accuracy    <       0.00012596 Ry

     iteration #  2     ecut=    80.00 Ry     beta= 0.20
     Davidson diagonalization with overlap
     ethr =  1.21E-07,  avg # of iterations =  2.6

     total cpu time spent up to now is    41819.8 secs

     total energy              =   -1978.37150139 Ry
     estimated scf accuracy    <       0.00010763 Ry

     iteration #  3     ecut=    80.00 Ry     beta= 0.20
     Davidson diagonalization with overlap
     ethr =  1.03E-07,  avg # of iterations =  1.7

     total cpu time spent up to now is    41925.3 secs

     total energy              =   -1978.37150713 Ry
     estimated scf accuracy    <       0.00001481 Ry

     iteration #  4     ecut=    80.00 Ry     beta= 0.20
     Davidson diagonalization with overlap
     ethr =  1.42E-08,  avg # of iterations =  3.2

     total cpu time spent up to now is    42042.4 secs

     total energy              =   -1978.37150793 Ry
     estimated scf accuracy    <       0.00000371 Ry

     iteration #  5     ecut=    80.00 Ry     beta= 0.20
     Davidson diagonalization with overlap
     ethr =  3.57E-09,  avg # of iterations =  2.4

     total cpu time spent up to now is    42152.8 secs

     total energy              =   -1978.37150794 Ry
     estimated scf accuracy    <       0.00000296 Ry

     iteration #  6     ecut=    80.00 Ry     beta= 0.20
     Davidson diagonalization with overlap
     ethr =  2.84E-09,  avg # of iterations =  2.1

     total cpu time spent up to now is    42269.7 secs

     total energy              =   -1978.37150789 Ry
     estimated scf accuracy    <       0.00000043 Ry

     iteration #  7     ecut=    80.00 Ry     beta= 0.20
     Davidson diagonalization with overlap
     ethr =  4.12E-10,  avg # of iterations =  4.1

     total cpu time spent up to now is    42390.2 secs

     total energy              =   -1978.37150792 Ry
     estimated scf accuracy    <       0.00000011 Ry

     iteration #  8     ecut=    80.00 Ry     beta= 0.20
     Davidson diagonalization with overlap
     ethr =  1.06E-10,  avg # of iterations =  3.3

     total cpu time spent up to now is    42511.7 secs

     total energy              =   -1978.37150793 Ry
     estimated scf accuracy    <       0.00000006 Ry

     iteration #  9     ecut=    80.00 Ry     beta= 0.20
     Davidson diagonalization with overlap
     ethr =  6.23E-11,  avg # of iterations =  2.1

     total cpu time spent up to now is    42626.0 secs

     total energy              =   -1978.37150796 Ry
     estimated scf accuracy    <       0.00000003 Ry

     iteration # 10     ecut=    80.00 Ry     beta= 0.20
     Davidson diagonalization with overlap
     ethr =  2.69E-11,  avg # of iterations =  2.1

     total cpu time spent up to now is    42738.5 secs

     total energy              =   -1978.37150797 Ry
     estimated scf accuracy    <       0.00000002 Ry

     iteration # 11     ecut=    80.00 Ry     beta= 0.20
     Davidson diagonalization with overlap
     ethr =  1.52E-11,  avg # of iterations =  1.3

     total cpu time spent up to now is    42840.9 secs

     total energy              =   -1978.37150798 Ry
     estimated scf accuracy    <       0.00000001 Ry

     iteration # 12     ecut=    80.00 Ry     beta= 0.20
     Davidson diagonalization with overlap
     ethr =  1.29E-11,  avg # of iterations =  2.3

     total cpu time spent up to now is    42968.3 secs

     total energy              =   -1978.37150798 Ry
     estimated scf accuracy    <       0.00000001 Ry

     iteration # 13     ecut=    80.00 Ry     beta= 0.20
     Davidson diagonalization with overlap
     ethr =  1.14E-11,  avg # of iterations =  2.1

     total cpu time spent up to now is    43082.9 secs

     total energy              =   -1978.37150798 Ry
     estimated scf accuracy    <          9.9E-09 Ry

     iteration # 14     ecut=    80.00 Ry     beta= 0.20
     Davidson diagonalization with overlap
     ethr =  9.56E-12,  avg # of iterations =  2.7

     total cpu time spent up to now is    43211.6 secs

     total energy              =   -1978.37150800 Ry
     estimated scf accuracy    <          5.9E-09 Ry

     iteration # 15     ecut=    80.00 Ry     beta= 0.20
     Davidson diagonalization with overlap
     ethr =  5.69E-12,  avg # of iterations =  2.1

     total cpu time spent up to now is    43323.2 secs

     total energy              =   -1978.37150799 Ry
     estimated scf accuracy    <          2.2E-09 Ry

     iteration # 16     ecut=    80.00 Ry     beta= 0.20
     Davidson diagonalization with overlap
     ethr =  2.10E-12,  avg # of iterations =  2.7

     total cpu time spent up to now is    43445.9 secs

     total energy              =   -1978.37150799 Ry
     estimated scf accuracy    <          1.5E-09 Ry

     iteration # 17     ecut=    80.00 Ry     beta= 0.20
     Davidson diagonalization with overlap
     ethr =  1.48E-12,  avg # of iterations =  2.1

     total cpu time spent up to now is    43570.4 secs

     total energy              =   -1978.37150800 Ry
     estimated scf accuracy    <          1.0E-09 Ry

     iteration # 18     ecut=    80.00 Ry     beta= 0.20
     Davidson diagonalization with overlap
     ethr =  9.64E-13,  avg # of iterations =  1.1

     total cpu time spent up to now is    43668.8 secs

     End of self-consistent calculation

          k = 0.0000 0.0000 0.0000 ( 21311 PWs)   bands (ev):

   -53.4896 -53.4636 -53.4473 -53.4137 -27.6635 -27.6373 -27.6213 -27.5877
   -27.4263 -27.4263 -27.3994 -27.3994 -27.3834 -27.3834 -27.3508 -27.3508
    -6.8177  -6.7750  -6.7084  -6.6520  -5.5835  -5.5121  -5.4012  -5.3303
     1.3955   1.5511   1.8429   2.0352   4.7881   4.7881   4.7932   4.8216
     4.8216   4.8352   4.8353   4.8606   4.8606   5.1541   5.7398   5.9033
     5.9034   5.9355   5.9355   5.9492   5.9493   5.9779   5.9780   6.2388
     6.9626   7.3066   7.6561   7.8110  10.1387  10.1387  10.1697  10.1697
    10.1879  10.1879  10.2292  10.2292  10.3459  10.3459

          k = 0.0000 0.0722 0.0000 ( 21283 PWs)   bands (ev):

   -53.4881 -53.4620 -53.4458 -53.4122 -27.6604 -27.6343 -27.6182 -27.5846
   -27.4418 -27.4298 -27.4150 -27.4030 -27.3989 -27.3869 -27.3663 -27.3543
    -6.7581  -6.7155  -6.6491  -6.5928  -5.5562  -5.4858  -5.3769  -5.3069
     1.4648   1.6193   1.9106   2.1035   4.6497   4.6611   4.6860   4.6999
     4.7262   4.8504   4.8839   4.8975   4.9231   4.9705   5.3849   5.5782
     5.8063   5.8386   5.8525   5.8817   5.9999   6.0496   6.1920   6.4835
     6.9668   7.2933   7.6034   7.7371  10.0617  10.0906  10.1054  10.1417
    10.1884  10.2234  10.2280  10.2484  10.2635  10.2792

          k = 0.0000 0.1443 0.0000 ( 21263 PWs)   bands (ev):

   -53.4836 -53.4576 -53.4413 -53.4077 -27.6518 -27.6257 -27.6096 -27.5760
   -27.4859 -27.4590 -27.4429 -27.4398 -27.4130 -27.4104 -27.3969 -27.3643
    -6.5843  -6.5421  -6.4766  -6.4206  -5.4767  -5.4089  -5.3062  -5.2389
     1.6578   1.8080   2.0964   2.2899   4.3007   4.3350   4.3417   4.3540
     4.3834   4.5977   4.9032   5.0298   5.0558   5.0632   5.0768   5.1033
     5.5552   5.5880   5.6021   5.6326   6.0573   6.1469   6.3540   6.6344
     6.9421   7.1997   7.4088   7.4963   9.7557   9.8213   9.8822   9.9287
     9.9820  10.0468  10.0589  10.0837  10.1056  10.1211

          k = 0.0000 0.2165 0.0000 ( 21233 PWs)   bands (ev):

   -53.4770 -53.4509 -53.4347 -53.4011 -27.6388 -27.6127 -27.5966 -27.5630
   -27.5512 -27.5243 -27.5083 -27.4758 -27.4548 -27.4280 -27.4119 -27.3793
    -6.3111  -6.2698  -6.2064  -6.1509  -5.3519  -5.2886  -5.1960  -5.1327
     1.9195   2.0583   2.3322   2.5187   3.8670   3.8990   3.9137   3.9348
     3.9959   4.1772   4.3984   4.5070   5.2297   5.2622   5.2758   5.3045
     5.3087   5.3380   5.3526   5.3797   5.9683   6.0855   6.3095   6.5453
     6.8046   6.9502   7.0514   7.1028   9.3655   9.4899   9.6548   9.8339
     9.8628   9.9029   9.9508   9.9577  10.0031  10.0905

          k = 0.0000 0.2887 0.0000 ( 21197 PWs)   bands (ev):

   -53.4691 -53.4431 -53.4268 -53.3932 -27.6275 -27.6235 -27.6005 -27.5974
   -27.5845 -27.5813 -27.5521 -27.5476 -27.4724 -27.4456 -27.4295 -27.3969
    -5.9643  -5.9244  -5.8653  -5.8111  -5.1946  -5.1371  -5.0582  -5.0002
     2.1192   2.2291   2.4460   2.5879   3.4833   3.5135   3.5512   3.5994
     3.6753   3.7822   3.9028   3.9655   4.9014   4.9348   4.9498   4.9828
     5.6290   5.6629   5.6783   5.7101   5.7540   5.8856   6.1062   6.2917
     6.5396   6.6088   6.6541   6.6947   9.2283   9.3838   9.6062   9.6737
     9.7135   9.7597   9.8109   9.8267  10.1713  10.3250

          k = 0.0000 0.3608 0.0000 ( 21187 PWs)   bands (ev):

   -53.4613 -53.4352 -53.4190 -53.3853 -27.7029 -27.6759 -27.6599 -27.6275
   -27.6081 -27.5820 -27.5659 -27.5322 -27.4900 -27.4631 -27.4471 -27.4145
    -5.5824  -5.5447  -5.4930  -5.4411  -5.0238  -4.9731  -4.9109  -4.8589
     2.0744   2.1416   2.2616   2.3401   3.1205   3.1761   3.2769   3.3881
     3.4413   3.5301   3.5996   3.6596   4.6132   4.6468   4.6624   4.6959
     5.5232   5.6529   5.8587   5.9499   5.9845   6.0052   6.0100   6.0419
     6.3239   6.3811   6.4239   6.4643   9.3493   9.4943   9.5683   9.6054
     9.6426   9.6906   9.7120   9.9116  10.4971  10.6501

          k = 0.0000 0.4330 0.0000 ( 21140 PWs)   bands (ev):

   -53.4546 -53.4286 -53.4123 -53.3787 -27.7661 -27.7390 -27.7231 -27.6908
   -27.5950 -27.5690 -27.5529 -27.5191 -27.5048 -27.4779 -27.4619 -27.4293
    -5.2205  -5.1853  -5.1452  -5.0969  -4.8654  -4.8219  -4.7778  -4.7319
     1.8335   1.8763   1.9381   1.9909   2.7773   2.8297   2.9150   2.9845
     3.3465   3.4102   3.5096   3.5820   4.3926   4.4263   4.4423   4.4763
     5.3536   5.4723   5.6611   5.7903   6.2064   6.2424   6.2730   6.3145
     6.3414   6.4066   6.4711   6.5192   9.5604   9.5938   9.6181   9.6182
     9.6612   9.7285   9.8988  10.0454  10.8047  10.9392

          k = 0.0000 0.5052 0.0000 ( 21078 PWs)   bands (ev):

   -53.4501 -53.4241 -53.4078 -53.3742 -27.8081 -27.7809 -27.7650 -27.7327
   -27.5862 -27.5602 -27.5441 -27.5147 -27.5104 -27.4878 -27.4717 -27.4392
    -4.9507  -4.9175  -4.8915  -4.8475  -4.7500  -4.7133  -4.6848  -4.6441
     1.6023   1.6365   1.6754   1.7218   2.5382   2.5792   2.6410   2.7014
     3.2489   3.3074   3.4012   3.4701   4.2550   4.2888   4.3050   4.3392
     5.2625   5.3716   5.5447   5.6561   6.3622   6.4003   6.4405   6.4857
     6.5309   6.5924   6.6580   6.7091   9.6079   9.6379   9.6547   9.6921
     9.9178   9.9860  10.0887  10.1759  11.0003  11.1079

          k = 0.0000-0.5774 0.0000 ( 21006 PWs)   bands (ev):

   -53.4485 -53.4225 -53.4063 -53.3726 -27.8227 -27.7956 -27.7796 -27.7474
   -27.5832 -27.5571 -27.5410 -27.5182 -27.5073 -27.4913 -27.4752 -27.4427
    -4.8484  -4.8159  -4.7975  -4.7559  -4.7073  -4.6741  -4.6516  -4.6133
     1.5100   1.5424   1.5759   1.6215   2.4528   2.4887   2.5419   2.6016
     3.2019   3.2595   3.3507   3.4179   4.2083   4.2421   4.2584   4.2927
     5.2355   5.3406   5.5066   5.6108   6.4129   6.4519   6.4960   6.5427
     6.6487   6.6989   6.7502   6.7965   9.6361   9.6650   9.6807   9.7154
    10.0782  10.1243  10.1677  10.2177  11.0638  11.1531

          k = 0.0625 0.1083 0.0000 ( 21269 PWs)   bands (ev):

   -53.4851 -53.4590 -53.4428 -53.4092 -27.6546 -27.6285 -27.6124 -27.5788
   -27.4712 -27.4443 -27.4370 -27.4282 -27.4102 -27.3957 -27.3941 -27.3615
    -6.6414  -6.5991  -6.5333  -6.4771  -5.5028  -5.4341  -5.3294  -5.2612
     1.5964   1.7483   2.0381   2.2317   4.4107   4.4451   4.4457   4.4606
     4.4888   4.7138   4.9693   5.0026   5.0159   5.0421   5.0525   5.2218
     5.5915   5.6237   5.6371   5.6666   6.0950   6.1707   6.3582   6.6393
     6.9580   7.2422   7.4802   7.5796   9.8844   9.9269   9.9335   9.9561
    10.0112  10.0186  10.0604  10.1048  10.1506  10.1901

          k = 0.0625 0.1804 0.0000 ( 21194 PWs)   bands (ev):

   -53.4795 -53.4535 -53.4372 -53.4036 -27.6438 -27.6177 -27.6016 -27.5679
   -27.5247 -27.4977 -27.4817 -27.4508 -27.4492 -27.4239 -27.4078 -27.3753
    -6.4177  -6.3760  -6.3117  -6.2560  -5.4005  -5.3354  -5.2387  -5.1739
     1.8280   1.9725   2.2551   2.4469   4.0283   4.0594   4.0732   4.0961
     4.1494   4.3619   4.6274   4.7589   5.1857   5.2136   5.2292   5.2330
     5.2543   5.2600   5.2765   5.3008   6.1441   6.2387   6.4347   6.6760
     6.8798   7.0719   7.2011   7.2594   9.4795   9.5802   9.6993   9.8187
     9.8572   9.9180   9.9549   9.9867  10.0112  10.0539

          k = 0.0625 0.2526 0.0000 ( 21202 PWs)   bands (ev):

   -53.4723 -53.4462 -53.4300 -53.3964 -27.6296 -27.6035 -27.5938 -27.5875
   -27.5669 -27.5538 -27.5508 -27.5184 -27.4687 -27.4418 -27.4258 -27.3932
    -6.1071  -6.0666  -6.0054  -5.9506  -5.2588  -5.1988  -5.1141  -5.0539
     2.0730   2.1986   2.4496   2.6189   3.6416   3.6724   3.6920   3.7216
     3.8133   3.9757   4.1520   4.2346   4.8463   4.8793   4.9015   4.9345
     5.4544   5.4877   5.5019   5.5322   6.0412   6.1445   6.3305   6.5157
     6.6758   6.7670   6.8158   6.8553   9.2093   9.3512   9.5339   9.6602
     9.7776   9.8215   9.8523   9.8857   9.9736  10.1234

          k = 0.0625 0.3248 0.0000 ( 21194 PWs)   bands (ev):

   -53.4644 -53.4384 -53.4221 -53.3885 -27.6679 -27.6408 -27.6248 -27.6143
   -27.5925 -27.5882 -27.5721 -27.5384 -27.4881 -27.4612 -27.4451 -27.4126
    -5.7412  -5.7025  -5.6471  -5.5941  -5.0934  -5.0397  -4.9701  -4.9156
     2.1581   2.2447   2.4090   2.5129   3.3214   3.3577   3.4241   3.5106
     3.5763   3.6690   3.6868   3.7378   4.5399   4.5793   4.6149   4.6542
     5.6903   5.7203   5.7383   5.7718   5.8299   5.9287   6.0983   6.2396
     6.4553   6.5007   6.5291   6.5654   9.1746   9.3170   9.4867   9.5732
     9.7121   9.7537   9.7937   9.9154  10.2291  10.3809

          k = 0.0625 0.3969 0.0000 ( 21151 PWs)   bands (ev):

   -53.4571 -53.4311 -53.4149 -53.3812 -27.7355 -27.7084 -27.6925 -27.6601
   -27.6000 -27.5740 -27.5579 -27.5241 -27.5059 -27.4790 -27.4629 -27.4304
    -5.3661  -5.3298  -5.2840  -5.2340  -4.9264  -4.8797  -4.8277  -4.7792
     1.9943   2.0465   2.1317   2.1936   2.9429   2.9966   3.0834   3.1562
     3.4137   3.4786   3.5762   3.6512   4.3420   4.3826   4.4188   4.4582
     5.5747   5.6705   5.8082   5.8359   5.8762   5.8904   5.9181   5.9874
     6.4670   6.5029   6.5288   6.5631   9.3150   9.4238   9.5387   9.6010
     9.7531   9.7950   9.8640   9.9944  10.5675  10.7035

          k = 0.0625 0.4691 0.0000 ( 21105 PWs)   bands (ev):

   -53.4516 -53.4255 -53.4093 -53.3756 -27.7868 -27.7597 -27.7438 -27.7115
   -27.5891 -27.5631 -27.5470 -27.5195 -27.5132 -27.4926 -27.4765 -27.4440
    -5.0452  -5.0112  -4.9790  -4.9330  -4.7865  -4.7469  -4.7122  -4.6694
     1.7515   1.7889   1.8370   1.8856   2.6233   2.6661   2.7267   2.7840
     3.3211   3.3794   3.4765   3.5489   4.2367   4.2714   4.2972   4.3342
     5.3863   5.4820   5.6322   5.7331   5.9609   5.9941   6.0284   6.0764
     6.6402   6.6769   6.7090   6.7471   9.5151   9.5754   9.6306   9.6752
     9.8908   9.9375  10.0216  10.1187  10.8825  10.9936

          k = 0.0625 0.5413 0.0000 ( 21084 PWs)   bands (ev):

   -53.4486 -53.4225 -53.4063 -53.3726 -27.8144 -27.7873 -27.7713 -27.7391
   -27.5832 -27.5571 -27.5410 -27.5268 -27.5073 -27.4999 -27.4839 -27.4514
    -4.8540  -4.8213  -4.8015  -4.7595  -4.7048  -4.6710  -4.6476  -4.6090
     1.5902   1.6228   1.6574   1.7034   2.4439   2.4790   2.5260   2.5818
     3.2341   3.2917   3.3845   3.4529   4.1946   4.2253   4.2394   4.2742
     5.2835   5.3799   5.5288   5.6233   6.0544   6.0900   6.1263   6.1743
     6.7945   6.8340   6.8719   6.9133   9.6340   9.6604   9.6798   9.7132
    10.0710  10.1182  10.1738  10.2312  11.1110  11.1898

          k = 0.1250 0.2165 0.0000 ( 21179 PWs)   bands (ev):

   -53.4734 -53.4473 -53.4311 -53.3975 -27.6318 -27.6057 -27.5896 -27.5798
   -27.5559 -27.5529 -27.5368 -27.5044 -27.4696 -27.4427 -27.4266 -27.3941
    -6.1562  -6.1154  -6.0537  -5.9986  -5.2808  -5.2199  -5.1332  -5.0722
     2.0540   2.1851   2.4474   2.6259   3.7099   3.7363   3.7530   3.7818
     3.9154   4.1093   4.3259   4.4219   4.7079   4.7405   4.7611   4.7920
     5.3749   5.4077   5.4212   5.4510   6.2261   6.3146   6.4754   6.6506
     6.7391   6.8459   6.8857   6.9245   9.1989   9.3317   9.4958   9.6168
     9.7799   9.7935   9.8312   9.8516   9.9070  10.0550

          k = 0.1250 0.2887 0.0000 ( 21199 PWs)   bands (ev):

   -53.4661 -53.4401 -53.4238 -53.3902 -27.6431 -27.6176 -27.6161 -27.6001
   -27.5915 -27.5754 -27.5677 -27.5417 -27.4929 -27.4660 -27.4499 -27.4174
    -5.8248  -5.7856  -5.7286  -5.6750  -5.1295  -5.0742  -5.0007  -4.9448
     2.2093   2.3106   2.5089   2.6353   3.4719   3.5035   3.5184   3.6070
     3.6825   3.8035   3.8806   3.9244   4.2709   4.3236   4.4029   4.4683
     5.4797   5.5116   5.5273   5.5621   6.1531   6.2335   6.3641   6.4835
     6.5605   6.5895   6.6095   6.6392   9.0399   9.1870   9.3726   9.4900
     9.7713   9.7907   9.8227   9.8932   9.9846  10.1527

          k = 0.1250 0.3608 0.0000 ( 21195 PWs)   bands (ev):

   -53.4589 -53.4328 -53.4166 -53.3829 -27.7054 -27.6783 -27.6623 -27.6300
   -27.6034 -27.5773 -27.5612 -27.5275 -27.5165 -27.4896 -27.4736 -27.4411
    -5.4616  -5.4245  -5.3754  -5.3243  -4.9646  -4.9158  -4.8584  -4.8082
     2.1540   2.2185   2.3324   2.4071   3.1425   3.1875   3.2517   3.3131
     3.5014   3.5592   3.6414   3.7223   4.0741   4.1625   4.2694   4.3345
     5.4231   5.4553   5.4743   5.5135   5.9367   6.0046   6.1091   6.1955
     6.5239   6.5523   6.5672   6.6025   9.0801   9.2268   9.4277   9.5579
     9.8441   9.8698   9.9024   9.9869  10.2236  10.3679

          k = 0.1250 0.4330 0.0000 ( 21113 PWs)   bands (ev):

   -53.4527 -53.4267 -53.4104 -53.3768 -27.7575 -27.7304 -27.7144 -27.6821
   -27.5913 -27.5652 -27.5491 -27.5367 -27.5154 -27.5098 -27.4938 -27.4612
    -5.1198  -5.0851  -5.0480  -5.0005  -4.8111  -4.7691  -4.7291  -4.6846
     1.9669   2.0109   2.0763   2.1305   2.7232   2.7602   2.7998   2.8463
     3.4485   3.5010   3.5967   3.6765   4.0487   4.1290   4.2219   4.2810
     5.3711   5.4079   5.4476   5.4956   5.6658   5.7266   5.8211   5.8970
     6.6621   6.6921   6.7092   6.7447   9.2934   9.4207   9.6055   9.7277
     9.9550   9.9829  10.0135  10.0618  10.5401  10.6501

          k = 0.1250 0.5052 0.0000 ( 21081 PWs)   bands (ev):

   -53.4486 -53.4225 -53.4063 -53.3726 -27.7921 -27.7649 -27.7490 -27.7167
   -27.5832 -27.5572 -27.5502 -27.5411 -27.5233 -27.5073 -27.5073 -27.4747
    -4.8671  -4.8342  -4.8112  -4.7681  -4.6990  -4.6637  -4.6381  -4.5987
     1.8010   1.8353   1.8763   1.9240   2.4269   2.4581   2.4885   2.5354
     3.3325   3.3899   3.4846   3.5543   4.1027   4.1579   4.2182   4.2659
     5.3709   5.4287   5.4646   5.4910   5.5142   5.5528   5.6027   5.6817
     6.8474   6.8822   6.9102   6.9490   9.5196   9.5895   9.6711   9.7286
    10.1041  10.1445  10.1973  10.2627  10.8309  10.8938

          k = 0.1250 0.5774 0.0000 ( 21108 PWs)   bands (ev):

   -53.4471 -53.4211 -53.4048 -53.3712 -27.8042 -27.7770 -27.7611 -27.7288
   -27.5804 -27.5550 -27.5543 -27.5382 -27.5280 -27.5120 -27.5045 -27.4795
    -4.7719  -4.7396  -4.7237  -4.6835  -4.6572  -4.6258  -4.6053  -4.5684
     1.7371   1.7683   1.8008   1.8477   2.3215   2.3509   2.3791   2.4270
     3.2724   3.3306   3.4247   3.4924   4.1521   4.1854   4.2174   4.2590
     5.3102   5.3912   5.4466   5.4847   5.5026   5.5459   5.5543   5.6237
     6.9394   6.9777   7.0130   7.0547   9.6011   9.6260   9.6470   9.6825
    10.2154  10.2679  10.3147  10.3607  10.9618  11.0058

          k = 0.1875 0.3248 0.0000 ( 21195 PWs)   bands (ev):

   -53.4595 -53.4334 -53.4172 -53.3835 -27.6918 -27.6648 -27.6488 -27.6164
   -27.6046 -27.5785 -27.5624 -27.5287 -27.5233 -27.4964 -27.4804 -27.4478
    -5.4948  -5.4574  -5.4072  -5.3558  -4.9776  -4.9280  -4.8687  -4.8179
     2.2221   2.2931   2.4218   2.5035   3.2724   3.3059   3.3464   3.3888
     3.5435   3.5955   3.6615   3.7316   3.9215   4.0389   4.1816   4.2575
     5.2491   5.2807   5.2999   5.3396   6.1007   6.1561   6.2366   6.3069
     6.5303   6.5608   6.5759   6.6150   8.9909   9.1497   9.3739   9.5325
     9.8689   9.8823   9.9154   9.9677  10.0781  10.2343

          k = 0.1875 0.3969 0.0000 ( 21153 PWs)   bands (ev):

   -53.4533 -53.4273 -53.4110 -53.3774 -27.7337 -27.7066 -27.6907 -27.6583
   -27.5925 -27.5664 -27.5541 -27.5503 -27.5272 -27.5166 -27.5112 -27.4787
    -5.1607  -5.1256  -5.0859  -5.0376  -4.8234  -4.7800  -4.7369  -4.6914
     2.1304   2.1819   2.2659   2.3266   2.8118   2.8350   2.8542   2.8888
     3.5909   3.6261   3.6933   3.7795   3.9200   4.0338   4.1627   4.2319
     4.9318   4.9662   4.9940   5.0378   5.8813   5.9163   5.9655   6.0184
     6.6327   6.6658   6.6858   6.7258   9.1507   9.3078   9.5559   9.7642
     9.9845  10.0090  10.0263  10.0595  10.2631  10.3889

          k = 0.1875 0.4691 0.0000 ( 21101 PWs)   bands (ev):

   -53.4486 -53.4225 -53.4063 -53.3726 -27.7642 -27.7371 -27.7211 -27.6888
   -27.5832 -27.5791 -27.5572 -27.5521 -27.5411 -27.5361 -27.5073 -27.5036
    -4.8798  -4.8466  -4.8207  -4.7767  -4.6932  -4.6565  -4.6286  -4.5885
     2.0415   2.0816   2.1386   2.1908   2.4143   2.4384   2.4559   2.4922
     3.5070   3.5632   3.6490   3.7091   3.9947   4.0897   4.2040   4.2721
     4.7524   4.7953   4.8592   4.9184   5.5815   5.6288   5.6756   5.7292
     6.8332   6.8652   6.8816   6.9192   9.3764   9.4803   9.6279   9.7283
    10.1474  10.1805  10.2252  10.2994  10.4864  10.5652

          k = 0.1875 0.5413 0.0000 ( 21112 PWs)   bands (ev):

   -53.4460 -53.4200 -53.4037 -53.3701 -27.7802 -27.7531 -27.7371 -27.7048
   -27.5930 -27.5782 -27.5660 -27.5522 -27.5500 -27.5361 -27.5175 -27.5023
    -4.7151  -4.6830  -4.6686  -4.6301  -4.6161  -4.5863  -4.5670  -4.5314
     2.0035   2.0342   2.0694   2.1213   2.1977   2.2240   2.2413   2.2801
     3.3619   3.4221   3.5161   3.5788   4.1340   4.1897   4.2571   4.3126
     4.7126   4.7656   4.8465   4.9072   5.3679   5.4195   5.4740   5.5274
     7.0165   7.0506   7.0760   7.1159   9.4521   9.4901   9.5256   9.5673
    10.3372  10.3880  10.4588  10.5398  10.6163  10.6634

          k = 0.2500 0.4330 0.0000 ( 21125 PWs)   bands (ev):

   -53.4486 -53.4225 -53.4063 -53.3726 -27.7497 -27.7226 -27.7066 -27.6743
   -27.5940 -27.5832 -27.5670 -27.5572 -27.5510 -27.5411 -27.5185 -27.5073
    -4.8850  -4.8517  -4.8246  -4.7802  -4.6908  -4.6535  -4.6247  -4.5842
     2.1518   2.1963   2.2651   2.3187   2.4106   2.4300   2.4477   2.4747
     3.6906   3.7225   3.7460   3.8072   3.9895   4.0902   4.2133   4.2836
     4.4282   4.4623   4.4798   4.5172   5.6592   5.6908   5.6960   5.7621
     6.8166   6.8495   6.8647   6.9024   9.3165   9.4310   9.6006   9.7208
    10.1596  10.1893  10.2202  10.3074  10.3570  10.4680

          k = 0.2500 0.5052 0.0000 ( 21117 PWs)   bands (ev):

   -53.4454 -53.4194 -53.4031 -53.3695 -27.7544 -27.7273 -27.7114 -27.6791
   -27.6266 -27.5996 -27.5836 -27.5771 -27.5511 -27.5510 -27.5349 -27.5012
    -4.6870  -4.6548  -4.6406  -4.6034  -4.5917  -4.5629  -4.5439  -4.5090
     2.1090   2.1320   2.1445   2.1784   2.2601   2.3026   2.3506   2.3983
     3.5344   3.5945   3.6665   3.7050   4.0844   4.1157   4.1597   4.2014
     4.2415   4.2986   4.3541   4.4005   5.3792   5.4138   5.4406   5.5009
     7.0571   7.0884   7.1032   7.1401   9.3199   9.3658   9.4185   9.4682
    10.3091  10.3438  10.3729  10.4028  10.5526  10.6065

          k = 0.2500 0.5774 0.0000 ( 21116 PWs)   bands (ev):

   -53.4443 -53.4183 -53.4020 -53.3684 -27.7543 -27.7272 -27.7112 -27.6789
   -27.6398 -27.6128 -27.5968 -27.5749 -27.5644 -27.5489 -27.5328 -27.4990
    -4.6133  -4.5832  -4.5721  -4.5584  -4.5395  -4.5294  -4.5141  -4.4821
     2.0077   2.0299   2.0434   2.0768   2.3474   2.3761   2.4042   2.4477
     3.3767   3.4363   3.5164   3.5681   4.0538   4.0960   4.1726   4.2329
     4.2959   4.3488   4.3979   4.4400   5.2565   5.2894   5.3032   5.3635
     7.1834   7.2152   7.2339   7.2724   9.2510   9.2784   9.2951   9.3273
    10.3352  10.3704  10.4021  10.4243  10.7103  10.7457

          k = 0.3125 0.5413 0.0000 ( 21100 PWs)   bands (ev):

   -53.4437 -53.4177 -53.4014 -53.3678 -27.7332 -27.7061 -27.6901 -27.6682
   -27.6579 -27.6413 -27.6252 -27.5928 -27.5737 -27.5477 -27.5316 -27.4978
    -4.5772  -4.5494  -4.5385  -4.5349  -4.5142  -4.5045  -4.4941  -4.4637
     1.9388   1.9612   1.9753   2.0075   2.5745   2.6090   2.6447   2.6916
     3.3791   3.3902   3.4075   3.4388   3.8501   3.8729   3.8847   3.9041
     4.3525   4.4055   4.4515   4.4983   5.1714   5.2078   5.2298   5.2930
     7.2659   7.2960   7.3100   7.3470   9.1348   9.1636   9.1804   9.2123
    10.2696  10.2910  10.3079  10.3416  10.8082  10.8620

     the Fermi energy is     8.3450 ev

!    total energy              =   -1978.37150800 Ry
     total all-electron energy =    -38771.692353 Ry
     estimated scf accuracy    <          9.1E-10 Ry
     smearing contrib. (-TS)   =       0.00002934 Ry
     internal energy E=F+TS    =   -1978.37153733 Ry

     The total energy is F=E-TS. E is the sum of the following terms:
     one-electron contribution =   -1460.57893662 Ry
     hartree contribution      =     772.55372712 Ry
     xc contribution           =    -119.23158928 Ry
     ewald contribution        =      98.73619216 Ry
     one-center paw contrib.   =   -1269.85093071 Ry

     convergence has been achieved in  18 iterations

     Forces acting on atoms (cartesian axes, Ry/au):

     atom    1 type  2   force =     0.00000000    0.00000000    0.00056700
     atom    2 type  1   force =     0.00000000   -0.00000000    0.00051600
     atom    3 type  2   force =     0.00000000   -0.00000000    0.00051252
     atom    4 type  2   force =     0.00000000    0.00000000    0.00019168
     atom    5 type  1   force =     0.00000000    0.00000000    0.00024027
     atom    6 type  2   force =     0.00000000    0.00000000    0.00102284
     atom    7 type  2   force =     0.00000000    0.00000000   -0.00066264
     atom    8 type  1   force =     0.00000000    0.00000000   -0.00034416
     atom    9 type  2   force =     0.00000000    0.00000000    0.00003704
     atom   10 type  2   force =     0.00000000    0.00000000   -0.00053394
     atom   11 type  1   force =     0.00000000    0.00000000   -0.00066925
     atom   12 type  2   force =     0.00000000    0.00000000   -0.00087735

     Total force =     0.002013     Total SCF correction =     0.000130
     Energy error            =      3.3E-07 Ry
     Gradient error          =      1.0E-03 Ry/Bohr

     number of scf cycles    =  17
     number of bfgs steps    =  13

     energy             old  =   -1978.3715076669 Ry
     energy             new  =   -1978.3715079997 Ry

     CASE: energy            _new < energy            _old

     new trust radius        =       0.0017927073 bohr
     new conv_thr            =       0.0000000010 Ry


ATOMIC_POSITIONS (crystal)
S                0.3333329931        0.6666669862       -0.1119660797
Mo               0.0000000000        0.0000000000       -0.0595431609
S                0.3333329931        0.6666669862       -0.0070918420
S                0.6666669862        0.3333329931        0.0982042238
Mo               0.3333329931        0.6666669862        0.1507072084
S                0.6666669862        0.3333329931        0.2031989457
S                0.0000000000        0.0000000000        0.3150918724
Mo               0.6666669862        0.3333329931        0.3676168710
S                0.0000000000        0.0000000000        0.4201101089
S                0.3333329931        0.6666669862        0.5270930389
Mo               0.0000000000        0.0000000000        0.5795784173
S                0.3333329931        0.6666669862        0.6320003316



     Writing config-only to output data dir ./tmp/relax2/mos2_slab2.save/ :
     XML data file
     NEW-OLD atomic charge density approx. for the potential

     total cpu time spent up to now is    43723.7 secs

     Self-consistent Calculation

     iteration #  1     ecut=    80.00 Ry     beta= 0.20
     Davidson diagonalization with overlap
     ethr =  1.00E-06,  avg # of iterations =  2.0

     Threshold (ethr) on eigenvalues was too large:
     Diagonalizing with lowered threshold

     Davidson diagonalization with overlap
     ethr =  4.92E-09,  avg # of iterations =  4.9

     total cpu time spent up to now is    44006.0 secs

     total energy              =   -1978.37151543 Ry
     estimated scf accuracy    <       0.00000048 Ry

     iteration #  2     ecut=    80.00 Ry     beta= 0.20
     Davidson diagonalization with overlap
     ethr =  4.57E-10,  avg # of iterations =  3.9

     total cpu time spent up to now is    44128.8 secs

     total energy              =   -1978.37151549 Ry
     estimated scf accuracy    <       0.00000051 Ry

     iteration #  3     ecut=    80.00 Ry     beta= 0.20
     Davidson diagonalization with overlap
     ethr =  4.57E-10,  avg # of iterations =  1.0

     total cpu time spent up to now is    44227.8 secs

     total energy              =   -1978.37151537 Ry
     estimated scf accuracy    <       0.00000049 Ry

     iteration #  4     ecut=    80.00 Ry     beta= 0.20
     Davidson diagonalization with overlap
     ethr =  4.57E-10,  avg # of iterations =  1.7

     total cpu time spent up to now is    44333.8 secs

     total energy              =   -1978.37151538 Ry
     estimated scf accuracy    <       0.00000006 Ry

     iteration #  5     ecut=    80.00 Ry     beta= 0.20
     Davidson diagonalization with overlap
     ethr =  5.53E-11,  avg # of iterations =  4.6

     total cpu time spent up to now is    44461.9 secs

     total energy              =   -1978.37151539 Ry
     estimated scf accuracy    <       0.00000002 Ry

     iteration #  6     ecut=    80.00 Ry     beta= 0.20
     Davidson diagonalization with overlap
     ethr =  1.58E-11,  avg # of iterations =  1.6

     total cpu time spent up to now is    44566.8 secs

     total energy              =   -1978.37151539 Ry
     estimated scf accuracy    <          8.4E-09 Ry

     iteration #  7     ecut=    80.00 Ry     beta= 0.20
     Davidson diagonalization with overlap
     ethr =  8.06E-12,  avg # of iterations =  3.3

     total cpu time spent up to now is    44700.0 secs

     total energy              =   -1978.37151539 Ry
     estimated scf accuracy    <          9.7E-09 Ry

     iteration #  8     ecut=    80.00 Ry     beta= 0.20
     Davidson diagonalization with overlap
     ethr =  8.06E-12,  avg # of iterations =  1.0

     total cpu time spent up to now is    44798.4 secs

     total energy              =   -1978.37151539 Ry
     estimated scf accuracy    <          6.5E-09 Ry

     iteration #  9     ecut=    80.00 Ry     beta= 0.20
     Davidson diagonalization with overlap
     ethr =  6.26E-12,  avg # of iterations =  2.1

     total cpu time spent up to now is    44909.6 secs

     total energy              =   -1978.37151539 Ry
     estimated scf accuracy    <          2.9E-09 Ry

     iteration # 10     ecut=    80.00 Ry     beta= 0.20
     Davidson diagonalization with overlap
     ethr =  2.77E-12,  avg # of iterations =  1.0

     total cpu time spent up to now is    45008.2 secs

     total energy              =   -1978.37151540 Ry
     estimated scf accuracy    <          2.9E-09 Ry

     iteration # 11     ecut=    80.00 Ry     beta= 0.20
     Davidson diagonalization with overlap
     ethr =  2.77E-12,  avg # of iterations =  1.1

     total cpu time spent up to now is    45107.8 secs

     total energy              =   -1978.37151540 Ry
     estimated scf accuracy    <          3.3E-09 Ry

     iteration # 12     ecut=    80.00 Ry     beta= 0.20
     Davidson diagonalization with overlap
     ethr =  2.77E-12,  avg # of iterations =  1.0

     total cpu time spent up to now is    45206.7 secs

     total energy              =   -1978.37151540 Ry
     estimated scf accuracy    <          3.7E-09 Ry

     iteration # 13     ecut=    80.00 Ry     beta= 0.20
     Davidson diagonalization with overlap
     ethr =  2.77E-12,  avg # of iterations =  3.6

     total cpu time spent up to now is    45334.5 secs

     total energy              =   -1978.37151540 Ry
     estimated scf accuracy    <       0.00000002 Ry

     iteration # 14     ecut=    80.00 Ry     beta= 0.20
     Davidson diagonalization with overlap
     ethr =  2.77E-12,  avg # of iterations =  1.2

     total cpu time spent up to now is    45434.9 secs

     total energy              =   -1978.37151540 Ry
     estimated scf accuracy    <       0.00000002 Ry

     iteration # 15     ecut=    80.00 Ry     beta= 0.20
     Davidson diagonalization with overlap
     ethr =  2.77E-12,  avg # of iterations =  1.0

     total cpu time spent up to now is    45533.7 secs

     total energy              =   -1978.37151540 Ry
     estimated scf accuracy    <       0.00000002 Ry

     iteration # 16     ecut=    80.00 Ry     beta= 0.20
     Davidson diagonalization with overlap
     ethr =  2.77E-12,  avg # of iterations =  2.0

     total cpu time spent up to now is    45647.7 secs

     total energy              =   -1978.37151540 Ry
     estimated scf accuracy    <       0.00000001 Ry

     iteration # 17     ecut=    80.00 Ry     beta= 0.20
     Davidson diagonalization with overlap
     ethr =  2.77E-12,  avg # of iterations =  3.8

     total cpu time spent up to now is    45777.5 secs

     total energy              =   -1978.37151539 Ry
     estimated scf accuracy    <          1.4E-09 Ry

     iteration # 18     ecut=    80.00 Ry     beta= 0.20
     Davidson diagonalization with overlap
     ethr =  1.38E-12,  avg # of iterations =  4.7

     total cpu time spent up to now is    45924.3 secs

     total energy              =   -1978.37151539 Ry
     estimated scf accuracy    <          4.3E-09 Ry

     iteration # 19     ecut=    80.00 Ry     beta= 0.20
     Davidson diagonalization with overlap
     ethr =  1.38E-12,  avg # of iterations =  4.1

     total cpu time spent up to now is    46058.5 secs

     End of self-consistent calculation

          k = 0.0000 0.0000 0.0000 ( 21311 PWs)   bands (ev):

   -53.4894 -53.4634 -53.4473 -53.4138 -27.6633 -27.6372 -27.6212 -27.5878
   -27.4261 -27.4261 -27.3992 -27.3992 -27.3833 -27.3833 -27.3510 -27.3509
    -6.8177  -6.7751  -6.7083  -6.6521  -5.5836  -5.5121  -5.4011  -5.3303
     1.3954   1.5509   1.8428   2.0355   4.7876   4.7876   4.7928   4.8224
     4.8224   4.8358   4.8358   4.8599   4.8599   5.1543   5.7398   5.9030
     5.9030   5.9361   5.9361   5.9497   5.9497   5.9774   5.9774   6.2392
     6.9626   7.3069   7.6565   7.8113  10.1388  10.1388  10.1698  10.1698
    10.1880  10.1880  10.2290  10.2290  10.3460  10.3461

          k = 0.0000 0.0722 0.0000 ( 21283 PWs)   bands (ev):

   -53.4879 -53.4619 -53.4457 -53.4123 -27.6603 -27.6342 -27.6182 -27.5848
   -27.4417 -27.4297 -27.4148 -27.4028 -27.3988 -27.3868 -27.3665 -27.3545
    -6.7581  -6.7156  -6.6491  -6.5929  -5.5563  -5.4858  -5.3768  -5.3069
     1.4647   1.6191   1.9105   2.1038   4.6492   4.6608   4.6868   4.7005
     4.7255   4.8499   4.8846   4.8981   4.9224   4.9706   5.3849   5.5784
     5.8059   5.8392   5.8529   5.8812   6.0001   6.0496   6.1919   6.4837
     6.9668   7.2936   7.6038   7.7373  10.0619  10.0907  10.1054  10.1416
    10.1888  10.2234  10.2280  10.2483  10.2636  10.2792

          k = 0.0000 0.1443 0.0000 ( 21263 PWs)   bands (ev):

   -53.4834 -53.4575 -53.4413 -53.4079 -27.6516 -27.6255 -27.6095 -27.5761
   -27.4857 -27.4588 -27.4428 -27.4397 -27.4128 -27.4106 -27.3968 -27.3645
    -6.5843  -6.5422  -6.4765  -6.4206  -5.4767  -5.4089  -5.3061  -5.2388
     1.6577   1.8078   2.0963   2.2902   4.3003   4.3357   4.3415   4.3545
     4.3828   4.5977   4.9032   5.0293   5.0561   5.0639   5.0773   5.1026
     5.5549   5.5885   5.6025   5.6321   6.0574   6.1469   6.3539   6.6346
     6.9422   7.1999   7.4090   7.4965   9.7558   9.8215   9.8823   9.9288
     9.9820  10.0468  10.0588  10.0838  10.1059  10.1211

          k = 0.0000 0.2165 0.0000 ( 21233 PWs)   bands (ev):

   -53.4768 -53.4508 -53.4347 -53.4012 -27.6387 -27.6126 -27.5966 -27.5631
   -27.5511 -27.5241 -27.5082 -27.4760 -27.4547 -27.4278 -27.4118 -27.3795
    -6.3111  -6.2698  -6.2063  -6.1510  -5.3520  -5.2886  -5.1959  -5.1327
     1.9195   2.0581   2.3321   2.5190   3.8667   3.8994   3.9140   3.9346
     3.9957   4.1772   4.3984   4.5072   5.2294   5.2627   5.2761   5.3041
     5.3084   5.3387   5.3531   5.3790   5.9682   6.0856   6.3095   6.5454
     6.8047   6.9503   7.0516   7.1029   9.3655   9.4902   9.6549   9.8339
     9.8629   9.9029   9.9509   9.9578  10.0030  10.0905

          k = 0.0000 0.2887 0.0000 ( 21197 PWs)   bands (ev):

   -53.4689 -53.4430 -53.4268 -53.3934 -27.6274 -27.6233 -27.6003 -27.5972
   -27.5844 -27.5812 -27.5523 -27.5478 -27.4723 -27.4454 -27.4294 -27.3971
    -5.9643  -5.9244  -5.8652  -5.8111  -5.1946  -5.1371  -5.0581  -5.0003
     2.1192   2.2289   2.4459   2.5881   3.4831   3.5135   3.5516   3.5992
     3.6750   3.7823   3.9030   3.9657   4.9011   4.9353   4.9502   4.9823
     5.6286   5.6634   5.6787   5.7096   5.7539   5.8857   6.1063   6.2917
     6.5398   6.6088   6.6542   6.6947   9.2283   9.3840   9.6064   9.6737
     9.7135   9.7598   9.8108   9.8268  10.1714  10.3250

          k = 0.0000 0.3608 0.0000 ( 21187 PWs)   bands (ev):

   -53.4611 -53.4351 -53.4190 -53.3855 -27.7028 -27.6756 -27.6598 -27.6277
   -27.6079 -27.5819 -27.5659 -27.5324 -27.4899 -27.4629 -27.4470 -27.4147
    -5.5824  -5.5447  -5.4929  -5.4412  -5.0238  -4.9731  -4.9107  -4.8590
     2.0745   2.1414   2.2615   2.3402   3.1205   3.1761   3.2770   3.3879
     3.4413   3.5302   3.5997   3.6596   4.6130   4.6473   4.6628   4.6955
     5.5230   5.6531   5.8589   5.9497   5.9848   6.0056   6.0100   6.0415
     6.3241   6.3811   6.4240   6.4643   9.3492   9.4945   9.5684   9.6055
     9.6427   9.6905   9.7122   9.9117  10.4972  10.6502

          k = 0.0000 0.4330 0.0000 ( 21140 PWs)   bands (ev):

   -53.4544 -53.4284 -53.4123 -53.3788 -27.7660 -27.7388 -27.7230 -27.6910
   -27.5948 -27.5688 -27.5528 -27.5193 -27.5047 -27.4777 -27.4618 -27.4295
    -5.2205  -5.1853  -5.1451  -5.0970  -4.8653  -4.8218  -4.7776  -4.7321
     1.8336   1.8762   1.9382   1.9908   2.7773   2.8297   2.9150   2.9844
     3.3465   3.4102   3.5097   3.5820   4.3923   4.4267   4.4427   4.4758
     5.3535   5.4724   5.6613   5.7903   6.2063   6.2426   6.2733   6.3143
     6.3415   6.4066   6.4712   6.5192   9.5605   9.5938   9.6181   9.6183
     9.6611   9.7286   9.8989  10.0455  10.8046  10.9393

          k = 0.0000 0.5052 0.0000 ( 21078 PWs)   bands (ev):

   -53.4499 -53.4240 -53.4078 -53.3743 -27.8080 -27.7807 -27.7649 -27.7329
   -27.5861 -27.5601 -27.5441 -27.5146 -27.5105 -27.4876 -27.4717 -27.4394
    -4.9507  -4.9174  -4.8914  -4.8477  -4.7500  -4.7132  -4.6846  -4.6443
     1.6023   1.6365   1.6755   1.7215   2.5382   2.5793   2.6411   2.7013
     3.2489   3.3073   3.4013   3.4701   4.2547   4.2892   4.3054   4.3388
     5.2624   5.3717   5.5449   5.6561   6.3622   6.4003   6.4407   6.4856
     6.5310   6.5925   6.6581   6.7091   9.6080   9.6381   9.6549   9.6919
     9.9178   9.9861  10.0887  10.1759  11.0002  11.1080

          k = 0.0000-0.5774 0.0000 ( 21006 PWs)   bands (ev):

   -53.4484 -53.4224 -53.4062 -53.3728 -27.8226 -27.7953 -27.7795 -27.7476
   -27.5830 -27.5570 -27.5410 -27.5180 -27.5074 -27.4911 -27.4751 -27.4429
    -4.8485  -4.8157  -4.7973  -4.7561  -4.7073  -4.6740  -4.6513  -4.6135
     1.5100   1.5424   1.5760   1.6213   2.4528   2.4888   2.5420   2.6014
     3.2019   3.2595   3.3508   3.4179   4.2080   4.2425   4.2588   4.2923
     5.2354   5.3407   5.5067   5.6108   6.4129   6.4519   6.4962   6.5426
     6.6488   6.6989   6.7502   6.7964   9.6362   9.6652   9.6808   9.7152
    10.0783  10.1244  10.1678  10.2176  11.0636  11.1532

          k = 0.0625 0.1083 0.0000 ( 21269 PWs)   bands (ev):

   -53.4849 -53.4589 -53.4427 -53.4093 -27.6545 -27.6283 -27.6123 -27.5789
   -27.4710 -27.4441 -27.4369 -27.4282 -27.4100 -27.3959 -27.3940 -27.3617
    -6.6414  -6.5991  -6.5332  -6.4771  -5.5028  -5.4341  -5.3293  -5.2611
     1.5963   1.7481   2.0379   2.2320   4.4103   4.4453   4.4459   4.4613
     4.4881   4.7138   4.9688   5.0033   5.0164   5.0413   5.0525   5.2221
     5.5912   5.6244   5.6375   5.6660   6.0951   6.1707   6.3581   6.6394
     6.9581   7.2424   7.4805   7.5797   9.8845   9.9271   9.9337   9.9563
    10.0111  10.0184  10.0603  10.1049  10.1508  10.1900

          k = 0.0625 0.1804 0.0000 ( 21194 PWs)   bands (ev):

   -53.4793 -53.4534 -53.4372 -53.4037 -27.6436 -27.6175 -27.6015 -27.5681
   -27.5245 -27.4975 -27.4816 -27.4506 -27.4494 -27.4237 -27.4078 -27.3755
    -6.4177  -6.3761  -6.3116  -6.2560  -5.4005  -5.3353  -5.2386  -5.1739
     1.8280   1.9724   2.2549   2.4472   4.0279   4.0601   4.0736   4.0957
     4.1492   4.3619   4.6275   4.7591   5.1852   5.2140   5.2294   5.2332
     5.2541   5.2605   5.2766   5.3002   6.1442   6.2388   6.4346   6.6761
     6.8799   7.0720   7.2012   7.2595   9.4795   9.5805   9.6994   9.8187
     9.8574   9.9180   9.9549   9.9869  10.0113  10.0539

          k = 0.0625 0.2526 0.0000 ( 21202 PWs)   bands (ev):

   -53.4721 -53.4461 -53.4300 -53.3965 -27.6295 -27.6034 -27.5937 -27.5874
   -27.5667 -27.5539 -27.5508 -27.5186 -27.4686 -27.4416 -27.4257 -27.3934
    -6.1071  -6.0666  -6.0053  -5.9507  -5.2588  -5.1988  -5.1140  -5.0539
     2.0730   2.1985   2.4495   2.6192   3.6414   3.6725   3.6924   3.7214
     3.8131   3.9757   4.1521   4.2347   4.8461   4.8797   4.9018   4.9342
     5.4540   5.4883   5.5024   5.5317   6.0412   6.1446   6.3306   6.5158
     6.6759   6.7670   6.8158   6.8554   9.2092   9.3514   9.5341   9.6601
     9.7777   9.8216   9.8522   9.8857   9.9737  10.1234

          k = 0.0625 0.3248 0.0000 ( 21194 PWs)   bands (ev):

   -53.4642 -53.4383 -53.4221 -53.3886 -27.6678 -27.6406 -27.6247 -27.6141
   -27.5927 -27.5880 -27.5720 -27.5386 -27.4879 -27.4610 -27.4450 -27.4128
    -5.7412  -5.7025  -5.6470  -5.5942  -5.0934  -5.0397  -4.9700  -4.9156
     2.1581   2.2445   2.4089   2.5131   3.3212   3.3577   3.4243   3.5104
     3.5759   3.6693   3.6871   3.7379   4.5399   4.5794   4.6152   4.6540
     5.6901   5.7207   5.7387   5.7714   5.8298   5.9288   6.0984   6.2396
     6.4554   6.5008   6.5291   6.5654   9.1745   9.3172   9.4868   9.5732
     9.7122   9.7537   9.7937   9.9154  10.2292  10.3809

          k = 0.0625 0.3969 0.0000 ( 21151 PWs)   bands (ev):

   -53.4570 -53.4310 -53.4148 -53.3814 -27.7354 -27.7082 -27.6924 -27.6604
   -27.5999 -27.5738 -27.5578 -27.5243 -27.5058 -27.4788 -27.4629 -27.4306
    -5.3661  -5.3298  -5.2839  -5.2341  -4.9264  -4.8797  -4.8275  -4.7793
     1.9944   2.0463   2.1317   2.1936   2.9430   2.9965   3.0834   3.1561
     3.4138   3.4786   3.5762   3.6512   4.3420   4.3827   4.4191   4.4579
     5.5747   5.6706   5.8083   5.8358   5.8765   5.8903   5.9182   5.9873
     6.4671   6.5031   6.5290   6.5629   9.3149   9.4239   9.5388   9.6010
     9.7533   9.7950   9.8641   9.9944  10.5676  10.7036

          k = 0.0625 0.4691 0.0000 ( 21105 PWs)   bands (ev):

   -53.4514 -53.4254 -53.4093 -53.3758 -27.7867 -27.7595 -27.7436 -27.7117
   -27.5889 -27.5629 -27.5469 -27.5194 -27.5134 -27.4924 -27.4765 -27.4442
    -5.0452  -5.0112  -4.9788  -4.9331  -4.7865  -4.7468  -4.7120  -4.6696
     1.7515   1.7889   1.8371   1.8855   2.6233   2.6662   2.7268   2.7838
     3.3211   3.3794   3.4765   3.5489   4.2366   4.2717   4.2975   4.3338
     5.3862   5.4821   5.6323   5.7331   5.9609   5.9942   6.0286   6.0763
     6.6402   6.6770   6.7092   6.7469   9.5152   9.5755   9.6307   9.6752
     9.8909   9.9376  10.0217  10.1187  10.8825  10.9937

          k = 0.0625 0.5413 0.0000 ( 21084 PWs)   bands (ev):

   -53.4484 -53.4224 -53.4062 -53.3728 -27.8143 -27.7871 -27.7712 -27.7393
   -27.5830 -27.5570 -27.5410 -27.5267 -27.5075 -27.4997 -27.4838 -27.4516
    -4.8541  -4.8212  -4.8013  -4.7597  -4.7048  -4.6709  -4.6473  -4.6093
     1.5902   1.6228   1.6576   1.7032   2.4440   2.4790   2.5262   2.5816
     3.2341   3.2917   3.3846   3.4529   4.1943   4.2258   4.2398   4.2736
     5.2834   5.3800   5.5289   5.6233   6.0544   6.0900   6.1265   6.1741
     6.7946   6.8341   6.8720   6.9131   9.6341   9.6606   9.6799   9.7130
    10.0711  10.1183  10.1739  10.2311  11.1109  11.1899

          k = 0.1250 0.2165 0.0000 ( 21179 PWs)   bands (ev):

   -53.4732 -53.4472 -53.4311 -53.3976 -27.6316 -27.6055 -27.5896 -27.5797
   -27.5561 -27.5527 -27.5368 -27.5046 -27.4694 -27.4425 -27.4266 -27.3943
    -6.1562  -6.1155  -6.0536  -5.9987  -5.2808  -5.2199  -5.1331  -5.0722
     2.0540   2.1849   2.4472   2.6262   3.7096   3.7368   3.7534   3.7813
     3.9153   4.1093   4.3260   4.4221   4.7077   4.7409   4.7614   4.7916
     5.3745   5.4083   5.4217   5.4504   6.2261   6.3147   6.4754   6.6506
     6.7393   6.8459   6.8858   6.9246   9.1989   9.3320   9.4960   9.6168
     9.7800   9.7935   9.8315   9.8516   9.9069  10.0550

          k = 0.1250 0.2887 0.0000 ( 21199 PWs)   bands (ev):

   -53.4659 -53.4400 -53.4238 -53.3903 -27.6430 -27.6174 -27.6159 -27.6000
   -27.5914 -27.5754 -27.5679 -27.5419 -27.4927 -27.4658 -27.4498 -27.4176
    -5.8248  -5.7856  -5.7285  -5.6750  -5.1295  -5.0741  -5.0006  -4.9448
     2.2093   2.3104   2.5088   2.6356   3.4718   3.5035   3.5187   3.6069
     3.6823   3.8035   3.8809   3.9245   4.2710   4.3236   4.4030   4.4684
     5.4795   5.5120   5.5276   5.5616   6.1531   6.2336   6.3641   6.4834
     6.5607   6.5896   6.6095   6.6392   9.0398   9.1872   9.3728   9.4900
     9.7714   9.7907   9.8227   9.8933   9.9847  10.1527

          k = 0.1250 0.3608 0.0000 ( 21195 PWs)   bands (ev):

   -53.4587 -53.4327 -53.4165 -53.3831 -27.7053 -27.6781 -27.6622 -27.6302
   -27.6032 -27.5772 -27.5612 -27.5277 -27.5164 -27.4894 -27.4735 -27.4413
    -5.4616  -5.4245  -5.3753  -5.3244  -4.9646  -4.9158  -4.8583  -4.8083
     2.1541   2.2184   2.3324   2.4071   3.1425   3.1875   3.2517   3.3130
     3.5015   3.5592   3.6414   3.7224   4.0742   4.1625   4.2695   4.3346
     5.4230   5.4555   5.4746   5.5132   5.9367   6.0047   6.1092   6.1954
     6.5239   6.5526   6.5674   6.6022   9.0800   9.2270   9.4278   9.5579
     9.8443   9.8698   9.9024   9.9869  10.2237  10.3679

          k = 0.1250 0.4330 0.0000 ( 21113 PWs)   bands (ev):

   -53.4525 -53.4265 -53.4104 -53.3769 -27.7574 -27.7302 -27.7143 -27.6824
   -27.5911 -27.5651 -27.5491 -27.5366 -27.5156 -27.5096 -27.4937 -27.4614
    -5.1198  -5.0851  -5.0478  -5.0006  -4.8111  -4.7691  -4.7289  -4.6847
     1.9670   2.0108   2.0764   2.1304   2.7232   2.7602   2.8000   2.8461
     3.4486   3.5010   3.5967   3.6766   4.0488   4.1289   4.2220   4.2810
     5.3712   5.4079   5.4478   5.4955   5.6658   5.7266   5.8212   5.8970
     6.6620   6.6924   6.7094   6.7443   9.2933   9.4209   9.6056   9.7277
     9.9552   9.9831  10.0135  10.0617  10.5402  10.6501

          k = 0.1250 0.5052 0.0000 ( 21081 PWs)   bands (ev):

   -53.4484 -53.4224 -53.4062 -53.3728 -27.7920 -27.7647 -27.7489 -27.7169
   -27.5830 -27.5570 -27.5501 -27.5410 -27.5231 -27.5075 -27.5072 -27.4749
    -4.8671  -4.8340  -4.8110  -4.7683  -4.6990  -4.6636  -4.6378  -4.5990
     1.8010   1.8354   1.8764   1.9238   2.4269   2.4582   2.4887   2.5351
     3.3325   3.3898   3.4846   3.5543   4.1028   4.1578   4.2183   4.2658
     5.3709   5.4287   5.4646   5.4911   5.5144   5.5527   5.6028   5.6817
     6.8474   6.8823   6.9103   6.9488   9.5196   9.5895   9.6712   9.7286
    10.1042  10.1445  10.1973  10.2627  10.8309  10.8938

          k = 0.1250 0.5774 0.0000 ( 21108 PWs)   bands (ev):

   -53.4469 -53.4209 -53.4048 -53.3713 -27.8041 -27.7768 -27.7610 -27.7290
   -27.5802 -27.5548 -27.5542 -27.5382 -27.5278 -27.5119 -27.5046 -27.4797
    -4.7720  -4.7393  -4.7236  -4.6837  -4.6573  -4.6256  -4.6050  -4.5687
     1.7372   1.7684   1.8009   1.8474   2.3215   2.3510   2.3794   2.4267
     3.2724   3.3305   3.4247   3.4924   4.1521   4.1856   4.2177   4.2587
     5.3102   5.3913   5.4466   5.4847   5.5027   5.5460   5.5542   5.6237
     6.9394   6.9778   7.0132   7.0546   9.6012   9.6261   9.6471   9.6823
    10.2155  10.2680  10.3148  10.3606  10.9617  11.0057

          k = 0.1875 0.3248 0.0000 ( 21195 PWs)   bands (ev):

   -53.4593 -53.4333 -53.4171 -53.3837 -27.6917 -27.6646 -27.6487 -27.6166
   -27.6044 -27.5783 -27.5623 -27.5288 -27.5232 -27.4962 -27.4803 -27.4480
    -5.4947  -5.4574  -5.4071  -5.3559  -4.9776  -4.9280  -4.8686  -4.8180
     2.2222   2.2929   2.4217   2.5036   3.2724   3.3059   3.3464   3.3886
     3.5436   3.5955   3.6615   3.7316   3.9215   4.0389   4.1818   4.2576
     5.2490   5.2810   5.3002   5.3392   6.1008   6.1561   6.2367   6.3068
     6.5303   6.5610   6.5761   6.6147   8.9907   9.1499   9.3740   9.5325
     9.8690   9.8823   9.9154   9.9676  10.0782  10.2344

          k = 0.1875 0.3969 0.0000 ( 21153 PWs)   bands (ev):

   -53.4531 -53.4271 -53.4110 -53.3775 -27.7336 -27.7064 -27.6906 -27.6586
   -27.5923 -27.5663 -27.5540 -27.5503 -27.5270 -27.5168 -27.5111 -27.4789
    -5.1607  -5.1256  -5.0858  -5.0378  -4.8233  -4.7800  -4.7367  -4.6915
     2.1305   2.1818   2.2659   2.3266   2.8117   2.8352   2.8545   2.8884
     3.5909   3.6261   3.6932   3.7795   3.9200   4.0339   4.1629   4.2320
     4.9318   4.9663   4.9943   5.0375   5.8814   5.9163   5.9655   6.0184
     6.6326   6.6660   6.6860   6.7256   9.1505   9.3079   9.5560   9.7643
     9.9846  10.0092  10.0264  10.0592  10.2632  10.3890

          k = 0.1875 0.4691 0.0000 ( 21101 PWs)   bands (ev):

   -53.4484 -53.4224 -53.4062 -53.3728 -27.7641 -27.7369 -27.7210 -27.6891
   -27.5831 -27.5790 -27.5570 -27.5519 -27.5410 -27.5360 -27.5075 -27.5038
    -4.8799  -4.8465  -4.8205  -4.7768  -4.6932  -4.6564  -4.6284  -4.5887
     2.0416   2.0815   2.1387   2.1906   2.4141   2.4387   2.4563   2.4917
     3.5070   3.5632   3.6490   3.7092   3.9946   4.0897   4.2041   4.2721
     4.7525   4.7953   4.8593   4.9184   5.5816   5.6289   5.6757   5.7292
     6.8331   6.8655   6.8818   6.9189   9.3763   9.4804   9.6280   9.7284
    10.1476  10.1806  10.2252  10.2993  10.4866  10.5652

          k = 0.1875 0.5413 0.0000 ( 21112 PWs)   bands (ev):

   -53.4458 -53.4198 -53.4037 -53.3702 -27.7801 -27.7529 -27.7370 -27.7051
   -27.5929 -27.5781 -27.5659 -27.5520 -27.5499 -27.5360 -27.5177 -27.5025
    -4.7152  -4.6827  -4.6684  -4.6303  -4.6161  -4.5862  -4.5667  -4.5317
     2.0036   2.0342   2.0695   2.1211   2.1976   2.2244   2.2416   2.2797
     3.3620   3.4220   3.5161   3.5789   4.1340   4.1897   4.2572   4.3125
     4.7126   4.7656   4.8466   4.9071   5.3680   5.4196   5.4741   5.5274
     7.0165   7.0507   7.0762   7.1157   9.4522   9.4901   9.5257   9.5672
    10.3372  10.3880  10.4588  10.5398  10.6167  10.6632

          k = 0.2500 0.4330 0.0000 ( 21125 PWs)   bands (ev):

   -53.4484 -53.4224 -53.4062 -53.3728 -27.7496 -27.7224 -27.7065 -27.6746
   -27.5939 -27.5831 -27.5668 -27.5570 -27.5509 -27.5410 -27.5187 -27.5075
    -4.8851  -4.8516  -4.8245  -4.7804  -4.6908  -4.6534  -4.6245  -4.5844
     2.1519   2.1962   2.2652   2.3187   2.4104   2.4304   2.4480   2.4742
     3.6906   3.7226   3.7458   3.8071   3.9895   4.0903   4.2135   4.2837
     4.4282   4.4624   4.4801   4.5169   5.6595   5.6907   5.6960   5.7621
     6.8166   6.8498   6.8649   6.9021   9.3164   9.4311   9.6007   9.7208
    10.1597  10.1894  10.2202  10.3074  10.3573  10.4680

          k = 0.2500 0.5052 0.0000 ( 21117 PWs)   bands (ev):

   -53.4452 -53.4192 -53.4031 -53.3696 -27.7543 -27.7271 -27.7113 -27.6793
   -27.6264 -27.5994 -27.5835 -27.5769 -27.5513 -27.5509 -27.5349 -27.5013
    -4.6871  -4.6546  -4.6405  -4.6035  -4.5917  -4.5628  -4.5436  -4.5093
     2.1087   2.1325   2.1448   2.1779   2.2602   2.3026   2.3508   2.3981
     3.5344   3.5945   3.6665   3.7050   4.0844   4.1157   4.1596   4.2016
     4.2416   4.2986   4.3543   4.4005   5.3793   5.4138   5.4406   5.5008
     7.0571   7.0887   7.1034   7.1398   9.3200   9.3658   9.4186   9.4681
    10.3090  10.3436  10.3729  10.4032  10.5527  10.6065

          k = 0.2500 0.5774 0.0000 ( 21116 PWs)   bands (ev):

   -53.4441 -53.4181 -53.4020 -53.3685 -27.7542 -27.7270 -27.7111 -27.6791
   -27.6397 -27.6126 -27.5967 -27.5747 -27.5646 -27.5487 -27.5327 -27.4991
    -4.6134  -4.5828  -4.5720  -4.5584  -4.5395  -4.5294  -4.5139  -4.4825
     2.0074   2.0304   2.0438   2.0763   2.3474   2.3762   2.4044   2.4474
     3.3767   3.4362   3.5165   3.5682   4.0537   4.0959   4.1726   4.2330
     4.2960   4.3488   4.3980   4.4400   5.2568   5.2894   5.3031   5.3635
     7.1834   7.2154   7.2341   7.2722   9.2510   9.2787   9.2953   9.3270
    10.3349  10.3702  10.4026  10.4244  10.7104  10.7457

          k = 0.3125 0.5413 0.0000 ( 21100 PWs)   bands (ev):

   -53.4435 -53.4175 -53.4014 -53.3679 -27.7331 -27.7059 -27.6900 -27.6681
   -27.6581 -27.6411 -27.6251 -27.5930 -27.5735 -27.5475 -27.5315 -27.4980
    -4.5774  -4.5491  -4.5384  -4.5348  -4.5139  -4.5046  -4.4941  -4.4641
     1.9385   1.9618   1.9757   2.0069   2.5745   2.6090   2.6448   2.6914
     3.3792   3.3903   3.4076   3.4385   3.8503   3.8729   3.8847   3.9040
     4.3525   4.4056   4.4516   4.4982   5.1717   5.2078   5.2298   5.2930
     7.2659   7.2963   7.3101   7.3467   9.1347   9.1640   9.1807   9.2119
    10.2693  10.2906  10.3085  10.3418  10.8082  10.8621

     the Fermi energy is     8.3451 ev

!    total energy              =   -1978.37151539 Ry
     total all-electron energy =    -38771.692360 Ry
     estimated scf accuracy    <          4.1E-10 Ry
     smearing contrib. (-TS)   =       0.00002940 Ry
     internal energy E=F+TS    =   -1978.37154479 Ry

     The total energy is F=E-TS. E is the sum of the following terms:
     one-electron contribution =   -1461.37291351 Ry
     hartree contribution      =     772.95038262 Ry
     xc contribution           =    -119.23165431 Ry
     ewald contribution        =      99.13357018 Ry
     one-center paw contrib.   =   -1269.85092977 Ry

     convergence has been achieved in  19 iterations

     Forces acting on atoms (cartesian axes, Ry/au):

     atom    1 type  2   force =     0.00000000   -0.00000000    0.00051419
     atom    2 type  1   force =     0.00000000   -0.00000000    0.00047002
     atom    3 type  2   force =     0.00000000    0.00000000    0.00060138
     atom    4 type  2   force =     0.00000000    0.00000000    0.00015210
     atom    5 type  1   force =     0.00000000    0.00000000    0.00044423
     atom    6 type  2   force =     0.00000000    0.00000000    0.00084547
     atom    7 type  2   force =     0.00000000    0.00000000   -0.00061614
     atom    8 type  1   force =     0.00000000    0.00000000   -0.00027352
     atom    9 type  2   force =     0.00000000    0.00000000   -0.00008679
     atom   10 type  2   force =     0.00000000    0.00000000   -0.00061700
     atom   11 type  1   force =     0.00000000    0.00000000   -0.00064113
     atom   12 type  2   force =     0.00000000   -0.00000000   -0.00079280

     Total force =     0.001914     Total SCF correction =     0.000126
     Energy error            =      7.4E-06 Ry
     Gradient error          =      8.5E-04 Ry/Bohr

     number of scf cycles    =  18
     number of bfgs steps    =  14

     energy             old  =   -1978.3715079997 Ry
     energy             new  =   -1978.3715153894 Ry

     CASE: energy            _new < energy            _old


     WARNING: bfgs curvature condition failed, Theta= 0.830
     new trust radius        =       0.0019719781 bohr
     new conv_thr            =       0.0000000010 Ry


ATOMIC_POSITIONS (crystal)
S                0.3333329927        0.6666669854       -0.1119389889
Mo               0.0000000000        0.0000000000       -0.0595187023
S                0.3333329927        0.6666669854       -0.0070713241
S                0.6666669854        0.3333329927        0.0982261881
Mo               0.3333329927        0.6666669854        0.1507269615
S                0.6666669854        0.3333329927        0.2032260952
S                0.0000000000        0.0000000000        0.3150731875
Mo               0.6666669854        0.3333329927        0.3675997425
S                0.0000000000        0.0000000000        0.4200978510
S                0.3333329927        0.6666669854        0.5270660586
Mo               0.0000000000        0.0000000000        0.5795473151
S                0.3333329927        0.6666669854        0.6319655474



     Writing config-only to output data dir ./tmp/relax2/mos2_slab2.save/ :
     XML data file
     NEW-OLD atomic charge density approx. for the potential

     total cpu time spent up to now is    46113.5 secs

     Self-consistent Calculation

     iteration #  1     ecut=    80.00 Ry     beta= 0.20
     Davidson diagonalization with overlap
     ethr =  1.00E-06,  avg # of iterations =  2.6

     Threshold (ethr) on eigenvalues was too large:
     Diagonalizing with lowered threshold

     Davidson diagonalization with overlap
     ethr =  5.73E-09,  avg # of iterations =  4.7

     total cpu time spent up to now is    46402.3 secs

     total energy              =   -1978.37152415 Ry
     estimated scf accuracy    <       0.00000087 Ry

     iteration #  2     ecut=    80.00 Ry     beta= 0.20
     Davidson diagonalization with overlap
     ethr =  8.37E-10,  avg # of iterations =  3.0

     total cpu time spent up to now is    46517.0 secs

     total energy              =   -1978.37152412 Ry
     estimated scf accuracy    <       0.00000080 Ry

     iteration #  3     ecut=    80.00 Ry     beta= 0.20
     Davidson diagonalization with overlap
     ethr =  7.70E-10,  avg # of iterations =  1.0

     total cpu time spent up to now is    46615.9 secs

     total energy              =   -1978.37152399 Ry
     estimated scf accuracy    <       0.00000052 Ry

     iteration #  4     ecut=    80.00 Ry     beta= 0.20
     Davidson diagonalization with overlap
     ethr =  4.99E-10,  avg # of iterations =  2.4

     total cpu time spent up to now is    46727.2 secs

     total energy              =   -1978.37152402 Ry
     estimated scf accuracy    <       0.00000003 Ry

     iteration #  5     ecut=    80.00 Ry     beta= 0.20
     Davidson diagonalization with overlap
     ethr =  3.03E-11,  avg # of iterations =  4.3

     total cpu time spent up to now is    46853.6 secs

     total energy              =   -1978.37152404 Ry
     estimated scf accuracy    <          7.9E-09 Ry

     iteration #  6     ecut=    80.00 Ry     beta= 0.20
     Davidson diagonalization with overlap
     ethr =  7.58E-12,  avg # of iterations =  2.2

     total cpu time spent up to now is    46963.5 secs

     total energy              =   -1978.37152403 Ry
     estimated scf accuracy    <          5.2E-09 Ry

     iteration #  7     ecut=    80.00 Ry     beta= 0.20
     Davidson diagonalization with overlap
     ethr =  4.97E-12,  avg # of iterations =  1.7

     total cpu time spent up to now is    47068.8 secs

     total energy              =   -1978.37152403 Ry
     estimated scf accuracy    <          2.1E-09 Ry

     iteration #  8     ecut=    80.00 Ry     beta= 0.20
     Davidson diagonalization with overlap
     ethr =  2.02E-12,  avg # of iterations =  2.1

     total cpu time spent up to now is    47178.8 secs

     total energy              =   -1978.37152404 Ry
     estimated scf accuracy    <          1.5E-09 Ry

     iteration #  9     ecut=    80.00 Ry     beta= 0.20
     Davidson diagonalization with overlap
     ethr =  1.45E-12,  avg # of iterations =  1.0

     total cpu time spent up to now is    47277.7 secs

     total energy              =   -1978.37152403 Ry
     estimated scf accuracy    <          1.5E-09 Ry

     iteration # 10     ecut=    80.00 Ry     beta= 0.20
     Davidson diagonalization with overlap
     ethr =  1.43E-12,  avg # of iterations =  1.7

     total cpu time spent up to now is    47382.9 secs

     End of self-consistent calculation

          k = 0.0000 0.0000 0.0000 ( 21311 PWs)   bands (ev):

   -53.4897 -53.4637 -53.4473 -53.4135 -27.6636 -27.6374 -27.6212 -27.5875
   -27.4265 -27.4264 -27.3994 -27.3994 -27.3832 -27.3832 -27.3507 -27.3506
    -6.8180  -6.7751  -6.7084  -6.6519  -5.5839  -5.5121  -5.4012  -5.3301
     1.3951   1.5508   1.8426   2.0358   4.7866   4.7866   4.7923   4.8227
     4.8227   4.8363   4.8363   4.8596   4.8596   5.1545   5.7398   5.9022
     5.9022   5.9363   5.9363   5.9500   5.9501   5.9772   5.9773   6.2396
     6.9625   7.3073   7.6567   7.8115  10.1385  10.1386  10.1697  10.1697
    10.1879  10.1879  10.2292  10.2292  10.3459  10.3459

          k = 0.0000 0.0722 0.0000 ( 21283 PWs)   bands (ev):

   -53.4881 -53.4621 -53.4457 -53.4119 -27.6606 -27.6344 -27.6181 -27.5845
   -27.4420 -27.4300 -27.4150 -27.4030 -27.3988 -27.3867 -27.3662 -27.3542
    -6.7584  -6.7156  -6.6492  -6.5928  -5.5566  -5.4857  -5.3769  -5.3067
     1.4644   1.6190   1.9103   2.1041   4.6484   4.6602   4.6871   4.7010
     4.7252   4.8489   4.8850   4.8985   4.9221   4.9708   5.3847   5.5786
     5.8052   5.8394   5.8532   5.8811   5.9999   6.0496   6.1918   6.4840
     6.9668   7.2939   7.6040   7.7375  10.0617  10.0905  10.1055  10.1418
    10.1888  10.2231  10.2278  10.2482  10.2639  10.2797

          k = 0.0000 0.1443 0.0000 ( 21263 PWs)   bands (ev):

   -53.4837 -53.4577 -53.4413 -53.4075 -27.6519 -27.6257 -27.6095 -27.5758
   -27.4861 -27.4590 -27.4428 -27.4400 -27.4130 -27.4103 -27.3968 -27.3642
    -6.5846  -6.5422  -6.4767  -6.4205  -5.4770  -5.4089  -5.3062  -5.2387
     1.6574   1.8077   2.0960   2.2905   4.2995   4.3359   4.3412   4.3549
     4.3825   4.5978   4.9031   5.0284   5.0563   5.0642   5.0778   5.1024
     5.5541   5.5887   5.6029   5.6320   6.0573   6.1469   6.3538   6.6348
     6.9422   7.2001   7.4091   7.4967   9.7556   9.8217   9.8825   9.9286
     9.9824  10.0466  10.0585  10.0835  10.1064  10.1211

          k = 0.0000 0.2165 0.0000 ( 21233 PWs)   bands (ev):

   -53.4770 -53.4510 -53.4346 -53.4009 -27.6389 -27.6128 -27.5965 -27.5628
   -27.5514 -27.5243 -27.5081 -27.4757 -27.4550 -27.4280 -27.4118 -27.3792
    -6.3114  -6.2698  -6.2065  -6.1509  -5.3523  -5.2885  -5.1960  -5.1326
     1.9192   2.0580   2.3318   2.5193   3.8660   3.8995   3.9142   3.9346
     3.9955   4.1772   4.3983   4.5074   5.2287   5.2628   5.2763   5.3033
     5.3083   5.3389   5.3535   5.3788   5.9680   6.0857   6.3094   6.5456
     6.8046   6.9503   7.0515   7.1031   9.3653   9.4904   9.6550   9.8340
     9.8626   9.9029   9.9508   9.9579  10.0033  10.0904

          k = 0.0000 0.2887 0.0000 ( 21197 PWs)   bands (ev):

   -53.4692 -53.4432 -53.4268 -53.3930 -27.6277 -27.6236 -27.6005 -27.5974
   -27.5843 -27.5812 -27.5520 -27.5475 -27.4726 -27.4456 -27.4294 -27.3968
    -5.9646  -5.9245  -5.8653  -5.8110  -5.1949  -5.1370  -5.0582  -5.0001
     2.1189   2.2287   2.4456   2.5883   3.4826   3.5135   3.5519   3.5988
     3.6751   3.7823   3.9029   3.9659   4.9004   4.9355   4.9505   4.9823
     5.6279   5.6636   5.6790   5.7095   5.7536   5.8858   6.1063   6.2919
     6.5396   6.6087   6.6540   6.6950   9.2280   9.3842   9.6065   9.6735
     9.7135   9.7597   9.8111   9.8269  10.1714  10.3251

          k = 0.0000 0.3608 0.0000 ( 21187 PWs)   bands (ev):

   -53.4613 -53.4353 -53.4189 -53.3851 -27.7031 -27.6758 -27.6597 -27.6274
   -27.6082 -27.5821 -27.5658 -27.5321 -27.4902 -27.4631 -27.4469 -27.4144
    -5.5827  -5.5447  -5.4930  -5.4411  -5.0241  -4.9731  -4.9108  -4.8589
     2.0743   2.1412   2.2612   2.3403   3.1202   3.1761   3.2768   3.3879
     3.4411   3.5303   3.5997   3.6598   4.6123   4.6474   4.6630   4.6955
     5.5227   5.6532   5.8589   5.9491   5.9849   6.0058   6.0102   6.0415
     6.3239   6.3810   6.4239   6.4645   9.3489   9.4947   9.5681   9.6054
     9.6426   9.6908   9.7123   9.9118  10.4971  10.6503

          k = 0.0000 0.4330 0.0000 ( 21140 PWs)   bands (ev):

   -53.4546 -53.4287 -53.4123 -53.3785 -27.7664 -27.7390 -27.7229 -27.6907
   -27.5951 -27.5690 -27.5528 -27.5190 -27.5050 -27.4779 -27.4617 -27.4292
    -5.2208  -5.1853  -5.1452  -5.0969  -4.8656  -4.8218  -4.7776  -4.7319
     1.8333   1.8761   1.9380   1.9909   2.7771   2.8297   2.9149   2.9845
     3.3463   3.4101   3.5096   3.5822   4.3916   4.4269   4.4429   4.4758
     5.3532   5.4726   5.6613   5.7904   6.2058   6.2426   6.2733   6.3143
     6.3413   6.4065   6.4711   6.5194   9.5602   9.5938   9.6178   9.6183
     9.6613   9.7287   9.8989  10.0456  10.8045  10.9394

          k = 0.0000 0.5052 0.0000 ( 21078 PWs)   bands (ev):

   -53.4502 -53.4242 -53.4078 -53.3740 -27.8083 -27.7809 -27.7648 -27.7326
   -27.5864 -27.5603 -27.5440 -27.5149 -27.5102 -27.4878 -27.4716 -27.4391
    -4.9512  -4.9174  -4.8914  -4.8476  -4.7504  -4.7132  -4.6845  -4.6442
     1.6020   1.6365   1.6754   1.7216   2.5379   2.5792   2.6409   2.7014
     3.2486   3.3073   3.4011   3.4702   4.2540   4.2893   4.3056   4.3387
     5.2621   5.3718   5.5449   5.6562   6.3618   6.4003   6.4406   6.4857
     6.5308   6.5924   6.6580   6.7093   9.6076   9.6380   9.6549   9.6922
     9.9176   9.9861  10.0887  10.1760  10.9999  11.1082

          k = 0.0000-0.5774 0.0000 ( 21006 PWs)   bands (ev):

   -53.4486 -53.4226 -53.4062 -53.3724 -27.8229 -27.7955 -27.7794 -27.7473
   -27.5833 -27.5572 -27.5409 -27.5183 -27.5071 -27.4912 -27.4751 -27.4426
    -4.8490  -4.8157  -4.7973  -4.7560  -4.7076  -4.6740  -4.6512  -4.6134
     1.5097   1.5424   1.5759   1.6214   2.4525   2.4887   2.5418   2.6016
     3.2016   3.2594   3.3507   3.4180   4.2073   4.2426   4.2590   4.2922
     5.2350   5.3408   5.5067   5.6109   6.4125   6.4519   6.4961   6.5427
     6.6486   6.6989   6.7501   6.7966   9.6358   9.6651   9.6809   9.7154
    10.0780  10.1244  10.1677  10.2179  11.0633  11.1534

          k = 0.0625 0.1083 0.0000 ( 21269 PWs)   bands (ev):

   -53.4851 -53.4591 -53.4427 -53.4089 -27.6547 -27.6285 -27.6123 -27.5786
   -27.4713 -27.4443 -27.4372 -27.4281 -27.4102 -27.3956 -27.3940 -27.3614
    -6.6417  -6.5992  -6.5333  -6.4770  -5.5031  -5.4341  -5.3294  -5.2610
     1.5960   1.7479   2.0377   2.2323   4.4094   4.4448   4.4462   4.4618
     4.4879   4.7139   4.9679   5.0037   5.0169   5.0411   5.0524   5.2223
     5.5904   5.6245   5.6379   5.6659   6.0950   6.1707   6.3580   6.6396
     6.9580   7.2426   7.4806   7.5799   9.8843   9.9271   9.9336   9.9564
    10.0114  10.0181  10.0602  10.1051  10.1507  10.1897

          k = 0.0625 0.1804 0.0000 ( 21194 PWs)   bands (ev):

   -53.4796 -53.4536 -53.4372 -53.4034 -27.6439 -27.6177 -27.6015 -27.5678
   -27.5248 -27.4977 -27.4815 -27.4509 -27.4491 -27.4239 -27.4077 -27.3752
    -6.4180  -6.3761  -6.3118  -6.2559  -5.4008  -5.3353  -5.2387  -5.1737
     1.8277   1.9722   2.2547   2.4475   4.0271   4.0603   4.0738   4.0957
     4.1489   4.3619   4.6274   4.7594   5.1844   5.2139   5.2293   5.2332
     5.2541   5.2607   5.2769   5.3001   6.1440   6.2389   6.4345   6.6762
     6.8799   7.0721   7.2012   7.2597   9.4794   9.5807   9.6995   9.8186
     9.8574   9.9178   9.9548   9.9870  10.0114  10.0536

          k = 0.0625 0.2526 0.0000 ( 21202 PWs)   bands (ev):

   -53.4723 -53.4463 -53.4299 -53.3962 -27.6297 -27.6036 -27.5940 -27.5874
   -27.5668 -27.5536 -27.5507 -27.5183 -27.4689 -27.4418 -27.4256 -27.3931
    -6.1074  -6.0666  -6.0055  -5.9505  -5.2591  -5.1988  -5.1140  -5.0537
     2.0727   2.1983   2.4492   2.6194   3.6408   3.6725   3.6927   3.7213
     3.8130   3.9757   4.1520   4.2349   4.8455   4.8798   4.9020   4.9342
     5.4532   5.4885   5.5027   5.5315   6.0409   6.1447   6.3305   6.5159
     6.6759   6.7670   6.8156   6.8557   9.2090   9.3517   9.5341   9.6602
     9.7776   9.8215   9.8522   9.8858   9.9739  10.1234

          k = 0.0625 0.3248 0.0000 ( 21194 PWs)   bands (ev):

   -53.4645 -53.4385 -53.4221 -53.3883 -27.6681 -27.6408 -27.6247 -27.6144
   -27.5924 -27.5882 -27.5720 -27.5382 -27.4883 -27.4612 -27.4450 -27.4125
    -5.7415  -5.7025  -5.6472  -5.5941  -5.0937  -5.0397  -4.9701  -4.9155
     2.1579   2.2443   2.4086   2.5133   3.3208   3.3577   3.4244   3.5099
     3.5759   3.6694   3.6871   3.7381   4.5395   4.5795   4.6152   4.6540
     5.6895   5.7207   5.7389   5.7714   5.8296   5.9289   6.0984   6.2397
     6.4552   6.5006   6.5290   6.5657   9.1742   9.3173   9.4868   9.5732
     9.7120   9.7537   9.7939   9.9155  10.2292  10.3810

          k = 0.0625 0.3969 0.0000 ( 21151 PWs)   bands (ev):

   -53.4572 -53.4312 -53.4148 -53.3810 -27.7357 -27.7084 -27.6923 -27.6601
   -27.6001 -27.5740 -27.5578 -27.5240 -27.5061 -27.4790 -27.4628 -27.4303
    -5.3664  -5.3298  -5.2840  -5.2340  -4.9267  -4.8797  -4.8276  -4.7792
     1.9941   2.0462   2.1315   2.1937   2.9427   2.9965   3.0833   3.1562
     3.4136   3.4786   3.5761   3.6514   4.3416   4.3827   4.4191   4.4580
     5.5744   5.6707   5.8084   5.8353   5.8766   5.8904   5.9182   5.9874
     6.4668   6.5030   6.5290   6.5631   9.3147   9.4240   9.5387   9.6011
     9.7531   9.7950   9.8641   9.9945  10.5675  10.7037

          k = 0.0625 0.4691 0.0000 ( 21105 PWs)   bands (ev):

   -53.4516 -53.4257 -53.4092 -53.3754 -27.7871 -27.7597 -27.7436 -27.7114
   -27.5892 -27.5631 -27.5469 -27.5197 -27.5131 -27.4926 -27.4764 -27.4439
    -5.0456  -5.0112  -4.9789  -4.9330  -4.7868  -4.7468  -4.7120  -4.6695
     1.7512   1.7889   1.8370   1.8855   2.6231   2.6661   2.7267   2.7840
     3.3208   3.3793   3.4764   3.5490   4.2361   4.2717   4.2977   4.3338
     5.3859   5.4822   5.6323   5.7333   5.9605   5.9943   6.0285   6.0764
     6.6400   6.6770   6.7092   6.7471   9.5149   9.5755   9.6306   9.6754
     9.8907   9.9376  10.0217  10.1189  10.8823  10.9938

          k = 0.0625 0.5413 0.0000 ( 21084 PWs)   bands (ev):

   -53.4486 -53.4226 -53.4062 -53.3724 -27.8147 -27.7873 -27.7712 -27.7390
   -27.5833 -27.5572 -27.5410 -27.5270 -27.5071 -27.4999 -27.4837 -27.4513
    -4.8545  -4.8211  -4.8014  -4.7596  -4.7052  -4.6709  -4.6473  -4.6091
     1.5899   1.6228   1.6575   1.7033   2.4437   2.4790   2.5260   2.5818
     3.2339   3.2916   3.3845   3.4530   4.1936   4.2260   4.2401   4.2736
     5.2831   5.3801   5.5289   5.6235   6.0540   6.0900   6.1264   6.1743
     6.7943   6.8340   6.8719   6.9133   9.6338   9.6604   9.6799   9.7133
    10.0709  10.1183  10.1738  10.2313  11.1106  11.1900

          k = 0.1250 0.2165 0.0000 ( 21179 PWs)   bands (ev):

   -53.4734 -53.4474 -53.4310 -53.3973 -27.6319 -27.6057 -27.5895 -27.5800
   -27.5558 -27.5528 -27.5367 -27.5043 -27.4698 -27.4427 -27.4265 -27.3940
    -6.1565  -6.1155  -6.0537  -5.9985  -5.2811  -5.2199  -5.1331  -5.0721
     2.0537   2.1847   2.4469   2.6265   3.7089   3.7369   3.7537   3.7812
     3.9150   4.1093   4.3259   4.4223   4.7071   4.7411   4.7616   4.7916
     5.3737   5.4086   5.4221   5.4503   6.2259   6.3148   6.4753   6.6506
     6.7394   6.8458   6.8855   6.9249   9.1986   9.3322   9.4960   9.6168
     9.7798   9.7934   9.8314   9.8516   9.9074  10.0549

          k = 0.1250 0.2887 0.0000 ( 21199 PWs)   bands (ev):

   -53.4662 -53.4402 -53.4238 -53.3900 -27.6434 -27.6177 -27.6161 -27.6000
   -27.5916 -27.5753 -27.5676 -27.5416 -27.4930 -27.4660 -27.4498 -27.4173
    -5.8251  -5.7856  -5.7286  -5.6749  -5.1297  -5.0741  -5.0007  -4.9447
     2.2091   2.3102   2.5085   2.6358   3.4714   3.5034   3.5189   3.6065
     3.6823   3.8035   3.8808   3.9247   4.2708   4.3236   4.4029   4.4686
     5.4788   5.5121   5.5279   5.5616   6.1529   6.2337   6.3642   6.4834
     6.5605   6.5894   6.6094   6.6395   9.0395   9.1874   9.3728   9.4901
     9.7712   9.7905   9.8229   9.8932   9.9849  10.1527

          k = 0.1250 0.3608 0.0000 ( 21195 PWs)   bands (ev):

   -53.4589 -53.4329 -53.4165 -53.3827 -27.7056 -27.6783 -27.6622 -27.6299
   -27.6035 -27.5774 -27.5611 -27.5273 -27.5167 -27.4896 -27.4734 -27.4410
    -5.4619  -5.4245  -5.3754  -5.3243  -4.9649  -4.9158  -4.8583  -4.8081
     2.1539   2.2182   2.3321   2.4073   3.1422   3.1874   3.2515   3.3130
     3.5013   3.5591   3.6413   3.7225   4.0740   4.1624   4.2694   4.3348
     5.4226   5.4555   5.4747   5.5132   5.9365   6.0048   6.1092   6.1955
     6.5235   6.5525   6.5675   6.6024   9.0797   9.2272   9.4279   9.5580
     9.8440   9.8697   9.9026   9.9870  10.2237  10.3680

          k = 0.1250 0.4330 0.0000 ( 21113 PWs)   bands (ev):

   -53.4527 -53.4268 -53.4104 -53.3765 -27.7577 -27.7304 -27.7143 -27.6821
   -27.5914 -27.5653 -27.5491 -27.5369 -27.5152 -27.5098 -27.4936 -27.4612
    -5.1201  -5.0851  -5.0479  -5.0005  -4.8114  -4.7691  -4.7289  -4.6846
     1.9667   2.0107   2.0762   2.1305   2.7229   2.7601   2.7999   2.8461
     3.4483   3.5009   3.5966   3.6767   4.0485   4.1289   4.2219   4.2812
     5.3709   5.4079   5.4477   5.4956   5.6656   5.7267   5.8212   5.8972
     6.6616   6.6924   6.7095   6.7445   9.2930   9.4210   9.6056   9.7278
     9.9549   9.9830  10.0135  10.0619  10.5401  10.6502

          k = 0.1250 0.5052 0.0000 ( 21081 PWs)   bands (ev):

   -53.4486 -53.4226 -53.4062 -53.3724 -27.7923 -27.7649 -27.7488 -27.7167
   -27.5833 -27.5572 -27.5504 -27.5410 -27.5233 -27.5072 -27.5071 -27.4747
    -4.8676  -4.8340  -4.8111  -4.7682  -4.6994  -4.6636  -4.6378  -4.5988
     1.8007   1.8353   1.8763   1.9239   2.4266   2.4581   2.4887   2.5352
     3.3323   3.3897   3.4845   3.5545   4.1025   4.1578   4.2183   4.2659
     5.3707   5.4285   5.4645   5.4910   5.5144   5.5528   5.6028   5.6819
     6.8471   6.8823   6.9103   6.9489   9.5194   9.5896   9.6711   9.7287
    10.1040  10.1445  10.1973  10.2628  10.8307  10.8938

          k = 0.1250 0.5774 0.0000 ( 21108 PWs)   bands (ev):

   -53.4472 -53.4212 -53.4048 -53.3710 -27.8044 -27.7770 -27.7609 -27.7287
   -27.5805 -27.5552 -27.5544 -27.5381 -27.5280 -27.5118 -27.5043 -27.4794
    -4.7725  -4.7393  -4.7235  -4.6836  -4.6576  -4.6257  -4.6049  -4.5686
     1.7368   1.7684   1.8009   1.8475   2.3212   2.3510   2.3794   2.4268
     3.2722   3.3304   3.4246   3.4926   4.1517   4.1856   4.2177   4.2588
     5.3099   5.3914   5.4463   5.4848   5.5026   5.5459   5.5544   5.6239
     6.9391   6.9778   7.0132   7.0547   9.6009   9.6260   9.6472   9.6825
    10.2153  10.2680  10.3147  10.3608  10.9613  11.0057

          k = 0.1875 0.3248 0.0000 ( 21195 PWs)   bands (ev):

   -53.4595 -53.4335 -53.4171 -53.3833 -27.6920 -27.6647 -27.6486 -27.6163
   -27.6047 -27.5785 -27.5623 -27.5285 -27.5235 -27.4964 -27.4802 -27.4477
    -5.4951  -5.4575  -5.4073  -5.3557  -4.9779  -4.9279  -4.8687  -4.8178
     2.2220   2.2928   2.4214   2.5037   3.2721   3.3059   3.3462   3.3886
     3.5435   3.5955   3.6614   3.7315   3.9215   4.0389   4.1817   4.2578
     5.2486   5.2810   5.3003   5.3393   6.1006   6.1562   6.2367   6.3069
     6.5299   6.5610   6.5762   6.6149   8.9904   9.1501   9.3741   9.5326
     9.8688   9.8822   9.9156   9.9676  10.0784  10.2345

          k = 0.1875 0.3969 0.0000 ( 21153 PWs)   bands (ev):

   -53.4533 -53.4274 -53.4110 -53.3772 -27.7340 -27.7066 -27.6905 -27.6583
   -27.5926 -27.5665 -27.5543 -27.5502 -27.5272 -27.5164 -27.5110 -27.4786
    -5.1611  -5.1256  -5.0859  -5.0376  -4.8236  -4.7800  -4.7367  -4.6914
     2.1302   2.1817   2.2657   2.3267   2.8112   2.8351   2.8547   2.8884
     3.5906   3.6261   3.6930   3.7793   3.9199   4.0340   4.1628   4.2322
     4.9314   4.9663   4.9942   5.0376   5.8812   5.9163   5.9654   6.0187
     6.6322   6.6660   6.6861   6.7257   9.1502   9.3081   9.5561   9.7644
     9.9843  10.0091  10.0265  10.0594  10.2632  10.3891

          k = 0.1875 0.4691 0.0000 ( 21101 PWs)   bands (ev):

   -53.4486 -53.4226 -53.4062 -53.3724 -27.7644 -27.7371 -27.7210 -27.6888
   -27.5833 -27.5793 -27.5573 -27.5521 -27.5410 -27.5359 -27.5072 -27.5035
    -4.8803  -4.8465  -4.8206  -4.7767  -4.6935  -4.6564  -4.6283  -4.5886
     2.0413   2.0814   2.1386   2.1907   2.4136   2.4387   2.4565   2.4917
     3.5068   3.5631   3.6488   3.7092   3.9944   4.0897   4.2040   4.2723
     4.7522   4.7953   4.8592   4.9185   5.5814   5.6289   5.6755   5.7295
     6.8327   6.8655   6.8820   6.9191   9.3760   9.4805   9.6280   9.7285
    10.1473  10.1805  10.2252  10.2995  10.4865  10.5651

          k = 0.1875 0.5413 0.0000 ( 21112 PWs)   bands (ev):

   -53.4461 -53.4201 -53.4037 -53.3699 -27.7804 -27.7530 -27.7369 -27.7048
   -27.5932 -27.5783 -27.5660 -27.5522 -27.5499 -27.5360 -27.5175 -27.5022
    -4.7157  -4.6827  -4.6684  -4.6302  -4.6165  -4.5862  -4.5666  -4.5316
     2.0032   2.0342   2.0694   2.1212   2.1970   2.2244   2.2419   2.2797
     3.3617   3.4219   3.5159   3.5790   4.1338   4.1896   4.2571   4.3127
     4.7123   4.7656   4.8465   4.9073   5.3677   5.4196   5.4739   5.5277
     7.0161   7.0507   7.0763   7.1158   9.4519   9.4901   9.5257   9.5674
    10.3368  10.3880  10.4587  10.5401  10.6166  10.6630

          k = 0.2500 0.4330 0.0000 ( 21125 PWs)   bands (ev):

   -53.4486 -53.4226 -53.4062 -53.3724 -27.7499 -27.7226 -27.7065 -27.6743
   -27.5942 -27.5833 -27.5670 -27.5573 -27.5508 -27.5410 -27.5185 -27.5072
    -4.8855  -4.8516  -4.8245  -4.7803  -4.6911  -4.6535  -4.6244  -4.5843
     2.1516   2.1961   2.2650   2.3188   2.4097   2.4305   2.4483   2.4741
     3.6903   3.7226   3.7456   3.8068   3.9895   4.0903   4.2134   4.2839
     4.4278   4.4623   4.4802   4.5170   5.6594   5.6903   5.6959   5.7625
     6.8161   6.8498   6.8651   6.9022   9.3161   9.4312   9.6006   9.7209
    10.1594  10.1894  10.2202  10.3076  10.3573  10.4679

          k = 0.2500 0.5052 0.0000 ( 21117 PWs)   bands (ev):

   -53.4455 -53.4195 -53.4031 -53.3693 -27.7547 -27.7273 -27.7112 -27.6790
   -27.6268 -27.5996 -27.5834 -27.5772 -27.5511 -27.5510 -27.5348 -27.5010
    -4.6876  -4.6546  -4.6405  -4.6035  -4.5920  -4.5629  -4.5435  -4.5092
     2.1080   2.1326   2.1451   2.1779   2.2599   2.3026   2.3507   2.3982
     3.5341   3.5944   3.6663   3.7051   4.0841   4.1155   4.1594   4.2017
     4.2414   4.2986   4.3543   4.4006   5.3792   5.4136   5.4405   5.5012
     7.0567   7.0887   7.1036   7.1400   9.3197   9.3658   9.4186   9.4682
    10.3085  10.3433  10.3732  10.4033  10.5528  10.6066

          k = 0.2500 0.5774 0.0000 ( 21116 PWs)   bands (ev):

   -53.4443 -53.4184 -53.4020 -53.3682 -27.7545 -27.7271 -27.7110 -27.6789
   -27.6400 -27.6128 -27.5966 -27.5750 -27.5643 -27.5489 -27.5327 -27.4988
    -4.6140  -4.5828  -4.5719  -4.5588  -4.5394  -4.5294  -4.5137  -4.4824
     2.0067   2.0305   2.0441   2.0762   2.3470   2.3762   2.4044   2.4475
     3.3765   3.4361   3.5164   3.5683   4.0535   4.0958   4.1724   4.2331
     4.2958   4.3487   4.3980   4.4401   5.2567   5.2891   5.3030   5.3640
     7.1830   7.2154   7.2342   7.2723   9.2505   9.2787   9.2955   9.3271
    10.3344  10.3699  10.4027  10.4248  10.7102  10.7461

          k = 0.3125 0.5413 0.0000 ( 21100 PWs)   bands (ev):

   -53.4437 -53.4178 -53.4014 -53.3675 -27.7335 -27.7061 -27.6900 -27.6684
   -27.6578 -27.6412 -27.6251 -27.5927 -27.5738 -27.5478 -27.5315 -27.4977
    -4.5780  -4.5491  -4.5386  -4.5348  -4.5139  -4.5044  -4.4939  -4.4639
     1.9378   1.9619   1.9760   2.0068   2.5741   2.6090   2.6448   2.6915
     3.3789   3.3900   3.4076   3.4386   3.8502   3.8725   3.8848   3.9041
     4.3523   4.4056   4.4515   4.4984   5.1715   5.2076   5.2296   5.2934
     7.2655   7.2962   7.3103   7.3469   9.1342   9.1640   9.1809   9.2120
    10.2687  10.2902  10.3087  10.3424  10.8081  10.8624

     the Fermi energy is     8.3450 ev

!    total energy              =   -1978.37152403 Ry
     total all-electron energy =    -38771.692369 Ry
     estimated scf accuracy    <          9.2E-10 Ry
     smearing contrib. (-TS)   =       0.00002950 Ry
     internal energy E=F+TS    =   -1978.37155353 Ry

     The total energy is F=E-TS. E is the sum of the following terms:
     one-electron contribution =   -1462.30038855 Ry
     hartree contribution      =     773.41477123 Ry
     xc contribution           =    -119.23179812 Ry
     ewald contribution        =      99.59680080 Ry
     one-center paw contrib.   =   -1269.85093889 Ry

     convergence has been achieved in  10 iterations

     Forces acting on atoms (cartesian axes, Ry/au):

     atom    1 type  2   force =     0.00000000    0.00000000    0.00045646
     atom    2 type  1   force =     0.00000000    0.00000000    0.00046392
     atom    3 type  2   force =     0.00000000   -0.00000000    0.00068906
     atom    4 type  2   force =     0.00000000   -0.00000000    0.00012602
     atom    5 type  1   force =     0.00000000    0.00000000    0.00061613
     atom    6 type  2   force =     0.00000000    0.00000000    0.00069805
     atom    7 type  2   force =     0.00000000    0.00000000   -0.00057195
     atom    8 type  1   force =     0.00000000    0.00000000   -0.00021668
     atom    9 type  2   force =     0.00000000    0.00000000   -0.00019136
     atom   10 type  2   force =     0.00000000    0.00000000   -0.00070510
     atom   11 type  1   force =     0.00000000    0.00000000   -0.00064768
     atom   12 type  2   force =     0.00000000    0.00000000   -0.00071687

     Total force =     0.001903     Total SCF correction =     0.000146
     Energy error            =      8.6E-06 Ry
     Gradient error          =      7.2E-04 Ry/Bohr

     number of scf cycles    =  19
     number of bfgs steps    =  15

     energy             old  =   -1978.3715153894 Ry
     energy             new  =   -1978.3715240335 Ry

     CASE: energy            _new < energy            _old

     new trust radius        =       0.0029579671 bohr
     new conv_thr            =       0.0000000010 Ry


ATOMIC_POSITIONS (crystal)
S                0.3333329921        0.6666669842       -0.1118976057
Mo               0.0000000000        0.0000000000       -0.0594805267
S                0.3333329921        0.6666669842       -0.0070379312
S                0.6666669842        0.3333329921        0.0982502142
Mo               0.3333329921        0.6666669842        0.1507489605
S                0.6666669842        0.3333329921        0.2032543541
S                0.0000000000        0.0000000000        0.3150560096
Mo               0.6666669842        0.3333329921        0.3675839582
S                0.0000000000        0.0000000000        0.4200864628
S                0.3333329921        0.6666669842        0.5270232309
Mo               0.0000000000        0.0000000000        0.5794994285
S                0.3333329921        0.6666669842        0.6319133712



     Writing config-only to output data dir ./tmp/relax2/mos2_slab2.save/ :
     XML data file
     NEW-OLD atomic charge density approx. for the potential

     total cpu time spent up to now is    47437.9 secs

     Self-consistent Calculation

     iteration #  1     ecut=    80.00 Ry     beta= 0.20
     Davidson diagonalization with overlap
     ethr =  1.00E-06,  avg # of iterations =  3.0

     Threshold (ethr) on eigenvalues was too large:
     Diagonalizing with lowered threshold

     Davidson diagonalization with overlap
     ethr =  5.36E-09,  avg # of iterations =  4.7

     total cpu time spent up to now is    47736.4 secs

     total energy              =   -1978.37153602 Ry
     estimated scf accuracy    <       0.00000157 Ry

     iteration #  2     ecut=    80.00 Ry     beta= 0.20
     Davidson diagonalization with overlap
     ethr =  1.51E-09,  avg # of iterations =  1.4

     total cpu time spent up to now is    47839.4 secs

     total energy              =   -1978.37153558 Ry
     estimated scf accuracy    <       0.00000120 Ry

     iteration #  3     ecut=    80.00 Ry     beta= 0.20
     Davidson diagonalization with overlap
     ethr =  1.15E-09,  avg # of iterations =  2.7

     total cpu time spent up to now is    47957.3 secs

     total energy              =   -1978.37153572 Ry
     estimated scf accuracy    <       0.00000003 Ry

     iteration #  4     ecut=    80.00 Ry     beta= 0.20
     Davidson diagonalization with overlap
     ethr =  3.03E-11,  avg # of iterations =  4.7

     total cpu time spent up to now is    48099.7 secs

     total energy              =   -1978.37153573 Ry
     estimated scf accuracy    <       0.00000003 Ry

     iteration #  5     ecut=    80.00 Ry     beta= 0.20
     Davidson diagonalization with overlap
     ethr =  2.43E-11,  avg # of iterations =  1.2

     total cpu time spent up to now is    48200.4 secs

     total energy              =   -1978.37153574 Ry
     estimated scf accuracy    <       0.00000002 Ry

     iteration #  6     ecut=    80.00 Ry     beta= 0.20
     Davidson diagonalization with overlap
     ethr =  1.82E-11,  avg # of iterations =  2.5

     total cpu time spent up to now is    48329.3 secs

     total energy              =   -1978.37153575 Ry
     estimated scf accuracy    <          6.8E-09 Ry

     iteration #  7     ecut=    80.00 Ry     beta= 0.20
     Davidson diagonalization with overlap
     ethr =  6.56E-12,  avg # of iterations =  1.1

     total cpu time spent up to now is    48428.7 secs

     total energy              =   -1978.37153575 Ry
     estimated scf accuracy    <          5.0E-09 Ry

     iteration #  8     ecut=    80.00 Ry     beta= 0.20
     Davidson diagonalization with overlap
     ethr =  4.77E-12,  avg # of iterations =  2.5

     total cpu time spent up to now is    48545.0 secs

     total energy              =   -1978.37153574 Ry
     estimated scf accuracy    <          4.2E-09 Ry

     iteration #  9     ecut=    80.00 Ry     beta= 0.20
     Davidson diagonalization with overlap
     ethr =  4.02E-12,  avg # of iterations =  1.1

     total cpu time spent up to now is    48644.6 secs

     total energy              =   -1978.37153574 Ry
     estimated scf accuracy    <          4.0E-09 Ry

     iteration # 10     ecut=    80.00 Ry     beta= 0.20
     Davidson diagonalization with overlap
     ethr =  3.89E-12,  avg # of iterations =  2.4

     total cpu time spent up to now is    48754.6 secs

     total energy              =   -1978.37153575 Ry
     estimated scf accuracy    <          4.6E-09 Ry

     iteration # 11     ecut=    80.00 Ry     beta= 0.20
     Davidson diagonalization with overlap
     ethr =  3.89E-12,  avg # of iterations =  3.0

     total cpu time spent up to now is    48882.0 secs

     total energy              =   -1978.37153575 Ry
     estimated scf accuracy    <          7.8E-09 Ry

     iteration # 12     ecut=    80.00 Ry     beta= 0.20
     Davidson diagonalization with overlap
     ethr =  3.89E-12,  avg # of iterations =  2.1

     total cpu time spent up to now is    48993.2 secs

     total energy              =   -1978.37153575 Ry
     estimated scf accuracy    <          1.7E-09 Ry

     iteration # 13     ecut=    80.00 Ry     beta= 0.20
     Davidson diagonalization with overlap
     ethr =  1.68E-12,  avg # of iterations =  2.0

     total cpu time spent up to now is    49103.2 secs

     total energy              =   -1978.37153575 Ry
     estimated scf accuracy    <          1.3E-09 Ry

     iteration # 14     ecut=    80.00 Ry     beta= 0.20
     Davidson diagonalization with overlap
     ethr =  1.26E-12,  avg # of iterations =  3.3

     total cpu time spent up to now is    49221.7 secs

     End of self-consistent calculation

          k = 0.0000 0.0000 0.0000 ( 21311 PWs)   bands (ev):

   -53.4899 -53.4635 -53.4470 -53.4135 -27.6639 -27.6372 -27.6209 -27.5876
   -27.4268 -27.4268 -27.3992 -27.3992 -27.3829 -27.3829 -27.3507 -27.3507
    -6.8183  -6.7752  -6.7085  -6.6518  -5.5841  -5.5121  -5.4011  -5.3299
     1.3948   1.5505   1.8423   2.0362   4.7855   4.7855   4.7919   4.8234
     4.8234   4.8369   4.8369   4.8589   4.8589   5.1547   5.7399   5.9013
     5.9013   5.9368   5.9368   5.9506   5.9506   5.9767   5.9768   6.2402
     6.9625   7.3077   7.6573   7.8121  10.1384  10.1384  10.1698  10.1698
    10.1881  10.1881  10.2292  10.2292  10.3459  10.3459

          k = 0.0000 0.0722 0.0000 ( 21283 PWs)   bands (ev):

   -53.4884 -53.4619 -53.4454 -53.4120 -27.6609 -27.6342 -27.6178 -27.5845
   -27.4423 -27.4303 -27.4147 -27.4027 -27.3984 -27.3864 -27.3663 -27.3543
    -6.7587  -6.7157  -6.6493  -6.5927  -5.5568  -5.4857  -5.3768  -5.3065
     1.4641   1.6186   1.9101   2.1045   4.6475   4.6596   4.6878   4.7016
     4.7246   4.8478   4.8856   4.8992   4.9215   4.9708   5.3847   5.5789
     5.8042   5.8399   5.8538   5.8806   5.9999   6.0496   6.1916   6.4844
     6.9668   7.2944   7.6045   7.7381  10.0614  10.0906  10.1057  10.1419
    10.1889  10.2232  10.2276  10.2482  10.2642  10.2800

          k = 0.0000 0.1443 0.0000 ( 21263 PWs)   bands (ev):

   -53.4839 -53.4575 -53.4410 -53.4075 -27.6522 -27.6255 -27.6092 -27.5759
   -27.4864 -27.4587 -27.4425 -27.4403 -27.4128 -27.4104 -27.3965 -27.3643
    -6.5848  -6.5423  -6.4767  -6.4204  -5.4772  -5.4089  -5.3062  -5.2385
     1.6571   1.8073   2.0958   2.2909   4.2985   4.3365   4.3409   4.3554
     4.3819   4.5977   4.9030   5.0273   5.0566   5.0649   5.0783   5.1017
     5.5532   5.5892   5.6033   5.6315   6.0573   6.1469   6.3537   6.6350
     6.9422   7.2004   7.4094   7.4971   9.7557   9.8219   9.8826   9.9285
     9.9826  10.0467  10.0585  10.0834  10.1068  10.1212

          k = 0.0000 0.2165 0.0000 ( 21233 PWs)   bands (ev):

   -53.4773 -53.4509 -53.4344 -53.4009 -27.6392 -27.6126 -27.5962 -27.5629
   -27.5518 -27.5241 -27.5078 -27.4758 -27.4553 -27.4277 -27.4114 -27.3793
    -6.3117  -6.2699  -6.2065  -6.1508  -5.3524  -5.2885  -5.1959  -5.1324
     1.9189   2.0576   2.3315   2.5197   3.8652   3.8998   3.9145   3.9344
     3.9951   4.1771   4.3983   4.5078   5.2278   5.2633   5.2766   5.3024
     5.3080   5.3394   5.3541   5.3782   5.9680   6.0857   6.3095   6.5458
     6.8047   6.9505   7.0516   7.1034   9.3654   9.4907   9.6553   9.8342
     9.8625   9.9030   9.9509   9.9580  10.0035  10.0905

          k = 0.0000 0.2887 0.0000 ( 21197 PWs)   bands (ev):

   -53.4694 -53.4430 -53.4265 -53.3930 -27.6281 -27.6239 -27.6003 -27.5972
   -27.5840 -27.5809 -27.5521 -27.5475 -27.4729 -27.4453 -27.4290 -27.3969
    -5.9649  -5.9245  -5.8654  -5.8109  -5.1951  -5.1371  -5.0581  -4.9999
     2.1187   2.2284   2.4452   2.5886   3.4822   3.5135   3.5523   3.5983
     3.6748   3.7824   3.9030   3.9661   4.8996   4.9359   4.9509   4.9819
     5.6270   5.6640   5.6795   5.7091   5.7535   5.8859   6.1064   6.2922
     6.5396   6.6087   6.6541   6.6952   9.2280   9.3845   9.6067   9.6733
     9.7136   9.7598   9.8113   9.8272  10.1714  10.3253

          k = 0.0000 0.3608 0.0000 ( 21187 PWs)   bands (ev):

   -53.4616 -53.4352 -53.4187 -53.3852 -27.7035 -27.6756 -27.6594 -27.6275
   -27.6085 -27.5819 -27.5655 -27.5321 -27.4905 -27.4629 -27.4466 -27.4145
    -5.5830  -5.5447  -5.4930  -5.4410  -5.0243  -4.9731  -4.9107  -4.8587
     2.0741   2.1409   2.2609   2.3405   3.1199   3.1760   3.2768   3.3878
     3.4409   3.5304   3.5998   3.6600   4.6114   4.6478   4.6634   4.6951
     5.5226   5.6533   5.8590   5.9484   5.9852   6.0061   6.0105   6.0413
     6.3237   6.3810   6.4241   6.4647   9.3489   9.4949   9.5680   9.6055
     9.6427   9.6909   9.7125   9.9121  10.4972  10.6505

          k = 0.0000 0.4330 0.0000 ( 21140 PWs)   bands (ev):

   -53.4549 -53.4285 -53.4120 -53.3785 -27.7667 -27.7388 -27.7226 -27.6908
   -27.5954 -27.5688 -27.5525 -27.5190 -27.5053 -27.4777 -27.4614 -27.4293
    -5.2212  -5.1852  -5.1451  -5.0969  -4.8659  -4.8218  -4.7775  -4.7319
     1.8331   1.8760   1.9379   1.9908   2.7769   2.8296   2.9148   2.9846
     3.3461   3.4100   3.5096   3.5824   4.3908   4.4273   4.4433   4.4755
     5.3530   5.4727   5.6614   5.7907   6.2053   6.2427   6.2735   6.3142
     6.3412   6.4065   6.4712   6.5196   9.5600   9.5939   9.6178   9.6184
     9.6614   9.7288   9.8991  10.0459  10.8045  10.9396

          k = 0.0000 0.5052 0.0000 ( 21078 PWs)   bands (ev):

   -53.4504 -53.4240 -53.4075 -53.3740 -27.8086 -27.7806 -27.7644 -27.7327
   -27.5866 -27.5601 -27.5437 -27.5152 -27.5102 -27.4876 -27.4713 -27.4392
    -4.9516  -4.9172  -4.8913  -4.8477  -4.7507  -4.7132  -4.6843  -4.6443
     1.6017   1.6365   1.6754   1.7215   2.5377   2.5792   2.6409   2.7014
     3.2484   3.3072   3.4011   3.4703   4.2532   4.2897   4.3060   4.3384
     5.2619   5.3719   5.5450   5.6565   6.3614   6.4004   6.4407   6.4856
     6.5308   6.5924   6.6580   6.7094   9.6073   9.6382   9.6552   9.6921
     9.9175   9.9862  10.0888  10.1762  10.9999  11.1084

          k = 0.0000-0.5774 0.0000 ( 21006 PWs)   bands (ev):

   -53.4488 -53.4225 -53.4059 -53.3724 -27.8233 -27.7953 -27.7791 -27.7474
   -27.5836 -27.5570 -27.5406 -27.5187 -27.5072 -27.4910 -27.4747 -27.4427
    -4.8495  -4.8155  -4.7971  -4.7561  -4.7080  -4.6739  -4.6509  -4.6135
     1.5093   1.5424   1.5760   1.6212   2.4523   2.4887   2.5419   2.6016
     3.2014   3.2593   3.3507   3.4182   4.2065   4.2430   4.2594   4.2919
     5.2349   5.3409   5.5069   5.6112   6.4121   6.4519   6.4962   6.5427
     6.6485   6.6989   6.7502   6.7967   9.6354   9.6653   9.6812   9.7153
    10.0779  10.1244  10.1679  10.2180  11.0632  11.1536

          k = 0.0625 0.1083 0.0000 ( 21269 PWs)   bands (ev):

   -53.4854 -53.4589 -53.4424 -53.4090 -27.6550 -27.6283 -27.6120 -27.5787
   -27.4717 -27.4441 -27.4375 -27.4278 -27.4100 -27.3956 -27.3937 -27.3615
    -6.6419  -6.5992  -6.5334  -6.4769  -5.5033  -5.4341  -5.3293  -5.2608
     1.5957   1.7476   2.0374   2.2327   4.4084   4.4444   4.4468   4.4624
     4.4872   4.7139   4.9668   5.0043   5.0175   5.0404   5.0523   5.2226
     5.5895   5.6251   5.6384   5.6654   6.0950   6.1706   6.3579   6.6399
     6.9581   7.2430   7.4810   7.5804   9.8844   9.9272   9.9335   9.9568
    10.0115  10.0181  10.0602  10.1055  10.1507  10.1897

          k = 0.0625 0.1804 0.0000 ( 21194 PWs)   bands (ev):

   -53.4798 -53.4534 -53.4369 -53.4034 -27.6442 -27.6175 -27.6012 -27.5678
   -27.5252 -27.4975 -27.4812 -27.4513 -27.4492 -27.4237 -27.4074 -27.3752
    -6.4183  -6.3762  -6.3118  -6.2558  -5.4010  -5.3353  -5.2387  -5.1735
     1.8274   1.9718   2.2544   2.4479   4.0261   4.0608   4.0742   4.0953
     4.1485   4.3618   4.6273   4.7597   5.1833   5.2140   5.2293   5.2334
     5.2539   5.2611   5.2772   5.2996   6.1440   6.2389   6.4345   6.6764
     6.8800   7.0723   7.2014   7.2601   9.4794   9.5810   9.6997   9.8186
     9.8576   9.9177   9.9549   9.9871  10.0116  10.0537

          k = 0.0625 0.2526 0.0000 ( 21202 PWs)   bands (ev):

   -53.4726 -53.4462 -53.4297 -53.3962 -27.6300 -27.6034 -27.5944 -27.5871
   -27.5666 -27.5537 -27.5504 -27.5184 -27.4692 -27.4416 -27.4253 -27.3932
    -6.1077  -6.0667  -6.0055  -5.9505  -5.2593  -5.1988  -5.1140  -5.0536
     2.0724   2.1979   2.4489   2.6198   3.6402   3.6726   3.6931   3.7210
     3.8127   3.9756   4.1520   4.2352   4.8448   4.8801   4.9023   4.9339
     5.4523   5.4890   5.5032   5.5310   6.0409   6.1447   6.3306   6.5161
     6.6759   6.7670   6.8157   6.8560   9.2090   9.3519   9.5343   9.6603
     9.7775   9.8216   9.8523   9.8859   9.9740  10.1235

          k = 0.0625 0.3248 0.0000 ( 21194 PWs)   bands (ev):

   -53.4647 -53.4383 -53.4218 -53.3883 -27.6684 -27.6406 -27.6243 -27.6147
   -27.5925 -27.5880 -27.5717 -27.5383 -27.4886 -27.4610 -27.4447 -27.4126
    -5.7418  -5.7026  -5.6472  -5.5940  -5.0939  -5.0397  -4.9700  -4.9153
     2.1577   2.2439   2.4082   2.5135   3.3205   3.3576   3.4246   3.5093
     3.5757   3.6696   3.6873   3.7383   4.5391   4.5795   4.6154   4.6540
     5.6888   5.7210   5.7393   5.7711   5.8295   5.9289   6.0985   6.2400
     6.4551   6.5007   6.5292   6.5658   9.1742   9.3175   9.4869   9.5734
     9.7120   9.7538   9.7940   9.9157  10.2293  10.3812

          k = 0.0625 0.3969 0.0000 ( 21151 PWs)   bands (ev):

   -53.4574 -53.4310 -53.4145 -53.3810 -27.7361 -27.7082 -27.6920 -27.6602
   -27.6004 -27.5738 -27.5575 -27.5240 -27.5064 -27.4788 -27.4625 -27.4304
    -5.3668  -5.3298  -5.2840  -5.2340  -4.9269  -4.8797  -4.8275  -4.7791
     1.9940   2.0460   2.1313   2.1937   2.9425   2.9964   3.0832   3.1562
     3.4134   3.4785   3.5761   3.6516   4.3412   4.3828   4.4193   4.4579
     5.5743   5.6708   5.8085   5.8346   5.8770   5.8904   5.9184   5.9875
     6.4665   6.5031   6.5292   6.5630   9.3146   9.4241   9.5388   9.6013
     9.7531   9.7952   9.8642   9.9948  10.5675  10.7039

          k = 0.0625 0.4691 0.0000 ( 21105 PWs)   bands (ev):

   -53.4519 -53.4255 -53.4090 -53.3755 -27.7874 -27.7594 -27.7432 -27.7115
   -27.5895 -27.5629 -27.5466 -27.5200 -27.5131 -27.4924 -27.4761 -27.4440
    -5.0460  -5.0111  -4.9788  -4.9331  -4.7871  -4.7467  -4.7118  -4.6695
     1.7510   1.7888   1.8369   1.8855   2.6229   2.6661   2.7267   2.7839
     3.3207   3.3792   3.4764   3.5492   4.2355   4.2719   4.2980   4.3336
     5.3858   5.4823   5.6324   5.7335   5.9601   5.9944   6.0286   6.0764
     6.6397   6.6770   6.7093   6.7471   9.5149   9.5755   9.6307   9.6755
     9.8907   9.9377  10.0218  10.1191  10.8824  10.9939

          k = 0.0625 0.5413 0.0000 ( 21084 PWs)   bands (ev):

   -53.4488 -53.4225 -53.4059 -53.3724 -27.8150 -27.7870 -27.7708 -27.7391
   -27.5836 -27.5570 -27.5407 -27.5274 -27.5072 -27.4997 -27.4834 -27.4513
    -4.8551  -4.8209  -4.8012  -4.7597  -4.7056  -4.6708  -4.6470  -4.6092
     1.5896   1.6228   1.6575   1.7032   2.4434   2.4790   2.5261   2.5817
     3.2336   3.2915   3.3844   3.4531   4.1928   4.2264   4.2406   4.2731
     5.2829   5.3802   5.5290   5.6237   6.0537   6.0901   6.1265   6.1743
     6.7941   6.8341   6.8720   6.9133   9.6336   9.6605   9.6802   9.7132
    10.0708  10.1183  10.1739  10.2315  11.1106  11.1901

          k = 0.1250 0.2165 0.0000 ( 21179 PWs)   bands (ev):

   -53.4737 -53.4473 -53.4308 -53.3973 -27.6322 -27.6055 -27.5892 -27.5804
   -27.5558 -27.5526 -27.5364 -27.5044 -27.4701 -27.4425 -27.4262 -27.3940
    -6.1568  -6.1156  -6.0537  -5.9985  -5.2813  -5.2199  -5.1331  -5.0719
     2.0534   2.1843   2.4466   2.6268   3.7081   3.7373   3.7542   3.7807
     3.9148   4.1092   4.3259   4.4226   4.7063   4.7416   4.7619   4.7913
     5.3727   5.4091   5.4226   5.4497   6.2258   6.3148   6.4753   6.6506
     6.7395   6.8458   6.8856   6.9252   9.1987   9.3324   9.4962   9.6170
     9.7797   9.7934   9.8314   9.8518   9.9075  10.0551

          k = 0.1250 0.2887 0.0000 ( 21199 PWs)   bands (ev):

   -53.4664 -53.4400 -53.4235 -53.3900 -27.6437 -27.6180 -27.6159 -27.5996
   -27.5914 -27.5750 -27.5677 -27.5416 -27.4934 -27.4657 -27.4494 -27.4174
    -5.8254  -5.7857  -5.7286  -5.6749  -5.1299  -5.0741  -5.0006  -4.9445
     2.2089   2.3098   2.5081   2.6360   3.4709   3.5033   3.5192   3.6061
     3.6820   3.8035   3.8810   3.9248   4.2706   4.3235   4.4029   4.4688
     5.4781   5.5125   5.5283   5.5612   6.1528   6.2338   6.3642   6.4835
     6.5604   6.5895   6.6096   6.6395   9.0395   9.1876   9.3730   9.4903
     9.7712   9.7905   9.8231   9.8931   9.9851  10.1529

          k = 0.1250 0.3608 0.0000 ( 21195 PWs)   bands (ev):

   -53.4592 -53.4328 -53.4162 -53.3827 -27.7060 -27.6781 -27.6618 -27.6300
   -27.6038 -27.5772 -27.5608 -27.5274 -27.5171 -27.4894 -27.4731 -27.4410
    -5.4622  -5.4246  -5.3755  -5.3243  -4.9651  -4.9158  -4.8583  -4.8080
     2.1537   2.2179   2.3319   2.4074   3.1420   3.1873   3.2514   3.3129
     3.5012   3.5591   3.6412   3.7227   4.0739   4.1623   4.2695   4.3350
     5.4221   5.4556   5.4750   5.5130   5.9365   6.0048   6.1093   6.1957
     6.5230   6.5528   6.5679   6.6022   9.0796   9.2274   9.4280   9.5582
     9.8439   9.8698   9.9027   9.9871  10.2238  10.3682

          k = 0.1250 0.4330 0.0000 ( 21113 PWs)   bands (ev):

   -53.4530 -53.4266 -53.4101 -53.3766 -27.7581 -27.7301 -27.7139 -27.6822
   -27.5917 -27.5651 -27.5488 -27.5372 -27.5153 -27.5096 -27.4933 -27.4612
    -5.1205  -5.0850  -5.0479  -5.0005  -4.8117  -4.7691  -4.7288  -4.6846
     1.9665   2.0105   2.0761   2.1305   2.7227   2.7601   2.8001   2.8460
     3.4481   3.5008   3.5964   3.6769   4.0484   4.1288   4.2220   4.2813
     5.3706   5.4079   5.4478   5.4956   5.6655   5.7268   5.8213   5.8974
     6.6611   6.6927   6.7098   6.7443   9.2929   9.4212   9.6057   9.7280
     9.9547   9.9832  10.0136  10.0620  10.5401  10.6504

          k = 0.1250 0.5052 0.0000 ( 21081 PWs)   bands (ev):

   -53.4489 -53.4225 -53.4059 -53.3724 -27.7927 -27.7647 -27.7485 -27.7168
   -27.5836 -27.5570 -27.5507 -27.5407 -27.5231 -27.5072 -27.5068 -27.4747
    -4.8681  -4.8339  -4.8109  -4.7683  -4.6997  -4.6635  -4.6375  -4.5989
     1.8004   1.8353   1.8763   1.9238   2.4262   2.4582   2.4889   2.5351
     3.3321   3.3896   3.4844   3.5546   4.1023   4.1577   4.2183   4.2659
     5.3705   5.4284   5.4644   5.4910   5.5146   5.5528   5.6029   5.6821
     6.8468   6.8824   6.9106   6.9489   9.5193   9.5896   9.6711   9.7288
    10.1039  10.1446  10.1974  10.2630  10.8306  10.8939

          k = 0.1250 0.5774 0.0000 ( 21108 PWs)   bands (ev):

   -53.4474 -53.4210 -53.4045 -53.3710 -27.8047 -27.7767 -27.7605 -27.7289
   -27.5807 -27.5555 -27.5542 -27.5378 -27.5278 -27.5115 -27.5043 -27.4795
    -4.7730  -4.7391  -4.7234  -4.6838  -4.6581  -4.6255  -4.6046  -4.5688
     1.7365   1.7684   1.8009   1.8474   2.3208   2.3511   2.3796   2.4266
     3.2720   3.3303   3.4245   3.4927   4.1512   4.1857   4.2179   4.2586
     5.3097   5.3914   5.4461   5.4848   5.5026   5.5460   5.5546   5.6241
     6.9389   6.9779   7.0133   7.0547   9.6007   9.6261   9.6474   9.6825
    10.2152  10.2680  10.3148  10.3609  10.9611  11.0058

          k = 0.1875 0.3248 0.0000 ( 21195 PWs)   bands (ev):

   -53.4598 -53.4334 -53.4168 -53.3833 -27.6924 -27.6645 -27.6483 -27.6164
   -27.6050 -27.5783 -27.5620 -27.5286 -27.5238 -27.4962 -27.4799 -27.4478
    -5.4954  -5.4575  -5.4073  -5.3557  -4.9781  -4.9280  -4.8686  -4.8177
     2.2218   2.2924   2.4212   2.5039   3.2719   3.3058   3.3460   3.3885
     3.5434   3.5954   3.6613   3.7315   3.9214   4.0389   4.1818   4.2581
     5.2480   5.2812   5.3006   5.3391   6.1006   6.1562   6.2367   6.3071
     6.5294   6.5612   6.5766   6.6148   8.9904   9.1503   9.3742   9.5329
     9.8687   9.8823   9.9157   9.9676  10.0785  10.2347

          k = 0.1875 0.3969 0.0000 ( 21153 PWs)   bands (ev):

   -53.4536 -53.4272 -53.4107 -53.3772 -27.7343 -27.7064 -27.6902 -27.6584
   -27.5929 -27.5663 -27.5547 -27.5499 -27.5270 -27.5165 -27.5107 -27.4787
    -5.1614  -5.1256  -5.0859  -5.0377  -4.8239  -4.7800  -4.7366  -4.6913
     2.1300   2.1815   2.2655   2.3268   2.8107   2.8352   2.8551   2.8880
     3.5904   3.6262   3.6928   3.7791   3.9199   4.0340   4.1630   4.2325
     4.9311   4.9664   4.9944   5.0376   5.8812   5.9164   5.9654   6.0189
     6.6317   6.6662   6.6864   6.7256   9.1501   9.3083   9.5562   9.7647
     9.9839  10.0093  10.0268  10.0594  10.2632  10.3892

          k = 0.1875 0.4691 0.0000 ( 21101 PWs)   bands (ev):

   -53.4489 -53.4225 -53.4059 -53.3724 -27.7648 -27.7368 -27.7206 -27.6889
   -27.5836 -27.5796 -27.5571 -27.5519 -27.5407 -27.5356 -27.5072 -27.5036
    -4.8808  -4.8464  -4.8205  -4.7768  -4.6939  -4.6563  -4.6281  -4.5886
     2.0410   2.0813   2.1385   2.1907   2.4129   2.4389   2.4570   2.4914
     3.5066   3.5630   3.6486   3.7093   3.9943   4.0897   4.2041   4.2725
     4.7520   4.7953   4.8592   4.9186   5.5813   5.6289   5.6756   5.7297
     6.8322   6.8658   6.8823   6.9189   9.3759   9.4806   9.6280   9.7287
    10.1472  10.1807  10.2252  10.2996  10.4865  10.5652

          k = 0.1875 0.5413 0.0000 ( 21112 PWs)   bands (ev):

   -53.4463 -53.4199 -53.4034 -53.3699 -27.7808 -27.7528 -27.7366 -27.7049
   -27.5935 -27.5786 -27.5658 -27.5521 -27.5495 -27.5357 -27.5175 -27.5022
    -4.7163  -4.6824  -4.6682  -4.6304  -4.6169  -4.5861  -4.5662  -4.5318
     2.0029   2.0343   2.0694   2.1211   2.1962   2.2247   2.2424   2.2793
     3.3615   3.4218   3.5158   3.5791   4.1336   4.1896   4.2571   4.3127
     4.7121   4.7655   4.8465   4.9074   5.3677   5.4197   5.4740   5.5279
     7.0158   7.0509   7.0765   7.1157   9.4518   9.4901   9.5258   9.5674
    10.3367  10.3880  10.4588  10.5402  10.6167  10.6631

          k = 0.2500 0.4330 0.0000 ( 21125 PWs)   bands (ev):

   -53.4489 -53.4225 -53.4059 -53.3724 -27.7503 -27.7223 -27.7061 -27.6744
   -27.5945 -27.5836 -27.5668 -27.5571 -27.5505 -27.5407 -27.5185 -27.5072
    -4.8859  -4.8515  -4.8245  -4.7803  -4.6914  -4.6534  -4.6242  -4.5844
     2.1514   2.1960   2.2648   2.3189   2.4089   2.4310   2.4487   2.4737
     3.6901   3.7228   3.7452   3.8066   3.9894   4.0904   4.2135   4.2842
     4.4274   4.4623   4.4805   4.5169   5.6592   5.6903   5.6961   5.7627
     6.8156   6.8501   6.8655   6.9020   9.3159   9.4312   9.6007   9.7211
    10.1592  10.1895  10.2203  10.3077  10.3573  10.4680

          k = 0.2500 0.5052 0.0000 ( 21117 PWs)   bands (ev):

   -53.4457 -53.4193 -53.4028 -53.3693 -27.7550 -27.7271 -27.7109 -27.6791
   -27.6271 -27.5993 -27.5831 -27.5774 -27.5511 -27.5509 -27.5345 -27.5010
    -4.6882  -4.6543  -4.6403  -4.6037  -4.5924  -4.5627  -4.5431  -4.5093
     2.1072   2.1329   2.1455   2.1775   2.2596   2.3025   2.3508   2.3982
     3.5339   3.5942   3.6662   3.7051   4.0840   4.1154   4.1592   4.2018
     4.2414   4.2986   4.3545   4.4008   5.3791   5.4137   5.4406   5.5015
     7.0562   7.0890   7.1040   7.1398   9.3196   9.3658   9.4186   9.4683
    10.3083  10.3432  10.3735  10.4035  10.5530  10.6068

          k = 0.2500 0.5774 0.0000 ( 21116 PWs)   bands (ev):

   -53.4446 -53.4182 -53.4017 -53.3682 -27.7549 -27.7269 -27.7107 -27.6790
   -27.6403 -27.6126 -27.5963 -27.5753 -27.5644 -27.5487 -27.5324 -27.4989
    -4.6147  -4.5826  -4.5717  -4.5592  -4.5394  -4.5293  -4.5134  -4.4826
     2.0059   2.0309   2.0445   2.0758   2.3467   2.3762   2.4045   2.4473
     3.3763   3.4359   3.5163   3.5684   4.0533   4.0957   4.1721   4.2333
     4.2958   4.3487   4.3981   4.4403   5.2567   5.2892   5.3031   5.3642
     7.1826   7.2156   7.2345   7.2722   9.2500   9.2790   9.2959   9.3269
    10.3341  10.3699  10.4029  10.4252  10.7103  10.7463

          k = 0.3125 0.5413 0.0000 ( 21100 PWs)   bands (ev):

   -53.4440 -53.4176 -53.4011 -53.3676 -27.7338 -27.7058 -27.6896 -27.6688
   -27.6579 -27.6410 -27.6247 -27.5928 -27.5741 -27.5476 -27.5312 -27.4977
    -4.5787  -4.5489  -4.5388  -4.5347  -4.5137  -4.5045  -4.4938  -4.4642
     1.9369   1.9624   1.9765   2.0063   2.5738   2.6090   2.6449   2.6914
     3.3787   3.3899   3.4078   3.4384   3.8502   3.8721   3.8849   3.9040
     4.3522   4.4056   4.4516   4.4985   5.1714   5.2077   5.2297   5.2936
     7.2650   7.2965   7.3106   7.3467   9.1336   9.1643   9.1813   9.2117
    10.2684  10.2901  10.3089  10.3428  10.8081  10.8627

     the Fermi energy is     8.3452 ev

!    total energy              =   -1978.37153575 Ry
     total all-electron energy =    -38771.692381 Ry
     estimated scf accuracy    <          8.0E-10 Ry
     smearing contrib. (-TS)   =       0.00002962 Ry
     internal energy E=F+TS    =   -1978.37156537 Ry

     The total energy is F=E-TS. E is the sum of the following terms:
     one-electron contribution =   -1463.65848864 Ry
     hartree contribution      =     774.09323008 Ry
     xc contribution           =    -119.23207686 Ry
     ewald contribution        =     100.27672805 Ry
     one-center paw contrib.   =   -1269.85095799 Ry

     convergence has been achieved in  14 iterations

     Forces acting on atoms (cartesian axes, Ry/au):

     atom    1 type  2   force =     0.00000000    0.00000000    0.00038026
     atom    2 type  1   force =     0.00000000    0.00000000    0.00042410
     atom    3 type  2   force =     0.00000000    0.00000000    0.00077907
     atom    4 type  2   force =     0.00000000    0.00000000    0.00009627
     atom    5 type  1   force =     0.00000000    0.00000000    0.00074702
     atom    6 type  2   force =     0.00000000    0.00000000    0.00056976
     atom    7 type  2   force =     0.00000000    0.00000000   -0.00052887
     atom    8 type  1   force =     0.00000000    0.00000000   -0.00015404
     atom    9 type  2   force =     0.00000000    0.00000000   -0.00028391
     atom   10 type  2   force =     0.00000000    0.00000000   -0.00080097
     atom   11 type  1   force =     0.00000000    0.00000000   -0.00061441
     atom   12 type  2   force =     0.00000000    0.00000000   -0.00061429

     Total force =     0.001898     Total SCF correction =     0.000168
     Energy error            =      1.2E-05 Ry
     Gradient error          =      8.0E-04 Ry/Bohr

     number of scf cycles    =  20
     number of bfgs steps    =  16

     energy             old  =   -1978.3715240335 Ry
     energy             new  =   -1978.3715357498 Ry

     CASE: energy            _new < energy            _old

     new trust radius        =       0.0044369507 bohr
     new conv_thr            =       0.0000000010 Ry


ATOMIC_POSITIONS (crystal)
S                0.3333329912        0.6666669824       -0.1118359682
Mo               0.0000000000        0.0000000000       -0.0594236594
S                0.3333329912        0.6666669824       -0.0069872577
S                0.6666669824        0.3333329912        0.0982924607
Mo               0.3333329912        0.6666669824        0.1507888933
S                0.6666669824        0.3333329912        0.2033025194
S                0.0000000000        0.0000000000        0.3150246448
Mo               0.6666669824        0.3333329912        0.3675548123
S                0.0000000000        0.0000000000        0.4200629743
S                0.3333329912        0.6666669824        0.5269579386
Mo               0.0000000000        0.0000000000        0.5794274529
S                0.3333329912        0.6666669824        0.6318351067



     Writing config-only to output data dir ./tmp/relax2/mos2_slab2.save/ :
     XML data file
     NEW-OLD atomic charge density approx. for the potential

     total cpu time spent up to now is    49276.7 secs

     Self-consistent Calculation

     iteration #  1     ecut=    80.00 Ry     beta= 0.20
     Davidson diagonalization with overlap
     ethr =  1.00E-06,  avg # of iterations =  3.2

     Threshold (ethr) on eigenvalues was too large:
     Diagonalizing with lowered threshold

     Davidson diagonalization with overlap
     ethr =  7.31E-09,  avg # of iterations =  4.7

     total cpu time spent up to now is    49608.3 secs

     total energy              =   -1978.37155471 Ry
     estimated scf accuracy    <       0.00000581 Ry

     iteration #  2     ecut=    80.00 Ry     beta= 0.20
     Davidson diagonalization with overlap
     ethr =  5.59E-09,  avg # of iterations =  1.0

     total cpu time spent up to now is    49707.2 secs

     total energy              =   -1978.37155344 Ry
     estimated scf accuracy    <       0.00000442 Ry

     iteration #  3     ecut=    80.00 Ry     beta= 0.20
     Davidson diagonalization with overlap
     ethr =  4.25E-09,  avg # of iterations =  3.0

     total cpu time spent up to now is    49825.2 secs

     total energy              =   -1978.37155385 Ry
     estimated scf accuracy    <       0.00000020 Ry

     iteration #  4     ecut=    80.00 Ry     beta= 0.20
     Davidson diagonalization with overlap
     ethr =  1.91E-10,  avg # of iterations =  3.9

     total cpu time spent up to now is    49957.3 secs

     total energy              =   -1978.37155389 Ry
     estimated scf accuracy    <       0.00000008 Ry

     iteration #  5     ecut=    80.00 Ry     beta= 0.20
     Davidson diagonalization with overlap
     ethr =  8.03E-11,  avg # of iterations =  1.7

     total cpu time spent up to now is    50063.5 secs

     total energy              =   -1978.37155388 Ry
     estimated scf accuracy    <       0.00000007 Ry

     iteration #  6     ecut=    80.00 Ry     beta= 0.20
     Davidson diagonalization with overlap
     ethr =  6.68E-11,  avg # of iterations =  2.0

     total cpu time spent up to now is    50172.9 secs

     total energy              =   -1978.37155388 Ry
     estimated scf accuracy    <       0.00000002 Ry

     iteration #  7     ecut=    80.00 Ry     beta= 0.20
     Davidson diagonalization with overlap
     ethr =  1.97E-11,  avg # of iterations =  1.9

     total cpu time spent up to now is    50278.5 secs

     total energy              =   -1978.37155388 Ry
     estimated scf accuracy    <       0.00000001 Ry

     iteration #  8     ecut=    80.00 Ry     beta= 0.20
     Davidson diagonalization with overlap
     ethr =  1.29E-11,  avg # of iterations =  1.9

     total cpu time spent up to now is    50386.4 secs

     total energy              =   -1978.37155388 Ry
     estimated scf accuracy    <          7.2E-09 Ry

     iteration #  9     ecut=    80.00 Ry     beta= 0.20
     Davidson diagonalization with overlap
     ethr =  6.89E-12,  avg # of iterations =  1.3

     total cpu time spent up to now is    50488.0 secs

     total energy              =   -1978.37155388 Ry
     estimated scf accuracy    <          8.6E-09 Ry

     iteration # 10     ecut=    80.00 Ry     beta= 0.20
     Davidson diagonalization with overlap
     ethr =  6.89E-12,  avg # of iterations =  2.0

     total cpu time spent up to now is    50598.9 secs

     total energy              =   -1978.37155388 Ry
     estimated scf accuracy    <          5.2E-09 Ry

     iteration # 11     ecut=    80.00 Ry     beta= 0.20
     Davidson diagonalization with overlap
     ethr =  5.03E-12,  avg # of iterations =  2.3

     total cpu time spent up to now is    50709.1 secs

     total energy              =   -1978.37155388 Ry
     estimated scf accuracy    <          4.7E-09 Ry

     iteration # 12     ecut=    80.00 Ry     beta= 0.20
     Davidson diagonalization with overlap
     ethr =  4.49E-12,  avg # of iterations =  3.7

     total cpu time spent up to now is    50840.7 secs

     total energy              =   -1978.37155388 Ry
     estimated scf accuracy    <       0.00000001 Ry

     iteration # 13     ecut=    80.00 Ry     beta= 0.20
     Davidson diagonalization with overlap
     ethr =  4.49E-12,  avg # of iterations =  1.6

     total cpu time spent up to now is    50945.8 secs

     total energy              =   -1978.37155388 Ry
     estimated scf accuracy    <          5.4E-09 Ry

     iteration # 14     ecut=    80.00 Ry     beta= 0.20
     Davidson diagonalization with overlap
     ethr =  4.49E-12,  avg # of iterations =  1.0

     total cpu time spent up to now is    51044.4 secs

     total energy              =   -1978.37155388 Ry
     estimated scf accuracy    <          5.0E-09 Ry

     iteration # 15     ecut=    80.00 Ry     beta= 0.20
     Davidson diagonalization with overlap
     ethr =  4.49E-12,  avg # of iterations =  1.7

     total cpu time spent up to now is    51149.8 secs

     total energy              =   -1978.37155388 Ry
     estimated scf accuracy    <          1.4E-09 Ry

     iteration # 16     ecut=    80.00 Ry     beta= 0.20
     Davidson diagonalization with overlap
     ethr =  1.35E-12,  avg # of iterations =  2.8

     total cpu time spent up to now is    51267.1 secs

     End of self-consistent calculation

          k = 0.0000 0.0000 0.0000 ( 21311 PWs)   bands (ev):

   -53.4903 -53.4636 -53.4467 -53.4131 -27.6643 -27.6373 -27.6206 -27.5872
   -27.4272 -27.4272 -27.3993 -27.3993 -27.3826 -27.3826 -27.3504 -27.3504
    -6.8188  -6.7753  -6.7087  -6.6517  -5.5845  -5.5120  -5.4011  -5.3295
     1.3941   1.5501   1.8420   2.0368   4.7840   4.7840   4.7910   4.8240
     4.8240   4.8377   4.8377   4.8583   4.8583   5.1549   5.7400   5.9000
     5.9000   5.9372   5.9372   5.9512   5.9512   5.9763   5.9764   6.2412
     6.9625   7.3085   7.6580   7.8128  10.1380  10.1380  10.1698  10.1698
    10.1882  10.1882  10.2294  10.2294  10.3458  10.3458

          k = 0.0000 0.0722 0.0000 ( 21283 PWs)   bands (ev):

   -53.4887 -53.4621 -53.4452 -53.4116 -27.6613 -27.6343 -27.6176 -27.5842
   -27.4427 -27.4307 -27.4148 -27.4028 -27.3981 -27.3861 -27.3660 -27.3540
    -6.7592  -6.7158  -6.6494  -6.5925  -5.5572  -5.4857  -5.3769  -5.3062
     1.4634   1.6183   1.9097   2.1051   4.6462   4.6586   4.6883   4.7023
     4.7239   4.8463   4.8862   4.8999   4.9208   4.9709   5.3845   5.5793
     5.8030   5.8403   5.8543   5.8802   5.9997   6.0495   6.1914   6.4850
     6.9669   7.2952   7.6051   7.7387  10.0611  10.0905  10.1059  10.1421
    10.1890  10.2231  10.2272  10.2483  10.2645  10.2806

          k = 0.0000 0.1443 0.0000 ( 21263 PWs)   bands (ev):

   -53.4843 -53.4576 -53.4408 -53.4071 -27.6526 -27.6256 -27.6089 -27.5755
   -27.4868 -27.4588 -27.4422 -27.4408 -27.4128 -27.4101 -27.3962 -27.3640
    -6.5854  -6.5424  -6.4769  -6.4202  -5.4777  -5.4089  -5.3062  -5.2381
     1.6565   1.8069   2.0954   2.2914   4.2971   4.3370   4.3404   4.3560
     4.3813   4.5977   4.9029   5.0258   5.0571   5.0654   5.0790   5.1012
     5.5520   5.5895   5.6039   5.6312   6.0571   6.1469   6.3535   6.6355
     6.9423   7.2010   7.4098   7.4976   9.7556   9.8222   9.8829   9.9284
     9.9830  10.0466  10.0584  10.0831  10.1075  10.1214

          k = 0.0000 0.2165 0.0000 ( 21233 PWs)   bands (ev):

   -53.4776 -53.4510 -53.4341 -53.4005 -27.6396 -27.6127 -27.5960 -27.5625
   -27.5522 -27.5241 -27.5075 -27.4755 -27.4558 -27.4278 -27.4111 -27.3790
    -6.3122  -6.2700  -6.2067  -6.1506  -5.3529  -5.2885  -5.1960  -5.1321
     1.9183   2.0572   2.3311   2.5201   3.8641   3.9000   3.9148   3.9343
     3.9947   4.1771   4.3982   4.5082   5.2267   5.2635   5.2769   5.3011
     5.3078   5.3399   5.3548   5.3777   5.9677   6.0858   6.3094   6.5462
     6.8047   6.9507   7.0517   7.1039   9.3653   9.4911   9.6556   9.8344
     9.8622   9.9032   9.9509   9.9581  10.0039  10.0907

          k = 0.0000 0.2887 0.0000 ( 21197 PWs)   bands (ev):

   -53.4698 -53.4432 -53.4263 -53.3926 -27.6285 -27.6243 -27.6003 -27.5973
   -27.5837 -27.5806 -27.5518 -27.5472 -27.4734 -27.4454 -27.4287 -27.3966
    -5.9654  -5.9246  -5.8655  -5.8108  -5.1955  -5.1371  -5.0582  -4.9997
     2.1181   2.2279   2.4447   2.5890   3.4814   3.5134   3.5527   3.5976
     3.6747   3.7825   3.9031   3.9665   4.8984   4.9362   4.9513   4.9816
     5.6257   5.6644   5.6799   5.7088   5.7531   5.8861   6.1065   6.2925
     6.5395   6.6088   6.6541   6.6956   9.2279   9.3849   9.6070   9.6730
     9.7137   9.7598   9.8117   9.8276  10.1715  10.3255

          k = 0.0000 0.3608 0.0000 ( 21187 PWs)   bands (ev):

   -53.4619 -53.4353 -53.4184 -53.3848 -27.7039 -27.6756 -27.6591 -27.6273
   -27.6089 -27.5820 -27.5653 -27.5318 -27.4909 -27.4629 -27.4463 -27.4142
    -5.5836  -5.5448  -5.4932  -5.4409  -5.0247  -4.9731  -4.9108  -4.8585
     2.0736   2.1405   2.2605   2.3406   3.1194   3.1758   3.2765   3.3877
     3.4405   3.5306   3.5998   3.6603   4.6103   4.6481   4.6638   4.6949
     5.5222   5.6535   5.8591   5.9474   5.9854   6.0064   6.0109   6.0411
     6.3235   6.3810   6.4241   6.4650   9.3487   9.4952   9.5677   9.6056
     9.6427   9.6913   9.7127   9.9126  10.4972  10.6508

          k = 0.0000 0.4330 0.0000 ( 21140 PWs)   bands (ev):

   -53.4552 -53.4286 -53.4117 -53.3781 -27.7672 -27.7388 -27.7222 -27.6906
   -27.5958 -27.5689 -27.5522 -27.5187 -27.5058 -27.4778 -27.4611 -27.4290
    -5.2219  -5.1852  -5.1453  -5.0968  -4.8663  -4.8218  -4.7775  -4.7317
     1.8326   1.8758   1.9376   1.9909   2.7765   2.8294   2.9146   2.9847
     3.3457   3.4099   3.5095   3.5827   4.3897   4.4276   4.4437   4.4752
     5.3525   5.4729   5.6615   5.7911   6.2045   6.2428   6.2736   6.3142
     6.3410   6.4065   6.4711   6.5199   9.5597   9.5939   9.6175   9.6185
     9.6617   9.7291   9.8992  10.0462  10.8044  10.9399

          k = 0.0000 0.5052 0.0000 ( 21078 PWs)   bands (ev):

   -53.4508 -53.4242 -53.4073 -53.3736 -27.8091 -27.7807 -27.7641 -27.7325
   -27.5870 -27.5602 -27.5435 -27.5157 -27.5099 -27.4876 -27.4710 -27.4389
    -4.9524  -4.9171  -4.8913  -4.8476  -4.7512  -4.7132  -4.6842  -4.6442
     1.6012   1.6364   1.6753   1.7215   2.5373   2.5791   2.6407   2.7016
     3.2480   3.3071   3.4010   3.4706   4.2521   4.2900   4.3064   4.3382
     5.2614   5.3721   5.5451   5.6569   6.3608   6.4004   6.4407   6.4857
     6.5305   6.5924   6.6580   6.7097   9.6068   9.6382   9.6554   9.6923
     9.9173   9.9863  10.0889  10.1766  10.9996  11.1087

          k = 0.0000-0.5774 0.0000 ( 21006 PWs)   bands (ev):

   -53.4492 -53.4226 -53.4057 -53.3720 -27.8238 -27.7953 -27.7788 -27.7472
   -27.5839 -27.5571 -27.5404 -27.5191 -27.5068 -27.4911 -27.4744 -27.4424
    -4.8504  -4.8154  -4.7971  -4.7562  -4.7086  -4.6739  -4.6507  -4.6135
     1.5088   1.5424   1.5759   1.6212   2.4519   2.4887   2.5417   2.6018
     3.2010   3.2592   3.3506   3.4184   4.2054   4.2433   4.2598   4.2917
     5.2344   5.3411   5.5070   5.6116   6.4115   6.4519   6.4962   6.5428
     6.6483   6.6988   6.7501   6.7970   9.6349   9.6653   9.6815   9.7155
    10.0776  10.1244  10.1679  10.2184  11.0629  11.1539

          k = 0.0625 0.1083 0.0000 ( 21269 PWs)   bands (ev):

   -53.4857 -53.4591 -53.4422 -53.4086 -27.6554 -27.6284 -27.6117 -27.5783
   -27.4721 -27.4441 -27.4380 -27.4275 -27.4100 -27.3954 -27.3934 -27.3612
    -6.6425  -6.5994  -6.5336  -6.4768  -5.5038  -5.4341  -5.3294  -5.2604
     1.5951   1.7472   2.0371   2.2332   4.4070   4.4437   4.4474   4.4632
     4.4866   4.7139   4.9653   5.0049   5.0182   5.0398   5.0522   5.2231
     5.5882   5.6254   5.6390   5.6650   6.0948   6.1706   6.3577   6.6403
     6.9582   7.2437   7.4815   7.5810   9.8843   9.9273   9.9335   9.9571
    10.0119  10.0179  10.0601  10.1060  10.1506  10.1896

          k = 0.0625 0.1804 0.0000 ( 21194 PWs)   bands (ev):

   -53.4802 -53.4535 -53.4367 -53.4030 -27.6446 -27.6176 -27.6009 -27.5675
   -27.5256 -27.4976 -27.4809 -27.4517 -27.4489 -27.4237 -27.4071 -27.3749
    -6.4188  -6.3763  -6.3120  -6.2557  -5.4014  -5.3353  -5.2387  -5.1732
     1.8268   1.9714   2.2540   2.4484   4.0248   4.0612   4.0747   4.0950
     4.1480   4.3618   4.6272   4.7601   5.1818   5.2137   5.2291   5.2337
     5.2537   5.2614   5.2776   5.2992   6.1437   6.2389   6.4344   6.6767
     6.8801   7.0727   7.2015   7.2606   9.4794   9.5814   9.6999   9.8186
     9.8577   9.9175   9.9550   9.9873  10.0118  10.0536

          k = 0.0625 0.2526 0.0000 ( 21202 PWs)   bands (ev):

   -53.4729 -53.4463 -53.4294 -53.3958 -27.6304 -27.6035 -27.5948 -27.5868
   -27.5667 -27.5533 -27.5501 -27.5181 -27.4696 -27.4417 -27.4250 -27.3929
    -6.1083  -6.0668  -6.0057  -5.9503  -5.2597  -5.1988  -5.1140  -5.0533
     2.0718   2.1974   2.4483   2.6202   3.6393   3.6726   3.6936   3.7206
     3.8124   3.9756   4.1520   4.2356   4.8439   4.8804   4.9026   4.9338
     5.4509   5.4894   5.5038   5.5306   6.0406   6.1448   6.3306   6.5164
     6.6759   6.7671   6.8156   6.8564   9.2089   9.3523   9.5346   9.6605
     9.7774   9.8215   9.8525   9.8862   9.9743  10.1238

          k = 0.0625 0.3248 0.0000 ( 21194 PWs)   bands (ev):

   -53.4651 -53.4384 -53.4216 -53.3879 -27.6689 -27.6406 -27.6240 -27.6150
   -27.5922 -27.5881 -27.5714 -27.5379 -27.4890 -27.4610 -27.4444 -27.4123
    -5.7424  -5.7026  -5.6474  -5.5939  -5.0943  -5.0397  -4.9701  -4.9151
     2.1572   2.2435   2.4077   2.5137   3.3198   3.3575   3.4247   3.5086
     3.5756   3.6699   3.6876   3.7386   4.5383   4.5796   4.6155   4.6540
     5.6878   5.7211   5.7397   5.7709   5.8292   5.9291   6.0986   6.2403
     6.4548   6.5006   6.5292   6.5661   9.1740   9.3179   9.4870   9.5736
     9.7119   9.7539   9.7943   9.9160  10.2294  10.3814

          k = 0.0625 0.3969 0.0000 ( 21151 PWs)   bands (ev):

   -53.4578 -53.4312 -53.4143 -53.3806 -27.7366 -27.7082 -27.6916 -27.6599
   -27.6008 -27.5739 -27.5572 -27.5237 -27.5068 -27.4788 -27.4622 -27.4301
    -5.3674  -5.3298  -5.2842  -5.2339  -4.9273  -4.8797  -4.8275  -4.7789
     1.9935   2.0457   2.1309   2.1938   2.9420   2.9962   3.0829   3.1563
     3.4131   3.4785   3.5760   3.6519   4.3405   4.3828   4.4194   4.4579
     5.5739   5.6709   5.8086   5.8338   5.8772   5.8906   5.9185   5.9877
     6.4660   6.5032   6.5294   6.5632   9.3144   9.4243   9.5387   9.6015
     9.7529   9.7953   9.8644   9.9951  10.5675  10.7041

          k = 0.0625 0.4691 0.0000 ( 21105 PWs)   bands (ev):

   -53.4522 -53.4256 -53.4087 -53.3751 -27.7879 -27.7595 -27.7429 -27.7113
   -27.5899 -27.5630 -27.5463 -27.5205 -27.5128 -27.4924 -27.4758 -27.4437
    -5.0467  -5.0110  -4.9789  -4.9330  -4.7876  -4.7467  -4.7118  -4.6694
     1.7505   1.7887   1.8367   1.8855   2.6224   2.6660   2.7265   2.7840
     3.3202   3.3791   3.4762   3.5494   4.2346   4.2721   4.2982   4.3334
     5.3854   5.4825   5.6325   5.7338   5.9595   5.9945   6.0286   6.0765
     6.6393   6.6771   6.7094   6.7472   9.5147   9.5756   9.6306   9.6757
     9.8905   9.9378  10.0218  10.1194  10.8822  10.9942

          k = 0.0625 0.5413 0.0000 ( 21084 PWs)   bands (ev):

   -53.4492 -53.4226 -53.4057 -53.3720 -27.8155 -27.7871 -27.7705 -27.7389
   -27.5840 -27.5571 -27.5404 -27.5278 -27.5068 -27.4998 -27.4831 -27.4511
    -4.8559  -4.8208  -4.8012  -4.7597  -4.7062  -4.6708  -4.6468  -4.6092
     1.5890   1.6228   1.6574   1.7031   2.4430   2.4790   2.5260   2.5818
     3.2332   3.2913   3.3843   3.4534   4.1916   4.2267   4.2411   4.2728
     5.2825   5.3803   5.5291   5.6241   6.0532   6.0901   6.1265   6.1744
     6.7938   6.8341   6.8720   6.9135   9.6331   9.6605   9.6804   9.7134
    10.0705  10.1184  10.1740  10.2318  11.1104  11.1903

          k = 0.1250 0.2165 0.0000 ( 21179 PWs)   bands (ev):

   -53.4740 -53.4474 -53.4305 -53.3969 -27.6326 -27.6056 -27.5889 -27.5808
   -27.5555 -27.5527 -27.5361 -27.5041 -27.4705 -27.4425 -27.4259 -27.3938
    -6.1573  -6.1156  -6.0539  -5.9983  -5.2817  -5.2199  -5.1332  -5.0716
     2.0528   2.1839   2.4461   2.6273   3.7069   3.7375   3.7547   3.7803
     3.9143   4.1092   4.3258   4.4230   4.7053   4.7419   4.7623   4.7912
     5.3714   5.4096   5.4232   5.4493   6.2256   6.3149   6.4753   6.6507
     6.7396   6.8459   6.8855   6.9258   9.1985   9.3328   9.4964   9.6173
     9.7795   9.7932   9.8315   9.8520   9.9080  10.0554

          k = 0.1250 0.2887 0.0000 ( 21199 PWs)   bands (ev):

   -53.4668 -53.4401 -53.4233 -53.3896 -27.6442 -27.6184 -27.6159 -27.5993
   -27.5915 -27.5748 -27.5675 -27.5413 -27.4938 -27.4658 -27.4492 -27.4171
    -5.8260  -5.7858  -5.7288  -5.6747  -5.1303  -5.0741  -5.0007  -4.9443
     2.2084   2.3094   2.5076   2.6363   3.4702   3.5031   3.5195   3.6056
     3.6819   3.8035   3.8810   3.9251   4.2703   4.3234   4.4028   4.4691
     5.4770   5.5127   5.5287   5.5610   6.1526   6.2339   6.3643   6.4835
     6.5603   6.5894   6.6097   6.6399   9.0393   9.1880   9.3732   9.4906
     9.7710   9.7904   9.8234   9.8930   9.9856  10.1532

          k = 0.1250 0.3608 0.0000 ( 21195 PWs)   bands (ev):

   -53.4595 -53.4329 -53.4160 -53.3824 -27.7064 -27.6781 -27.6615 -27.6298
   -27.6042 -27.5773 -27.5606 -27.5271 -27.5175 -27.4895 -27.4728 -27.4408
    -5.4628  -5.4246  -5.3756  -5.3242  -4.9655  -4.9158  -4.8583  -4.8078
     2.1533   2.2175   2.3314   2.4076   3.1416   3.1872   3.2511   3.3129
     3.5009   3.5591   3.6411   3.7229   4.0736   4.1622   4.2694   4.3353
     5.4213   5.4557   5.4753   5.5130   5.9362   6.0049   6.1093   6.1959
     6.5223   6.5529   6.5682   6.6023   9.0794   9.2277   9.4282   9.5585
     9.8437   9.8698   9.9029   9.9873  10.2239  10.3685

          k = 0.1250 0.4330 0.0000 ( 21113 PWs)   bands (ev):

   -53.4533 -53.4267 -53.4098 -53.3762 -27.7586 -27.7302 -27.7136 -27.6819
   -27.5921 -27.5652 -27.5485 -27.5377 -27.5150 -27.5096 -27.4930 -27.4609
    -5.1212  -5.0850  -5.0480  -5.0005  -4.8121  -4.7691  -4.7288  -4.6844
     1.9660   2.0103   2.0758   2.1306   2.7222   2.7599   2.8000   2.8460
     3.4477   3.5007   3.5962   3.6771   4.0480   4.1287   4.2219   4.2816
     5.3701   5.4079   5.4477   5.4958   5.6652   5.7269   5.8214   5.8977
     6.6604   6.6928   6.7102   6.7443   9.2926   9.4214   9.6058   9.7283
     9.9543   9.9833  10.0138  10.0623  10.5400  10.6506

          k = 0.1250 0.5052 0.0000 ( 21081 PWs)   bands (ev):

   -53.4492 -53.4226 -53.4057 -53.3720 -27.7931 -27.7647 -27.7481 -27.7165
   -27.5840 -27.5571 -27.5512 -27.5404 -27.5231 -27.5069 -27.5065 -27.4745
    -4.8689  -4.8338  -4.8110  -4.7683  -4.7003  -4.6635  -4.6374  -4.5989
     1.7999   1.8352   1.8761   1.9238   2.4256   2.4581   2.4890   2.5350
     3.3316   3.3894   3.4841   3.5548   4.1019   4.1576   4.2183   4.2660
     5.3701   5.4281   5.4643   5.4909   5.5147   5.5529   5.6031   5.6825
     6.8462   6.8825   6.9107   6.9490   9.5191   9.5897   9.6711   9.7291
    10.1036  10.1447  10.1974  10.2633  10.8304  10.8940

          k = 0.1250 0.5774 0.0000 ( 21108 PWs)   bands (ev):

   -53.4477 -53.4211 -53.4042 -53.3706 -27.8052 -27.7768 -27.7602 -27.7286
   -27.5811 -27.5559 -27.5543 -27.5376 -27.5279 -27.5112 -27.5040 -27.4792
    -4.7739  -4.7389  -4.7233  -4.6838  -4.6587  -4.6255  -4.6043  -4.5688
     1.7359   1.7684   1.8008   1.8474   2.3201   2.3511   2.3796   2.4266
     3.2715   3.3301   3.4243   3.4930   4.1506   4.1858   4.2180   4.2586
     5.3093   5.3915   5.4456   5.4849   5.5025   5.5459   5.5549   5.6244
     6.9385   6.9779   7.0134   7.0549   9.6002   9.6261   9.6476   9.6827
    10.2149  10.2681  10.3148  10.3613  10.9607  11.0060

          k = 0.1875 0.3248 0.0000 ( 21195 PWs)   bands (ev):

   -53.4601 -53.4335 -53.4166 -53.3830 -27.6928 -27.6645 -27.6480 -27.6162
   -27.6053 -27.5785 -27.5617 -27.5282 -27.5243 -27.4962 -27.4796 -27.4475
    -5.4960  -5.4575  -5.4074  -5.3556  -4.9785  -4.9280  -4.8686  -4.8175
     2.2213   2.2920   2.4207   2.5041   3.2714   3.3057   3.3456   3.3883
     3.5432   3.5953   3.6612   3.7315   3.9212   4.0389   4.1819   4.2585
     5.2473   5.2813   5.3008   5.3390   6.1004   6.1563   6.2367   6.3073
     6.5288   6.5612   6.5769   6.6149   8.9901   9.1507   9.3745   9.5332
     9.8684   9.8822   9.9160   9.9676  10.0788  10.2350

          k = 0.1875 0.3969 0.0000 ( 21153 PWs)   bands (ev):

   -53.4539 -53.4273 -53.4104 -53.3768 -27.7348 -27.7064 -27.6899 -27.6581
   -27.5933 -27.5664 -27.5551 -27.5497 -27.5270 -27.5161 -27.5104 -27.4784
    -5.1621  -5.1256  -5.0860  -5.0376  -4.8243  -4.7800  -4.7366  -4.6912
     2.1296   2.1812   2.2652   2.3269   2.8098   2.8352   2.8555   2.8878
     3.5900   3.6262   3.6925   3.7789   3.9198   4.0341   4.1630   4.2329
     4.9305   4.9664   4.9945   5.0376   5.8809   5.9164   5.9654   6.0192
     6.6311   6.6663   6.6866   6.7257   9.1497   9.3086   9.5564   9.7651
     9.9834  10.0092  10.0270  10.0595  10.2632  10.3895

          k = 0.1875 0.4691 0.0000 ( 21101 PWs)   bands (ev):

   -53.4492 -53.4226 -53.4057 -53.3721 -27.7653 -27.7369 -27.7203 -27.6886
   -27.5840 -27.5800 -27.5572 -27.5519 -27.5404 -27.5353 -27.5069 -27.5033
    -4.8815  -4.8463  -4.8206  -4.7768  -4.6944  -4.6563  -4.6280  -4.5885
     2.0405   2.0812   2.1382   2.1908   2.4120   2.4390   2.4574   2.4911
     3.5061   3.5628   3.6483   3.7094   3.9939   4.0896   4.2040   4.2728
     4.7515   4.7953   4.8591   4.9188   5.5810   5.6290   5.6755   5.7302
     6.8315   6.8659   6.8827   6.9189   9.3756   9.4807   9.6280   9.7289
    10.1468  10.1808  10.2253  10.2999  10.4865  10.5653

          k = 0.1875 0.5413 0.0000 ( 21112 PWs)   bands (ev):

   -53.4466 -53.4200 -53.4031 -53.3695 -27.7813 -27.7528 -27.7363 -27.7046
   -27.5940 -27.5790 -27.5659 -27.5522 -27.5492 -27.5354 -27.5173 -27.5019
    -4.7172  -4.6823  -4.6681  -4.6305  -4.6175  -4.5861  -4.5659  -4.5318
     2.0023   2.0343   2.0692   2.1211   2.1953   2.2249   2.2428   2.2791
     3.3611   3.4216   3.5156   3.5794   4.1332   4.1895   4.2570   4.3129
     4.7116   4.7654   4.8464   4.9076   5.3674   5.4198   5.4740   5.5284
     7.0152   7.0510   7.0767   7.1159   9.4514   9.4901   9.5258   9.5676
    10.3364  10.3881  10.4587  10.5406  10.6167  10.6631

          k = 0.2500 0.4330 0.0000 ( 21125 PWs)   bands (ev):

   -53.4492 -53.4226 -53.4057 -53.3721 -27.7508 -27.7224 -27.7058 -27.6741
   -27.5950 -27.5840 -27.5669 -27.5572 -27.5502 -27.5404 -27.5183 -27.5069
    -4.8867  -4.8514  -4.8245  -4.7803  -4.6920  -4.6534  -4.6241  -4.5843
     2.1509   2.1958   2.2645   2.3190   2.4078   2.4312   2.4492   2.4734
     3.6896   3.7228   3.7448   3.8061   3.9893   4.0904   4.2136   4.2846
     4.4269   4.4622   4.4808   4.5169   5.6591   5.6899   5.6962   5.7633
     6.8149   6.8502   6.8658   6.9021   9.3156   9.4314   9.6007   9.7214
    10.1588  10.1896  10.2204  10.3080  10.3574  10.4682

          k = 0.2500 0.5052 0.0000 ( 21117 PWs)   bands (ev):

   -53.4460 -53.4194 -53.4025 -53.3689 -27.7555 -27.7271 -27.7105 -27.6789
   -27.6275 -27.5994 -27.5828 -27.5778 -27.5510 -27.5508 -27.5343 -27.5007
    -4.6890  -4.6542  -4.6402  -4.6038  -4.5929  -4.5627  -4.5428  -4.5094
     2.1061   2.1331   2.1459   2.1772   2.2591   2.3024   2.3507   2.3982
     3.5335   3.5941   3.6659   3.7052   4.0835   4.1152   4.1589   4.2019
     4.2412   4.2986   4.3547   4.4011   5.3788   5.4137   5.4405   5.5020
     7.0555   7.0891   7.1043   7.1399   9.3193   9.3657   9.4185   9.4685
    10.3078  10.3429  10.3739  10.4037  10.5533  10.6070

          k = 0.2500 0.5774 0.0000 ( 21116 PWs)   bands (ev):

   -53.4449 -53.4183 -53.4014 -53.3678 -27.7554 -27.7269 -27.7104 -27.6787
   -27.6408 -27.6126 -27.5960 -27.5756 -27.5641 -27.5488 -27.5321 -27.4985
    -4.6156  -4.5825  -4.5715  -4.5598  -4.5393  -4.5294  -4.5130  -4.4826
     2.0047   2.0311   2.0450   2.0755   2.3461   2.3761   2.4046   2.4473
     3.3758   3.4357   3.5160   3.5686   4.0528   4.0955   4.1717   4.2335
     4.2956   4.3487   4.3982   4.4405   5.2565   5.2890   5.3031   5.3648
     7.1820   7.2157   7.2348   7.2723   9.2492   9.2791   9.2963   9.3269
    10.3335  10.3697  10.4032  10.4257  10.7102  10.7468

          k = 0.3125 0.5413 0.0000 ( 21100 PWs)   bands (ev):

   -53.4443 -53.4177 -53.4008 -53.3672 -27.7343 -27.7059 -27.6893 -27.6692
   -27.6576 -27.6411 -27.6244 -27.5925 -27.5745 -27.5477 -27.5309 -27.4974
    -4.5797  -4.5490  -4.5392  -4.5345  -4.5136  -4.5044  -4.4935  -4.4642
     1.9357   1.9627   1.9770   2.0059   2.5733   2.6089   2.6448   2.6914
     3.3782   3.3895   3.4079   3.4384   3.8500   3.8715   3.8851   3.9041
     4.3519   4.4056   4.4515   4.4988   5.1713   5.2077   5.2297   5.2942
     7.2644   7.2966   7.3110   7.3468   9.1328   9.1644   9.1817   9.2117
    10.2677  10.2898  10.3092  10.3436  10.8081  10.8632

     the Fermi energy is     8.3454 ev

!    total energy              =   -1978.37155388 Ry
     total all-electron energy =    -38771.692399 Ry
     estimated scf accuracy    <          2.1E-10 Ry
     smearing contrib. (-TS)   =       0.00002981 Ry
     internal energy E=F+TS    =   -1978.37158370 Ry

     The total energy is F=E-TS. E is the sum of the following terms:
     one-electron contribution =   -1465.75062402 Ry
     hartree contribution      =     775.13950569 Ry
     xc contribution           =    -119.23246256 Ry
     ewald contribution        =     101.32298274 Ry
     one-center paw contrib.   =   -1269.85098555 Ry

     convergence has been achieved in  16 iterations

     Forces acting on atoms (cartesian axes, Ry/au):

     atom    1 type  2   force =     0.00000000   -0.00000000    0.00027211
     atom    2 type  1   force =     0.00000000    0.00000000    0.00040966
     atom    3 type  2   force =     0.00000000    0.00000000    0.00091257
     atom    4 type  2   force =     0.00000000    0.00000000    0.00007415
     atom    5 type  1   force =     0.00000000    0.00000000    0.00094853
     atom    6 type  2   force =     0.00000000    0.00000000    0.00040782
     atom    7 type  2   force =     0.00000000    0.00000000   -0.00046701
     atom    8 type  1   force =     0.00000000   -0.00000000   -0.00009884
     atom    9 type  2   force =     0.00000000    0.00000000   -0.00041081
     atom   10 type  2   force =     0.00000000    0.00000000   -0.00093907
     atom   11 type  1   force =     0.00000000    0.00000000   -0.00062966
     atom   12 type  2   force =     0.00000000    0.00000000   -0.00047945

     Total force =     0.002013     Total SCF correction =     0.000065
     Energy error            =      1.8E-05 Ry
     Gradient error          =      9.5E-04 Ry/Bohr

     number of scf cycles    =  21
     number of bfgs steps    =  17

     energy             old  =   -1978.3715357498 Ry
     energy             new  =   -1978.3715538827 Ry

     CASE: energy            _new < energy            _old


     WARNING: bfgs curvature condition failed, Theta= 0.954
     new trust radius        =       0.0066554260 bohr
     new conv_thr            =       0.0000000010 Ry


ATOMIC_POSITIONS (crystal)
S                0.3333329898        0.6666669797       -0.1117433596
Mo               0.0000000000        0.0000000000       -0.0593384269
S                0.3333329898        0.6666669797       -0.0069113091
S                0.6666669797        0.3333329898        0.0983538890
Mo               0.3333329898        0.6666669797        0.1508467960
S                0.6666669797        0.3333329898        0.2033730993
S                0.0000000000        0.0000000000        0.3149791142
Mo               0.6666669797        0.3333329898        0.3675128480
S                0.0000000000        0.0000000000        0.4200295670
S                0.3333329898        0.6666669797        0.5268601816
Mo               0.0000000000        0.0000000000        0.5793197955
S                0.3333329898        0.6666669797        0.6317177101



     Writing config-only to output data dir ./tmp/relax2/mos2_slab2.save/ :
     XML data file
     NEW-OLD atomic charge density approx. for the potential

     total cpu time spent up to now is    51321.9 secs

     Self-consistent Calculation

     iteration #  1     ecut=    80.00 Ry     beta= 0.20
     Davidson diagonalization with overlap
     ethr =  1.00E-06,  avg # of iterations =  4.2

     Threshold (ethr) on eigenvalues was too large:
     Diagonalizing with lowered threshold

     Davidson diagonalization with overlap
     ethr =  8.32E-09,  avg # of iterations =  4.8

     total cpu time spent up to now is    51668.4 secs

     total energy              =   -1978.37158193 Ry
     estimated scf accuracy    <       0.00001158 Ry

     iteration #  2     ecut=    80.00 Ry     beta= 0.20
     Davidson diagonalization with overlap
     ethr =  1.11E-08,  avg # of iterations =  1.0

     total cpu time spent up to now is    51766.7 secs

     total energy              =   -1978.37157921 Ry
     estimated scf accuracy    <       0.00000865 Ry

     iteration #  3     ecut=    80.00 Ry     beta= 0.20
     Davidson diagonalization with overlap
     ethr =  8.32E-09,  avg # of iterations =  2.8

     total cpu time spent up to now is    51884.4 secs

     total energy              =   -1978.37158009 Ry
     estimated scf accuracy    <       0.00000031 Ry

     iteration #  4     ecut=    80.00 Ry     beta= 0.20
     Davidson diagonalization with overlap
     ethr =  3.00E-10,  avg # of iterations =  4.1

     total cpu time spent up to now is    52017.8 secs

     total energy              =   -1978.37158014 Ry
     estimated scf accuracy    <       0.00000011 Ry

     iteration #  5     ecut=    80.00 Ry     beta= 0.20
     Davidson diagonalization with overlap
     ethr =  1.10E-10,  avg # of iterations =  1.7

     total cpu time spent up to now is    52123.0 secs

     total energy              =   -1978.37158013 Ry
     estimated scf accuracy    <       0.00000008 Ry

     iteration #  6     ecut=    80.00 Ry     beta= 0.20
     Davidson diagonalization with overlap
     ethr =  7.94E-11,  avg # of iterations =  2.0

     total cpu time spent up to now is    52242.7 secs

     total energy              =   -1978.37158014 Ry
     estimated scf accuracy    <       0.00000002 Ry

     iteration #  7     ecut=    80.00 Ry     beta= 0.20
     Davidson diagonalization with overlap
     ethr =  1.45E-11,  avg # of iterations =  2.2

     total cpu time spent up to now is    52348.0 secs

     total energy              =   -1978.37158015 Ry
     estimated scf accuracy    <          8.8E-09 Ry

     iteration #  8     ecut=    80.00 Ry     beta= 0.20
     Davidson diagonalization with overlap
     ethr =  8.48E-12,  avg # of iterations =  2.5

     total cpu time spent up to now is    52462.1 secs

     total energy              =   -1978.37158016 Ry
     estimated scf accuracy    <          2.4E-09 Ry

     iteration #  9     ecut=    80.00 Ry     beta= 0.20
     Davidson diagonalization with overlap
     ethr =  2.30E-12,  avg # of iterations =  2.0

     total cpu time spent up to now is    52575.6 secs

     total energy              =   -1978.37158016 Ry
     estimated scf accuracy    <          2.6E-09 Ry

     iteration # 10     ecut=    80.00 Ry     beta= 0.20
     Davidson diagonalization with overlap
     ethr =  2.30E-12,  avg # of iterations =  2.2

     total cpu time spent up to now is    52687.9 secs

     total energy              =   -1978.37158017 Ry
     estimated scf accuracy    <          3.5E-09 Ry

     iteration # 11     ecut=    80.00 Ry     beta= 0.20
     Davidson diagonalization with overlap
     ethr =  2.30E-12,  avg # of iterations =  1.0

     total cpu time spent up to now is    52786.6 secs

     total energy              =   -1978.37158016 Ry
     estimated scf accuracy    <          2.6E-09 Ry

     iteration # 12     ecut=    80.00 Ry     beta= 0.20
     Davidson diagonalization with overlap
     ethr =  2.30E-12,  avg # of iterations =  1.0

     total cpu time spent up to now is    52885.4 secs

     total energy              =   -1978.37158015 Ry
     estimated scf accuracy    <          2.6E-09 Ry

     iteration # 13     ecut=    80.00 Ry     beta= 0.20
     Davidson diagonalization with overlap
     ethr =  2.30E-12,  avg # of iterations =  1.2

     total cpu time spent up to now is    52986.4 secs

     total energy              =   -1978.37158016 Ry
     estimated scf accuracy    <          1.8E-09 Ry

     iteration # 14     ecut=    80.00 Ry     beta= 0.20
     Davidson diagonalization with overlap
     ethr =  1.78E-12,  avg # of iterations =  2.1

     total cpu time spent up to now is    53097.5 secs

     total energy              =   -1978.37158016 Ry
     estimated scf accuracy    <          1.1E-09 Ry

     iteration # 15     ecut=    80.00 Ry     beta= 0.20
     Davidson diagonalization with overlap
     ethr =  1.05E-12,  avg # of iterations =  2.9

     total cpu time spent up to now is    53223.4 secs

     total energy              =   -1978.37158016 Ry
     estimated scf accuracy    <          3.1E-09 Ry

     iteration # 16     ecut=    80.00 Ry     beta= 0.20
     Davidson diagonalization with overlap
     ethr =  1.05E-12,  avg # of iterations =  2.2

     total cpu time spent up to now is    53339.4 secs

     End of self-consistent calculation

          k = 0.0000 0.0000 0.0000 ( 21311 PWs)   bands (ev):

   -53.4905 -53.4636 -53.4465 -53.4130 -27.6647 -27.6372 -27.6203 -27.5872
   -27.4276 -27.4276 -27.3992 -27.3992 -27.3823 -27.3823 -27.3505 -27.3505
    -6.8195  -6.7756  -6.7089  -6.6516  -5.5851  -5.5121  -5.4011  -5.3292
     1.3932   1.5495   1.8415   2.0375   4.7819   4.7819   4.7897   4.8250
     4.8250   4.8387   4.8387   4.8569   4.8569   5.1553   5.7401   5.8984
     5.8984   5.9380   5.9380   5.9519   5.9520   5.9753   5.9754   6.2426
     6.9626   7.3097   7.6591   7.8139  10.1377  10.1377  10.1698  10.1698
    10.1883  10.1883  10.2294  10.2294  10.3458  10.3458

          k = 0.0000 0.0722 0.0000 ( 21283 PWs)   bands (ev):

   -53.4890 -53.4620 -53.4449 -53.4115 -27.6616 -27.6342 -27.6173 -27.5842
   -27.4432 -27.4312 -27.4147 -27.4027 -27.3978 -27.3858 -27.3660 -27.3540
    -6.7599  -6.7161  -6.6496  -6.5925  -5.5578  -5.4857  -5.3768  -5.3058
     1.4626   1.6176   1.9092   2.1058   4.6443   4.6573   4.6894   4.7033
     4.7226   4.8443   4.8873   4.9009   4.9195   4.9711   5.3843   5.5798
     5.8014   5.8411   5.8551   5.8793   5.9996   6.0494   6.1910   6.4858
     6.9669   7.2962   7.6061   7.7397  10.0609  10.0905  10.1061  10.1422
    10.1894  10.2230  10.2269  10.2482  10.2648  10.2812

          k = 0.0000 0.1443 0.0000 ( 21263 PWs)   bands (ev):

   -53.4845 -53.4576 -53.4405 -53.4071 -27.6530 -27.6255 -27.6086 -27.5755
   -27.4873 -27.4587 -27.4419 -27.4412 -27.4127 -27.4101 -27.3959 -27.3640
    -6.5860  -6.5427  -6.4771  -6.4202  -5.4782  -5.4089  -5.3061  -5.2378
     1.6556   1.8063   2.0948   2.2922   4.2953   4.3379   4.3396   4.3568
     4.3801   4.5976   4.9027   5.0238   5.0576   5.0664   5.0799   5.0999
     5.5504   5.5902   5.6045   5.6303   6.0569   6.1468   6.3533   6.6361
     6.9424   7.2018   7.4104   7.4983   9.7556   9.8227   9.8832   9.9283
     9.9834  10.0466  10.0583  10.0828  10.1082  10.1214

          k = 0.0000 0.2165 0.0000 ( 21233 PWs)   bands (ev):

   -53.4779 -53.4510 -53.4339 -53.4004 -27.6400 -27.6126 -27.5957 -27.5625
   -27.5527 -27.5240 -27.5072 -27.4756 -27.4562 -27.4277 -27.4108 -27.3790
    -6.3129  -6.2703  -6.2069  -6.1506  -5.3534  -5.2886  -5.1959  -5.1318
     1.9175   2.0565   2.3304   2.5208   3.8625   3.9004   3.9151   3.9339
     3.9939   4.1770   4.3981   4.5087   5.2251   5.2641   5.2772   5.2994
     5.3072   5.3407   5.3557   5.3766   5.9673   6.0859   6.3094   6.5468
     6.8048   6.9511   7.0519   7.1043   9.3652   9.4917   9.6560   9.8348
     9.8619   9.9032   9.9510   9.9583  10.0043  10.0909

          k = 0.0000 0.2887 0.0000 ( 21197 PWs)   bands (ev):

   -53.4700 -53.4431 -53.4260 -53.3925 -27.6290 -27.6246 -27.6002 -27.5973
   -27.5834 -27.5804 -27.5519 -27.5472 -27.4738 -27.4453 -27.4284 -27.3967
    -5.9661  -5.9248  -5.8657  -5.8108  -5.1960  -5.1371  -5.0581  -4.9995
     2.1174   2.2271   2.4439   2.5894   3.4803   3.5132   3.5532   3.5967
     3.6743   3.7826   3.9032   3.9669   4.8969   4.9368   4.9518   4.9809
     5.6240   5.6651   5.6805   5.7079   5.7527   5.8863   6.1066   6.2930
     6.5395   6.6088   6.6541   6.6960   9.2277   9.3854   9.6075   9.6727
     9.7138   9.7599   9.8120   9.8282  10.1716  10.3258

          k = 0.0000 0.3608 0.0000 ( 21187 PWs)   bands (ev):

   -53.4622 -53.4353 -53.4182 -53.3847 -27.7044 -27.6755 -27.6587 -27.6274
   -27.6092 -27.5819 -27.5650 -27.5317 -27.4914 -27.4628 -27.4460 -27.4142
    -5.5843  -5.5450  -5.4933  -5.4409  -5.0252  -4.9732  -4.9107  -4.8584
     2.0731   2.1398   2.2599   2.3408   3.1187   3.1755   3.2762   3.3874
     3.4400   3.5309   3.6000   3.6606   4.6088   4.6487   4.6643   4.6942
     5.5216   5.6537   5.8593   5.9460   5.9857   6.0068   6.0114   6.0406
     6.3233   6.3810   6.4241   6.4653   9.3484   9.4957   9.5674   9.6056
     9.6428   9.6915   9.7131   9.9131  10.4973  10.6512

          k = 0.0000 0.4330 0.0000 ( 21140 PWs)   bands (ev):

   -53.4555 -53.4286 -53.4115 -53.3780 -27.7677 -27.7386 -27.7219 -27.6906
   -27.5961 -27.5688 -27.5519 -27.5186 -27.5062 -27.4776 -27.4608 -27.4291
    -5.2226  -5.1853  -5.1453  -5.0969  -4.8668  -4.8219  -4.7774  -4.7317
     1.8320   1.8754   1.9373   1.9908   2.7759   2.8292   2.9144   2.9847
     3.3453   3.4098   3.5094   3.5829   4.3882   4.4281   4.4442   4.4745
     5.3519   5.4731   5.6617   5.7916   6.2035   6.2428   6.2738   6.3139
     6.3408   6.4065   6.4712   6.5201   9.5593   9.5939   9.6172   9.6186
     9.6618   9.7293   9.8995  10.0467  10.8043  10.9403

          k = 0.0000 0.5052 0.0000 ( 21078 PWs)   bands (ev):

   -53.4510 -53.4241 -53.4070 -53.3735 -27.8096 -27.7805 -27.7638 -27.7326
   -27.5874 -27.5601 -27.5432 -27.5161 -27.5099 -27.4875 -27.4707 -27.4390
    -4.9533  -4.9171  -4.8913  -4.8479  -4.7518  -4.7131  -4.6839  -4.6444
     1.6005   1.6362   1.6752   1.7212   2.5368   2.5790   2.6406   2.7015
     3.2475   3.3068   3.4009   3.4707   4.2506   4.2905   4.3069   4.3375
     5.2608   5.3723   5.5453   5.6573   6.3600   6.4003   6.4408   6.4856
     6.5303   6.5923   6.6580   6.7099   9.6063   9.6383   9.6557   9.6922
     9.9170   9.9864  10.0890  10.1769  10.9994  11.1091

          k = 0.0000-0.5774 0.0000 ( 21006 PWs)   bands (ev):

   -53.4494 -53.4226 -53.4054 -53.3719 -27.8243 -27.7951 -27.7784 -27.7473
   -27.5843 -27.5570 -27.5401 -27.5195 -27.5068 -27.4910 -27.4741 -27.4424
    -4.8514  -4.8152  -4.7969  -4.7565  -4.7093  -4.6738  -4.6503  -4.6138
     1.5081   1.5423   1.5759   1.6209   2.4514   2.4885   2.5416   2.6017
     3.2004   3.2589   3.3505   3.4185   4.2039   4.2438   4.2603   4.2910
     5.2338   5.3413   5.5072   5.6120   6.4108   6.4518   6.4962   6.5427
     6.6481   6.6988   6.7501   6.7971   9.6343   9.6655   9.6819   9.7153
    10.0773  10.1245  10.1680  10.2186  11.0626  11.1542

          k = 0.0625 0.1083 0.0000 ( 21269 PWs)   bands (ev):

   -53.4860 -53.4590 -53.4419 -53.4085 -27.6558 -27.6283 -27.6114 -27.5783
   -27.4725 -27.4440 -27.4384 -27.4272 -27.4099 -27.3954 -27.3931 -27.3612
    -6.6431  -6.5996  -6.5337  -6.4767  -5.5043  -5.4341  -5.3293  -5.2601
     1.5942   1.7466   2.0365   2.2340   4.4051   4.4426   4.4484   4.4642
     4.4853   4.7139   4.9633   5.0059   5.0191   5.0385   5.0520   5.2237
     5.5866   5.6262   5.6398   5.6640   6.0947   6.1705   6.3574   6.6409
     6.9582   7.2446   7.4822   7.5817   9.8844   9.9275   9.9335   9.9575
    10.0121  10.0178  10.0600  10.1065  10.1507  10.1894

          k = 0.0625 0.1804 0.0000 ( 21194 PWs)   bands (ev):

   -53.4804 -53.4535 -53.4364 -53.4029 -27.6450 -27.6175 -27.6006 -27.5675
   -27.5261 -27.4974 -27.4806 -27.4521 -27.4489 -27.4236 -27.4068 -27.3750
    -6.4195  -6.3766  -6.3122  -6.2556  -5.4019  -5.3354  -5.2387  -5.1729
     1.8259   1.9707   2.2533   2.4491   4.0231   4.0620   4.0751   4.0943
     4.1472   4.3616   4.6271   4.7607   5.1799   5.2134   5.2290   5.2341
     5.2531   5.2621   5.2782   5.2982   6.1435   6.2389   6.4342   6.6772
     6.8802   7.0732   7.2019   7.2611   9.4794   9.5819   9.7003   9.8186
     9.8579   9.9174   9.9550   9.9876  10.0121  10.0536

          k = 0.0625 0.2526 0.0000 ( 21202 PWs)   bands (ev):

   -53.4732 -53.4463 -53.4292 -53.3957 -27.6308 -27.6034 -27.5953 -27.5865
   -27.5665 -27.5533 -27.5497 -27.5182 -27.4701 -27.4415 -27.4247 -27.3929
    -6.1089  -6.0670  -6.0059  -5.9503  -5.2602  -5.1988  -5.1140  -5.0530
     2.0710   2.1967   2.4476   2.6208   3.6381   3.6726   3.6941   3.7200
     3.8118   3.9755   4.1519   4.2361   4.8426   4.8809   4.9029   4.9332
     5.4492   5.4902   5.5045   5.5297   6.0403   6.1449   6.3306   6.5167
     6.6760   6.7672   6.8157   6.8568   9.2087   9.3529   9.5349   9.6607
     9.7774   9.8216   9.8526   9.8864   9.9747  10.1241

          k = 0.0625 0.3248 0.0000 ( 21194 PWs)   bands (ev):

   -53.4653 -53.4384 -53.4213 -53.3878 -27.6694 -27.6405 -27.6237 -27.6154
   -27.5923 -27.5881 -27.5712 -27.5379 -27.4894 -27.4609 -27.4441 -27.4123
    -5.7431  -5.7028  -5.6475  -5.5939  -5.0948  -5.0398  -4.9700  -4.9149
     2.1566   2.2427   2.4070   2.5140   3.3189   3.3573   3.4247   3.5076
     3.5751   3.6703   3.6880   3.7387   4.5375   4.5796   4.6157   4.6537
     5.6864   5.7214   5.7402   5.7703   5.8289   5.9292   6.0988   6.2407
     6.4546   6.5006   6.5293   6.5663   9.1737   9.3183   9.4872   9.5738
     9.7118   9.7540   9.7946   9.9164  10.2295  10.3818

          k = 0.0625 0.3969 0.0000 ( 21151 PWs)   bands (ev):

   -53.4580 -53.4311 -53.4140 -53.3806 -27.7371 -27.7080 -27.6913 -27.6600
   -27.6011 -27.5739 -27.5569 -27.5237 -27.5073 -27.4787 -27.4619 -27.4301
    -5.3681  -5.3300  -5.2843  -5.2339  -4.9278  -4.8798  -4.8274  -4.7788
     1.9930   2.0451   2.1305   2.1938   2.9415   2.9959   3.0826   3.1562
     3.4127   3.4783   3.5759   3.6522   4.3396   4.3828   4.4196   4.4576
     5.5734   5.6711   5.8088   5.8327   5.8776   5.8905   5.9186   5.9879
     6.4655   6.5032   6.5296   6.5631   9.3141   9.4246   9.5388   9.6017
     9.7528   9.7955   9.8646   9.9956  10.5676  10.7045

          k = 0.0625 0.4691 0.0000 ( 21105 PWs)   bands (ev):

   -53.4525 -53.4256 -53.4085 -53.3750 -27.7884 -27.7593 -27.7426 -27.7114
   -27.5902 -27.5630 -27.5460 -27.5209 -27.5127 -27.4923 -27.4755 -27.4438
    -5.0475  -5.0110  -4.9789  -4.9332  -4.7881  -4.7468  -4.7116  -4.6695
     1.7498   1.7884   1.8366   1.8853   2.6219   2.6658   2.7264   2.7839
     3.3198   3.3788   3.4760   3.5496   4.2335   4.2723   4.2986   4.3329
     5.3849   5.4826   5.6327   5.7342   5.9588   5.9946   6.0287   6.0764
     6.6388   6.6771   6.7095   6.7471   9.5144   9.5756   9.6306   9.6759
     9.8903   9.9379  10.0219  10.1198  10.8821  10.9945

          k = 0.0625 0.5413 0.0000 ( 21084 PWs)   bands (ev):

   -53.4494 -53.4226 -53.4055 -53.3720 -27.8160 -27.7869 -27.7702 -27.7390
   -27.5843 -27.5570 -27.5401 -27.5282 -27.5068 -27.4996 -27.4828 -27.4511
    -4.8569  -4.8207  -4.8011  -4.7601  -4.7069  -4.6708  -4.6464  -4.6095
     1.5883   1.6226   1.6574   1.7028   2.4424   2.4788   2.5259   2.5817
     3.2327   3.2910   3.3841   3.4535   4.1902   4.2273   4.2417   4.2719
     5.2819   5.3805   5.5294   5.6245   6.0525   6.0901   6.1266   6.1743
     6.7934   6.8340   6.8721   6.9135   9.6327   9.6605   9.6807   9.7133
    10.0703  10.1185  10.1740  10.2320  11.1101  11.1905

          k = 0.1250 0.2165 0.0000 ( 21179 PWs)   bands (ev):

   -53.4743 -53.4474 -53.4303 -53.3968 -27.6329 -27.6056 -27.5887 -27.5813
   -27.5555 -27.5525 -27.5357 -27.5042 -27.4709 -27.4424 -27.4256 -27.3938
    -6.1580  -6.1159  -6.0541  -5.9983  -5.2822  -5.2199  -5.1331  -5.0714
     2.0520   2.1831   2.4454   2.6279   3.7054   3.7381   3.7554   3.7794
     3.9136   4.1091   4.3257   4.4235   4.7039   4.7426   4.7626   4.7907
     5.3696   5.4104   5.4240   5.4482   6.2253   6.3150   6.4752   6.6509
     6.7399   6.8460   6.8855   6.9262   9.1984   9.3334   9.4968   9.6175
     9.7793   9.7931   9.8316   9.8521   9.9084  10.0557

          k = 0.1250 0.2887 0.0000 ( 21199 PWs)   bands (ev):

   -53.4670 -53.4401 -53.4230 -53.3895 -27.6446 -27.6187 -27.6158 -27.5990
   -27.5914 -27.5745 -27.5675 -27.5413 -27.4942 -27.4657 -27.4488 -27.4171
    -5.8267  -5.7860  -5.7289  -5.6747  -5.1308  -5.0742  -5.0006  -4.9441
     2.2077   2.3086   2.5068   2.6367   3.4693   3.5028   3.5199   3.6048
     3.6814   3.8035   3.8812   3.9253   4.2699   4.3232   4.4028   4.4694
     5.4756   5.5132   5.5293   5.5602   6.1524   6.2341   6.3643   6.4836
     6.5601   6.5894   6.6098   6.6400   9.0390   9.1885   9.3735   9.4908
     9.7709   9.7903   9.8237   9.8930   9.9860  10.1536

          k = 0.1250 0.3608 0.0000 ( 21195 PWs)   bands (ev):

   -53.4598 -53.4329 -53.4157 -53.3823 -27.7069 -27.6779 -27.6612 -27.6298
   -27.6045 -27.5772 -27.5603 -27.5270 -27.5179 -27.4893 -27.4725 -27.4408
    -5.4636  -5.4248  -5.3757  -5.3242  -4.9660  -4.9158  -4.8582  -4.8077
     2.1527   2.2168   2.3308   2.4077   3.1410   3.1868   3.2508   3.3127
     3.5006   3.5589   3.6409   3.7232   4.0732   4.1620   4.2694   4.3356
     5.4204   5.4559   5.4757   5.5126   5.9360   6.0051   6.1095   6.1962
     6.5215   6.5532   6.5686   6.6020   9.0790   9.2281   9.4285   9.5588
     9.8436   9.8698   9.9030   9.9875  10.2240  10.3688

          k = 0.1250 0.4330 0.0000 ( 21113 PWs)   bands (ev):

   -53.4536 -53.4267 -53.4096 -53.3761 -27.7591 -27.7300 -27.7133 -27.6820
   -27.5924 -27.5651 -27.5482 -27.5381 -27.5149 -27.5095 -27.4927 -27.4610
    -5.1220  -5.0851  -5.0481  -5.0006  -4.8127  -4.7691  -4.7286  -4.6845
     1.9654   2.0099   2.0755   2.1305   2.7215   2.7597   2.8001   2.8456
     3.4473   3.5004   3.5959   3.6773   4.0476   4.1284   4.2218   4.2818
     5.3695   5.4078   5.4477   5.4957   5.6649   5.7270   5.8215   5.8980
     6.6596   6.6931   6.7106   6.7440   9.2922   9.4217   9.6060   9.7286
     9.9539   9.9835  10.0139  10.0625  10.5400  10.6509

          k = 0.1250 0.5052 0.0000 ( 21081 PWs)   bands (ev):

   -53.4495 -53.4226 -53.4055 -53.3720 -27.7936 -27.7645 -27.7478 -27.7166
   -27.5843 -27.5571 -27.5516 -27.5401 -27.5230 -27.5068 -27.5062 -27.4745
    -4.8698  -4.8337  -4.8109  -4.7685  -4.7009  -4.6635  -4.6370  -4.5991
     1.7992   1.8351   1.8760   1.9235   2.4249   2.4581   2.4892   2.5347
     3.3311   3.3891   3.4839   3.5550   4.1014   4.1574   4.2183   4.2660
     5.3696   5.4277   5.4641   5.4908   5.5150   5.5528   5.6033   5.6828
     6.8457   6.8826   6.9110   6.9488   9.5188   9.5897   9.6711   9.7292
    10.1034  10.1448  10.1975  10.2635  10.8302  10.8941

          k = 0.1250 0.5774 0.0000 ( 21108 PWs)   bands (ev):

   -53.4480 -53.4211 -53.4040 -53.3705 -27.8057 -27.7766 -27.7599 -27.7287
   -27.5815 -27.5564 -27.5542 -27.5373 -27.5277 -27.5109 -27.5040 -27.4793
    -4.7749  -4.7387  -4.7231  -4.6842  -4.6594  -4.6255  -4.6039  -4.5691
     1.7352   1.7683   1.8008   1.8470   2.3194   2.3511   2.3798   2.4262
     3.2710   3.3297   3.4241   3.4931   4.1498   4.1858   4.2183   4.2582
     5.3089   5.3916   5.4452   5.4848   5.5026   5.5459   5.5551   5.6247
     6.9380   6.9779   7.0135   7.0548   9.5999   9.6261   9.6477   9.6826
    10.2146  10.2681  10.3149  10.3614  10.9602  11.0060

          k = 0.1875 0.3248 0.0000 ( 21195 PWs)   bands (ev):

   -53.4604 -53.4334 -53.4163 -53.3829 -27.6933 -27.6644 -27.6476 -27.6163
   -27.6057 -27.5784 -27.5615 -27.5282 -27.5247 -27.4961 -27.4793 -27.4476
    -5.4967  -5.4577  -5.4075  -5.3556  -4.9790  -4.9280  -4.8686  -4.8174
     2.2207   2.2913   2.4201   2.5043   3.2708   3.3055   3.3452   3.3880
     3.5430   3.5951   3.6610   3.7313   3.9210   4.0389   4.1820   4.2590
     5.2463   5.2814   5.3012   5.3386   6.1002   6.1564   6.2368   6.3074
     6.5280   6.5613   6.5773   6.6147   8.9897   9.1511   9.3748   9.5336
     9.8682   9.8821   9.9161   9.9676  10.0791  10.2354

          k = 0.1875 0.3969 0.0000 ( 21153 PWs)   bands (ev):

   -53.4542 -53.4273 -53.4102 -53.3767 -27.7353 -27.7062 -27.6895 -27.6582
   -27.5936 -27.5663 -27.5555 -27.5494 -27.5269 -27.5161 -27.5101 -27.4784
    -5.1629  -5.1257  -5.0861  -5.0377  -4.8248  -4.7800  -4.7364  -4.6912
     2.1290   2.1807   2.2648   2.3269   2.8088   2.8353   2.8559   2.8871
     3.5894   3.6260   3.6919   3.7785   3.9195   4.0342   4.1632   4.2333
     4.9298   4.9664   4.9947   5.0374   5.8808   5.9164   5.9653   6.0196
     6.6303   6.6666   6.6870   6.7254   9.1492   9.3090   9.5567   9.7657
     9.9829  10.0094  10.0273  10.0594  10.2633  10.3899

          k = 0.1875 0.4691 0.0000 ( 21101 PWs)   bands (ev):

   -53.4495 -53.4226 -53.4055 -53.3720 -27.7658 -27.7367 -27.7200 -27.6887
   -27.5843 -27.5805 -27.5571 -27.5518 -27.5402 -27.5350 -27.5068 -27.5034
    -4.8824  -4.8463  -4.8205  -4.7770  -4.6950  -4.6563  -4.6277  -4.5887
     2.0399   2.0809   2.1380   2.1907   2.4108   2.4393   2.4580   2.4904
     3.5056   3.5625   3.6480   3.7095   3.9935   4.0896   4.2040   4.2730
     4.7510   4.7951   4.8590   4.9189   5.5808   5.6291   5.6755   5.7305
     6.8306   6.8662   6.8831   6.9186   9.3752   9.4809   9.6280   9.7292
    10.1465  10.1809  10.2253  10.3001  10.4866  10.5654

          k = 0.1875 0.5413 0.0000 ( 21112 PWs)   bands (ev):

   -53.4469 -53.4200 -53.4029 -53.3694 -27.7818 -27.7527 -27.7360 -27.7047
   -27.5944 -27.5793 -27.5657 -27.5521 -27.5489 -27.5352 -27.5173 -27.5018
    -4.7182  -4.6821  -4.6680  -4.6309  -4.6182  -4.5860  -4.5655  -4.5321
     2.0015   2.0342   2.0691   2.1208   2.1940   2.2252   2.2434   2.2784
     3.3605   3.4212   3.5153   3.5795   4.1327   4.1894   4.2570   4.3129
     4.7111   4.7652   4.8463   4.9078   5.3672   5.4200   5.4740   5.5287
     7.0146   7.0511   7.0770   7.1157   9.4511   9.4901   9.5259   9.5675
    10.3360  10.3881  10.4587  10.5409  10.6170  10.6629

          k = 0.2500 0.4330 0.0000 ( 21125 PWs)   bands (ev):

   -53.4495 -53.4226 -53.4055 -53.3720 -27.7513 -27.7222 -27.7055 -27.6742
   -27.5954 -27.5843 -27.5667 -27.5571 -27.5499 -27.5402 -27.5183 -27.5069
    -4.8875  -4.8514  -4.8245  -4.7805  -4.6925  -4.6534  -4.6238  -4.5845
     2.1503   2.1954   2.2642   2.3191   2.4064   2.4318   2.4499   2.4725
     3.6891   3.7228   3.7441   3.8056   3.9892   4.0905   4.2137   4.2850
     4.4262   4.4622   4.4812   4.5165   5.6590   5.6896   5.6963   5.7637
     6.8140   6.8506   6.8663   6.9017   9.3151   9.4316   9.6007   9.7217
    10.1584  10.1897  10.2205  10.3081  10.3577  10.4685

          k = 0.2500 0.5052 0.0000 ( 21117 PWs)   bands (ev):

   -53.4463 -53.4194 -53.4023 -53.3688 -27.7560 -27.7269 -27.7102 -27.6790
   -27.6280 -27.5992 -27.5824 -27.5782 -27.5509 -27.5509 -27.5340 -27.5007
    -4.6901  -4.6540  -4.6401  -4.6043  -4.5935  -4.5627  -4.5424  -4.5097
     2.1046   2.1336   2.1465   2.1763   2.2585   2.3022   2.3506   2.3980
     3.5329   3.5937   3.6656   3.7052   4.0830   4.1148   4.1584   4.2020
     4.2410   4.2986   4.3551   4.4014   5.3787   5.4136   5.4405   5.5024
     7.0547   7.0894   7.1048   7.1395   9.3190   9.3657   9.4185   9.4686
    10.3072  10.3425  10.3743  10.4042  10.5536  10.6073

          k = 0.2500 0.5774 0.0000 ( 21116 PWs)   bands (ev):

   -53.4452 -53.4183 -53.4012 -53.3677 -27.7558 -27.7268 -27.7100 -27.6788
   -27.6412 -27.6125 -27.5957 -27.5760 -27.5642 -27.5488 -27.5318 -27.4985
    -4.6168  -4.5822  -4.5713  -4.5605  -4.5395  -4.5294  -4.5126  -4.4831
     2.0033   2.0317   2.0456   2.0746   2.3454   2.3761   2.4047   2.4470
     3.3753   3.4353   3.5158   3.5687   4.0522   4.0951   4.1712   4.2337
     4.2954   4.3485   4.3983   4.4407   5.2566   5.2889   5.3031   5.3653
     7.1813   7.2159   7.2351   7.2721   9.2483   9.2794   9.2968   9.3264
    10.3327  10.3692  10.4039  10.4263  10.7102  10.7473

          k = 0.3125 0.5413 0.0000 ( 21100 PWs)   bands (ev):

   -53.4446 -53.4177 -53.4006 -53.3671 -27.7348 -27.7057 -27.6890 -27.6697
   -27.6577 -27.6409 -27.6241 -27.5926 -27.5748 -27.5476 -27.5307 -27.4973
    -4.5810  -4.5489  -4.5396  -4.5342  -4.5134  -4.5047  -4.4933  -4.4647
     1.9341   1.9633   1.9777   2.0049   2.5726   2.6088   2.6449   2.6912
     3.3776   3.3891   3.4079   3.4380   3.8499   3.8708   3.8851   3.9039
     4.3516   4.4056   4.4516   4.4989   5.1713   5.2076   5.2297   5.2946
     7.2637   7.2968   7.3115   7.3465   9.1318   9.1648   9.1822   9.2112
    10.2669  10.2892  10.3100  10.3445  10.8081  10.8637

     the Fermi energy is     8.3457 ev

!    total energy              =   -1978.37158015 Ry
     total all-electron energy =    -38771.692425 Ry
     estimated scf accuracy    <          9.5E-10 Ry
     smearing contrib. (-TS)   =       0.00003008 Ry
     internal energy E=F+TS    =   -1978.37161023 Ry

     The total energy is F=E-TS. E is the sum of the following terms:
     one-electron contribution =   -1468.87529740 Ry
     hartree contribution      =     776.70211324 Ry
     xc contribution           =    -119.23305947 Ry
     ewald contribution        =     102.88566008 Ry
     one-center paw contrib.   =   -1269.85102669 Ry

     convergence has been achieved in  16 iterations

     Forces acting on atoms (cartesian axes, Ry/au):

     atom    1 type  2   force =     0.00000000    0.00000000    0.00011363
     atom    2 type  1   force =     0.00000000    0.00000000    0.00038769
     atom    3 type  2   force =     0.00000000    0.00000000    0.00110675
     atom    4 type  2   force =     0.00000000   -0.00000000    0.00003378
     atom    5 type  1   force =     0.00000000    0.00000000    0.00122624
     atom    6 type  2   force =     0.00000000    0.00000000    0.00015332
     atom    7 type  2   force =     0.00000000    0.00000000   -0.00036980
     atom    8 type  1   force =     0.00000000    0.00000000   -0.00001354
     atom    9 type  2   force =     0.00000000    0.00000000   -0.00060096
     atom   10 type  2   force =     0.00000000    0.00000000   -0.00113780
     atom   11 type  1   force =     0.00000000    0.00000000   -0.00063103
     atom   12 type  2   force =     0.00000000    0.00000000   -0.00026828

     Total force =     0.002276     Total SCF correction =     0.000155
     Energy error            =      2.6E-05 Ry
     Gradient error          =      1.2E-03 Ry/Bohr

     number of scf cycles    =  22
     number of bfgs steps    =  18

     energy             old  =   -1978.3715538827 Ry
     energy             new  =   -1978.3715801507 Ry

     CASE: energy            _new < energy            _old

     new trust radius        =       0.0099831390 bohr
     new conv_thr            =       0.0000000010 Ry


ATOMIC_POSITIONS (crystal)
S                0.3333329880        0.6666669760       -0.1116011433
Mo               0.0000000000        0.0000000000       -0.0592129258
S                0.3333329880        0.6666669760       -0.0068015107
S                0.6666669760        0.3333329880        0.0984009309
Mo               0.3333329880        0.6666669760        0.1508862081
S                0.6666669760        0.3333329880        0.2034419506
S                0.0000000000        0.0000000000        0.3149448715
Mo               0.6666669760        0.3333329880        0.3674897269
S                0.0000000000        0.0000000000        0.4200231674
S                0.3333329880        0.6666669760        0.5267207669
Mo               0.0000000000        0.0000000000        0.5791662303
S                0.3333329880        0.6666669760        0.6315416151



     Writing config-only to output data dir ./tmp/relax2/mos2_slab2.save/ :
     XML data file
     NEW-OLD atomic charge density approx. for the potential

     total cpu time spent up to now is    53394.7 secs

     Self-consistent Calculation

     iteration #  1     ecut=    80.00 Ry     beta= 0.20
     Davidson diagonalization with overlap
     ethr =  1.00E-06,  avg # of iterations =  4.9

     Threshold (ethr) on eigenvalues was too large:
     Diagonalizing with lowered threshold

     Davidson diagonalization with overlap
     ethr =  1.09E-08,  avg # of iterations =  4.4

     total cpu time spent up to now is    53733.4 secs

     total energy              =   -1978.37161350 Ry
     estimated scf accuracy    <       0.00001941 Ry

     iteration #  2     ecut=    80.00 Ry     beta= 0.20
     Davidson diagonalization with overlap
     ethr =  1.87E-08,  avg # of iterations =  1.0

     total cpu time spent up to now is    53832.0 secs

     total energy              =   -1978.37160886 Ry
     estimated scf accuracy    <       0.00001445 Ry

     iteration #  3     ecut=    80.00 Ry     beta= 0.20
     Davidson diagonalization with overlap
     ethr =  1.39E-08,  avg # of iterations =  3.0

     total cpu time spent up to now is    53949.3 secs

     total energy              =   -1978.37161026 Ry
     estimated scf accuracy    <       0.00000055 Ry

     iteration #  4     ecut=    80.00 Ry     beta= 0.20
     Davidson diagonalization with overlap
     ethr =  5.28E-10,  avg # of iterations =  4.0

     total cpu time spent up to now is    54079.2 secs

     total energy              =   -1978.37161033 Ry
     estimated scf accuracy    <       0.00000021 Ry

     iteration #  5     ecut=    80.00 Ry     beta= 0.20
     Davidson diagonalization with overlap
     ethr =  2.03E-10,  avg # of iterations =  2.0

     total cpu time spent up to now is    54188.0 secs

     total energy              =   -1978.37161033 Ry
     estimated scf accuracy    <       0.00000014 Ry

     iteration #  6     ecut=    80.00 Ry     beta= 0.20
     Davidson diagonalization with overlap
     ethr =  1.37E-10,  avg # of iterations =  2.0

     total cpu time spent up to now is    54303.1 secs

     total energy              =   -1978.37161035 Ry
     estimated scf accuracy    <       0.00000003 Ry

     iteration #  7     ecut=    80.00 Ry     beta= 0.20
     Davidson diagonalization with overlap
     ethr =  2.60E-11,  avg # of iterations =  2.9

     total cpu time spent up to now is    54413.5 secs

     total energy              =   -1978.37161034 Ry
     estimated scf accuracy    <          8.5E-09 Ry

     iteration #  8     ecut=    80.00 Ry     beta= 0.20
     Davidson diagonalization with overlap
     ethr =  8.17E-12,  avg # of iterations =  3.7

     total cpu time spent up to now is    54531.7 secs

     total energy              =   -1978.37161036 Ry
     estimated scf accuracy    <          2.2E-09 Ry

     iteration #  9     ecut=    80.00 Ry     beta= 0.20
     Davidson diagonalization with overlap
     ethr =  2.09E-12,  avg # of iterations =  3.7

     total cpu time spent up to now is    54666.2 secs

     total energy              =   -1978.37161036 Ry
     estimated scf accuracy    <          6.2E-09 Ry

     iteration # 10     ecut=    80.00 Ry     beta= 0.20
     Davidson diagonalization with overlap
     ethr =  2.09E-12,  avg # of iterations =  2.7

     total cpu time spent up to now is    54788.7 secs

     total energy              =   -1978.37161036 Ry
     estimated scf accuracy    <          1.2E-09 Ry

     iteration # 11     ecut=    80.00 Ry     beta= 0.20
     Davidson diagonalization with overlap
     ethr =  1.13E-12,  avg # of iterations =  3.0

     total cpu time spent up to now is    54900.7 secs

     End of self-consistent calculation

          k = 0.0000 0.0000 0.0000 ( 21311 PWs)   bands (ev):

   -53.4912 -53.4638 -53.4460 -53.4124 -27.6656 -27.6373 -27.6198 -27.5868
   -27.4286 -27.4286 -27.3992 -27.3992 -27.3817 -27.3817 -27.3501 -27.3501
    -6.8208  -6.7761  -6.7092  -6.6513  -5.5862  -5.5123  -5.4010  -5.3285
     1.3921   1.5479   1.8409   2.0388   4.7778   4.7778   4.7877   4.8273
     4.8273   4.8409   4.8409   4.8547   4.8547   5.1553   5.7410   5.8950
     5.8950   5.9396   5.9397   5.9537   5.9537   5.9739   5.9739   6.2448
     6.9627   7.3109   7.6612   7.8154  10.1368  10.1368  10.1697  10.1697
    10.1885  10.1885  10.2297  10.2297  10.3456  10.3456

          k = 0.0000 0.0722 0.0000 ( 21283 PWs)   bands (ev):

   -53.4897 -53.4623 -53.4445 -53.4109 -27.6625 -27.6343 -27.6167 -27.5837
   -27.4442 -27.4321 -27.4147 -27.4027 -27.3972 -27.3852 -27.3656 -27.3536
    -6.7612  -6.7166  -6.6499  -6.5921  -5.5589  -5.4860  -5.3767  -5.3051
     1.4614   1.6161   1.9086   2.1071   4.6406   4.6552   4.6916   4.7055
     4.7205   4.8402   4.8895   4.9030   4.9173   4.9708   5.3843   5.5808
     5.7980   5.8426   5.8567   5.8779   5.9993   6.0492   6.1906   6.4872
     6.9671   7.2973   7.6079   7.7410  10.0601  10.0902  10.1064  10.1426
    10.1897  10.2225  10.2257  10.2479  10.2656  10.2827

          k = 0.0000 0.1443 0.0000 ( 21263 PWs)   bands (ev):

   -53.4852 -53.4578 -53.4400 -53.4064 -27.6539 -27.6257 -27.6081 -27.5750
   -27.4883 -27.4587 -27.4422 -27.4412 -27.4127 -27.4098 -27.3952 -27.3637
    -6.5874  -6.5431  -6.4774  -6.4198  -5.4793  -5.4091  -5.3061  -5.2371
     1.6544   1.8047   2.0942   2.2935   4.2915   4.3379   4.3400   4.3589
     4.3781   4.5971   4.9026   5.0198   5.0587   5.0686   5.0818   5.0980
     5.5471   5.5917   5.6060   5.6291   6.0565   6.1466   6.3531   6.6372
     6.9427   7.2024   7.4115   7.4994   9.7553   9.8235   9.8839   9.9280
     9.9846  10.0463  10.0574  10.0820  10.1099  10.1215

          k = 0.0000 0.2165 0.0000 ( 21233 PWs)   bands (ev):

   -53.4786 -53.4512 -53.4334 -53.3998 -27.6409 -27.6127 -27.5951 -27.5620
   -27.5537 -27.5240 -27.5065 -27.4752 -27.4572 -27.4277 -27.4102 -27.3787
    -6.3142  -6.2707  -6.2072  -6.1503  -5.3544  -5.2888  -5.1959  -5.1311
     1.9163   2.0548   2.3296   2.5220   3.8594   3.9013   3.9158   3.9338
     3.9929   4.1764   4.3981   4.5097   5.2219   5.2652   5.2778   5.2961
     5.3064   5.3425   5.3577   5.3750   5.9667   6.0860   6.3095   6.5477
     6.8050   6.9513   7.0520   7.1053   9.3648   9.4926   9.6569   9.8353
     9.8610   9.9033   9.9510   9.9587  10.0052  10.0907

          k = 0.0000 0.2887 0.0000 ( 21197 PWs)   bands (ev):

   -53.4707 -53.4434 -53.4256 -53.3919 -27.6301 -27.6255 -27.6001 -27.5974
   -27.5827 -27.5798 -27.5516 -27.5467 -27.4748 -27.4453 -27.4278 -27.3963
    -5.9675  -5.9252  -5.8660  -5.8105  -5.1970  -5.1373  -5.0581  -4.9989
     2.1164   2.2254   2.4429   2.5903   3.4784   3.5129   3.5544   3.5951
     3.6738   3.7827   3.9035   3.9678   4.8937   4.9382   4.9529   4.9800
     5.6206   5.6666   5.6818   5.7069   5.7518   5.8865   6.1071   6.2939
     6.5393   6.6087   6.6539   6.6969   9.2271   9.3863   9.6085   9.6719
     9.7138   9.7598   9.8128   9.8290  10.1718  10.3261

          k = 0.0000 0.3608 0.0000 ( 21187 PWs)   bands (ev):

   -53.4629 -53.4355 -53.4177 -53.3840 -27.7055 -27.6754 -27.6580 -27.6271
   -27.6101 -27.5820 -27.5645 -27.5312 -27.4924 -27.4628 -27.4453 -27.4139
    -5.5858  -5.5452  -5.4935  -5.4407  -5.0262  -4.9733  -4.9107  -4.8579
     2.0722   2.1385   2.2589   2.3413   3.1176   3.1748   3.2758   3.3870
     3.4392   3.5312   3.6003   3.6613   4.6056   4.6500   4.6654   4.6933
     5.5206   5.6539   5.8598   5.9432   5.9866   6.0076   6.0122   6.0401
     6.3229   6.3809   6.4241   6.4660   9.3477   9.4963   9.5666   9.6057
     9.6427   9.6922   9.7140   9.9140  10.4973  10.6517

          k = 0.0000 0.4330 0.0000 ( 21140 PWs)   bands (ev):

   -53.4562 -53.4288 -53.4110 -53.3774 -27.7688 -27.7386 -27.7212 -27.6904
   -27.5970 -27.5690 -27.5514 -27.5181 -27.5072 -27.4776 -27.4602 -27.4287
    -5.2243  -5.1853  -5.1454  -5.0968  -4.8680  -4.8219  -4.7772  -4.7315
     1.8309   1.8748   1.9368   1.9908   2.7749   2.8287   2.9140   2.9848
     3.3445   3.4093   3.5092   3.5835   4.3850   4.4294   4.4452   4.4737
     5.3508   5.4732   5.6623   5.7923   6.2014   6.2432   6.2743   6.3138
     6.3403   6.4063   6.4712   6.5207   9.5585   9.5940   9.6166   9.6187
     9.6623   9.7297   9.9000  10.0474  10.8041  10.9409

          k = 0.0000 0.5052 0.0000 ( 21078 PWs)   bands (ev):

   -53.4517 -53.4244 -53.4066 -53.3729 -27.8108 -27.7804 -27.7631 -27.7323
   -27.5882 -27.5603 -27.5427 -27.5171 -27.5094 -27.4875 -27.4700 -27.4386
    -4.9553  -4.9167  -4.8912  -4.8480  -4.7532  -4.7130  -4.6835  -4.6444
     1.5991   1.6361   1.6751   1.7209   2.5357   2.5786   2.6403   2.7017
     3.2465   3.3063   3.4007   3.4712   4.2474   4.2918   4.3079   4.3367
     5.2597   5.3724   5.5459   5.6580   6.3582   6.4003   6.4410   6.4857
     6.5299   6.5922   6.6578   6.7104   9.6051   9.6384   9.6562   9.6924
     9.9164   9.9866  10.0891  10.1775  10.9987  11.1097

          k = 0.0000-0.5774 0.0000 ( 21006 PWs)   bands (ev):

   -53.4501 -53.4228 -53.4050 -53.3713 -27.8254 -27.7950 -27.7777 -27.7470
   -27.5851 -27.5572 -27.5396 -27.5206 -27.5063 -27.4910 -27.4735 -27.4421
    -4.8536  -4.8146  -4.7967  -4.7568  -4.7109  -4.6736  -4.6496  -4.6140
     1.5066   1.5422   1.5759   1.6206   2.4503   2.4883   2.5413   2.6019
     3.1994   3.2584   3.3503   3.4189   4.2008   4.2451   4.2613   4.2902
     5.2327   5.3414   5.5077   5.6127   6.4092   6.4518   6.4963   6.5428
     6.6476   6.6987   6.7499   6.7976   9.6329   9.6657   9.6826   9.7153
    10.0767  10.1244  10.1680  10.2193  11.0617  11.1548

          k = 0.0625 0.1083 0.0000 ( 21269 PWs)   bands (ev):

   -53.4867 -53.4593 -53.4415 -53.4079 -27.6567 -27.6285 -27.6109 -27.5779
   -27.4735 -27.4440 -27.4394 -27.4265 -27.4099 -27.3950 -27.3924 -27.3609
    -6.6445  -6.6001  -6.5340  -6.4764  -5.5054  -5.4343  -5.3292  -5.2594
     1.5930   1.7450   2.0359   2.2353   4.4013   4.4409   4.4504   4.4666
     4.4831   4.7134   4.9592   5.0081   5.0212   5.0364   5.0520   5.2248
     5.5833   5.6278   5.6415   5.6625   6.0944   6.1702   6.3570   6.6421
     6.9585   7.2454   7.4835   7.5829   9.8839   9.9279   9.9335   9.9585
    10.0131  10.0170  10.0595  10.1075  10.1505  10.1890

          k = 0.0625 0.1804 0.0000 ( 21194 PWs)   bands (ev):

   -53.4811 -53.4537 -53.4359 -53.4023 -27.6458 -27.6177 -27.6001 -27.5670
   -27.5271 -27.4974 -27.4800 -27.4531 -27.4486 -27.4236 -27.4061 -27.3746
    -6.4208  -6.3770  -6.3125  -6.2553  -5.4030  -5.3356  -5.2386  -5.1722
     1.8247   1.9691   2.2526   2.4503   4.0195   4.0637   4.0761   4.0934
     4.1460   4.3611   4.6270   4.7618   5.1760   5.2121   5.2292   5.2351
     5.2523   5.2635   5.2798   5.2967   6.1430   6.2388   6.4340   6.6780
     6.8806   7.0736   7.2022   7.2622   9.4790   9.5829   9.7009   9.8187
     9.8583   9.9168   9.9550   9.9880  10.0125  10.0531

          k = 0.0625 0.2526 0.0000 ( 21202 PWs)   bands (ev):

   -53.4739 -53.4465 -53.4287 -53.3951 -27.6317 -27.6035 -27.5963 -27.5860
   -27.5665 -27.5528 -27.5491 -27.5179 -27.4711 -27.4416 -27.4241 -27.3926
    -6.1103  -6.0674  -6.0061  -5.9500  -5.2612  -5.1991  -5.1140  -5.0524
     2.0700   2.1949   2.4467   2.6218   3.6357   3.6727   3.6954   3.7190
     3.8110   3.9751   4.1520   4.2370   4.8399   4.8820   4.9037   4.9327
     5.4456   5.4920   5.5060   5.5283   6.0397   6.1450   6.3307   6.5174
     6.6762   6.7670   6.8153   6.8579   9.2082   9.3538   9.5356   9.6610
     9.7771   9.8216   9.8528   9.8869   9.9754  10.1240

          k = 0.0625 0.3248 0.0000 ( 21194 PWs)   bands (ev):

   -53.4660 -53.4387 -53.4209 -53.3872 -27.6704 -27.6404 -27.6230 -27.6163
   -27.5920 -27.5882 -27.5706 -27.5374 -27.4905 -27.4609 -27.4434 -27.4120
    -5.7445  -5.7031  -5.6478  -5.5936  -5.0957  -5.0399  -4.9700  -4.9144
     2.1557   2.2411   2.4059   2.5147   3.3173   3.3569   3.4251   3.5057
     3.5745   3.6708   3.6887   3.7396   4.5356   4.5800   4.6160   4.6537
     5.6836   5.7223   5.7413   5.7696   5.8282   5.9294   6.0992   6.2413
     6.4541   6.5005   6.5293   6.5669   9.1731   9.3190   9.4876   9.5742
     9.7115   9.7541   9.7952   9.9170  10.2298  10.3821

          k = 0.0625 0.3969 0.0000 ( 21151 PWs)   bands (ev):

   -53.4587 -53.4314 -53.4136 -53.3799 -27.7382 -27.7080 -27.6906 -27.6597
   -27.6020 -27.5740 -27.5564 -27.5232 -27.5083 -27.4787 -27.4612 -27.4298
    -5.3697  -5.3300  -5.2844  -5.2338  -4.9289  -4.8799  -4.8273  -4.7785
     1.9920   2.0441   2.1298   2.1941   2.9405   2.9954   3.0822   3.1562
     3.4119   3.4780   3.5757   3.6528   4.3378   4.3830   4.4201   4.4574
     5.5726   5.6712   5.8091   5.8305   5.8786   5.8907   5.9191   5.9882
     6.4643   6.5035   6.5300   6.5632   9.3134   9.4249   9.5388   9.6022
     9.7524   9.7957   9.8650   9.9963  10.5675  10.7050

          k = 0.0625 0.4691 0.0000 ( 21105 PWs)   bands (ev):

   -53.4532 -53.4258 -53.4080 -53.3743 -27.7895 -27.7592 -27.7419 -27.7111
   -27.5911 -27.5631 -27.5455 -27.5219 -27.5122 -27.4923 -27.4748 -27.4434
    -5.0494  -5.0108  -4.9789  -4.9332  -4.7894  -4.7467  -4.7113  -4.6694
     1.7485   1.7881   1.8363   1.8851   2.6209   2.6654   2.7262   2.7840
     3.3189   3.3783   3.4758   3.5502   4.2311   4.2730   4.2994   4.3323
     5.3839   5.4828   5.6331   5.7349   5.9572   5.9949   6.0288   6.0766
     6.6378   6.6773   6.7098   6.7473   9.5139   9.5756   9.6304   9.6764
     9.8899   9.9381  10.0222  10.1204  10.8818  10.9950

          k = 0.0625 0.5413 0.0000 ( 21084 PWs)   bands (ev):

   -53.4501 -53.4228 -53.4050 -53.3713 -27.8172 -27.7868 -27.7695 -27.7387
   -27.5851 -27.5572 -27.5396 -27.5293 -27.5063 -27.4996 -27.4822 -27.4508
    -4.8590  -4.8202  -4.8009  -4.7603  -4.7084  -4.6706  -4.6458  -4.6096
     1.5869   1.6226   1.6574   1.7025   2.4413   2.4787   2.5258   2.5817
     3.2317   3.2905   3.3839   3.4540   4.1871   4.2287   4.2433   4.2706
     5.2809   5.3807   5.5298   5.6252   6.0511   6.0901   6.1267   6.1744
     6.7926   6.8341   6.8722   6.9137   9.6317   9.6604   9.6812   9.7136
    10.0696  10.1185  10.1741  10.2326  11.1094  11.1909

          k = 0.1250 0.2165 0.0000 ( 21179 PWs)   bands (ev):

   -53.4750 -53.4476 -53.4298 -53.3962 -27.6338 -27.6057 -27.5881 -27.5823
   -27.5550 -27.5525 -27.5351 -27.5038 -27.4719 -27.4424 -27.4249 -27.3934
    -6.1593  -6.1163  -6.0544  -5.9980  -5.2832  -5.2202  -5.1331  -5.0707
     2.0509   2.1814   2.4445   2.6290   3.7023   3.7392   3.7569   3.7780
     3.9127   4.1085   4.3257   4.4245   4.7012   4.7439   4.7635   4.7900
     5.3660   5.4122   5.4257   5.4466   6.2247   6.3151   6.4752   6.6513
     6.7404   6.8458   6.8851   6.9274   9.1979   9.3343   9.4974   9.6180
     9.7788   9.7927   9.8318   9.8525   9.9095  10.0552

          k = 0.1250 0.2887 0.0000 ( 21199 PWs)   bands (ev):

   -53.4677 -53.4404 -53.4226 -53.3889 -27.6457 -27.6196 -27.6157 -27.5983
   -27.5915 -27.5739 -27.5672 -27.5408 -27.4953 -27.4657 -27.4482 -27.4167
    -5.8281  -5.7863  -5.7292  -5.6744  -5.1318  -5.0744  -5.0006  -4.9436
     2.2067   2.3068   2.5057   2.6375   3.4674   3.5024   3.5207   3.6035
     3.6809   3.8032   3.8814   3.9260   4.2691   4.3229   4.4027   4.4701
     5.4727   5.5144   5.5305   5.5593   6.1518   6.2342   6.3645   6.4837
     6.5597   6.5894   6.6099   6.6405   9.0383   9.1892   9.3741   9.4913
     9.7705   9.7899   9.8243   9.8930   9.9870  10.1536

          k = 0.1250 0.3608 0.0000 ( 21195 PWs)   bands (ev):

   -53.4605 -53.4331 -53.4153 -53.3816 -27.7080 -27.6779 -27.6605 -27.6296
   -27.6054 -27.5773 -27.5598 -27.5265 -27.5190 -27.4893 -27.4719 -27.4405
    -5.4651  -5.4249  -5.3759  -5.3240  -4.9670  -4.9160  -4.8582  -4.8073
     2.1518   2.2155   2.3300   2.4082   3.1399   3.1863   3.2502   3.3124
     3.5000   3.5587   3.6406   3.7237   4.0726   4.1615   4.2694   4.3364
     5.4184   5.4563   5.4764   5.5121   5.9354   6.0052   6.1097   6.1966
     6.5198   6.5536   6.5694   6.6019   9.0782   9.2287   9.4291   9.5594
     9.8431   9.8698   9.9034   9.9880  10.2243  10.3691

          k = 0.1250 0.4330 0.0000 ( 21113 PWs)   bands (ev):

   -53.4543 -53.4269 -53.4091 -53.3755 -27.7602 -27.7299 -27.7126 -27.6818
   -27.5933 -27.5653 -27.5477 -27.5391 -27.5144 -27.5095 -27.4920 -27.4607
    -5.1237  -5.0850  -5.0482  -5.0005  -4.8138  -4.7691  -4.7284  -4.6843
     1.9643   2.0093   2.0750   2.1306   2.7202   2.7595   2.8002   2.8453
     3.4464   3.4999   3.5954   3.6778   4.0468   4.1279   4.2218   4.2823
     5.3682   5.4078   5.4477   5.4959   5.6642   5.7272   5.8217   5.8986
     6.6578   6.6937   6.7114   6.7437   9.2913   9.4220   9.6065   9.7290
     9.9531   9.9837  10.0142  10.0630  10.5399  10.6512

          k = 0.1250 0.5052 0.0000 ( 21081 PWs)   bands (ev):

   -53.4501 -53.4228 -53.4050 -53.3713 -27.7948 -27.7645 -27.7471 -27.7163
   -27.5852 -27.5572 -27.5527 -27.5396 -27.5230 -27.5063 -27.5055 -27.4742
    -4.8718  -4.8332  -4.8108  -4.7687  -4.7024  -4.6633  -4.6365  -4.5991
     1.7978   1.8349   1.8759   1.9233   2.4233   2.4582   2.4896   2.5343
     3.3302   3.3884   3.4835   3.5555   4.1003   4.1570   4.2183   4.2661
     5.3687   5.4268   5.4636   5.4906   5.5153   5.5530   5.6037   5.6836
     6.8444   6.8829   6.9114   6.9488   9.5182   9.5898   9.6710   9.7297
    10.1028  10.1449  10.1975  10.2640  10.8297  10.8941

          k = 0.1250 0.5774 0.0000 ( 21108 PWs)   bands (ev):

   -53.4487 -53.4214 -53.4036 -53.3699 -27.8069 -27.7765 -27.7592 -27.7285
   -27.5823 -27.5574 -27.5544 -27.5368 -27.5277 -27.5102 -27.5035 -27.4789
    -4.7772  -4.7381  -4.7229  -4.6845  -4.6610  -4.6252  -4.6031  -4.5693
     1.7337   1.7683   1.8008   1.8467   2.3177   2.3513   2.3802   2.4258
     3.2700   3.3290   3.4237   3.4936   4.1480   4.1862   4.2188   4.2578
     5.3079   5.3915   5.4441   5.4849   5.5026   5.5459   5.5558   5.6254
     6.9369   6.9780   7.0138   7.0549   9.5989   9.6261   9.6481   9.6829
    10.2140  10.2682  10.3148  10.3620  10.9590  11.0060

          k = 0.1875 0.3248 0.0000 ( 21195 PWs)   bands (ev):

   -53.4611 -53.4337 -53.4159 -53.3822 -27.6944 -27.6643 -27.6469 -27.6160
   -27.6065 -27.5785 -27.5609 -27.5277 -27.5257 -27.4961 -27.4786 -27.4472
    -5.4982  -5.4579  -5.4078  -5.3554  -4.9800  -4.9282  -4.8685  -4.8169
     2.2199   2.2898   2.4191   2.5049   3.2696   3.3052   3.3443   3.3875
     3.5426   3.5949   3.6607   3.7311   3.9206   4.0387   4.1824   4.2600
     5.2443   5.2820   5.3019   5.3381   6.0998   6.1565   6.2369   6.3077
     6.5264   6.5617   6.5780   6.6147   8.9888   9.1517   9.3755   9.5342
     9.8676   9.8818   9.9166   9.9675  10.0798  10.2356

          k = 0.1875 0.3969 0.0000 ( 21153 PWs)   bands (ev):

   -53.4549 -53.4275 -53.4097 -53.3761 -27.7364 -27.7062 -27.6888 -27.6579
   -27.5944 -27.5665 -27.5566 -27.5489 -27.5269 -27.5156 -27.5094 -27.4781
    -5.1645  -5.1256  -5.0862  -5.0376  -4.8260  -4.7800  -4.7363  -4.6909
     2.1280   2.1797   2.2641   2.3273   2.8064   2.8356   2.8571   2.8861
     3.5883   3.6259   3.6912   3.7778   3.9193   4.0341   4.1636   4.2342
     4.9282   4.9667   4.9950   5.0373   5.8803   5.9163   5.9650   6.0204
     6.6286   6.6671   6.6877   6.7254   9.1482   9.3094   9.5575   9.7665
     9.9817  10.0095  10.0280  10.0595  10.2634  10.3903

          k = 0.1875 0.4691 0.0000 ( 21101 PWs)   bands (ev):

   -53.4502 -53.4228 -53.4050 -53.3713 -27.7669 -27.7366 -27.7193 -27.6885
   -27.5852 -27.5815 -27.5572 -27.5518 -27.5396 -27.5343 -27.5063 -27.5031
    -4.8844  -4.8459  -4.8205  -4.7771  -4.6964  -4.6562  -4.6272  -4.5887
     2.0387   2.0804   2.1376   2.1907   2.4082   2.4400   2.4593   2.4893
     3.5046   3.5618   3.6473   3.7098   3.9928   4.0893   4.2041   4.2737
     4.7498   4.7950   4.8588   4.9193   5.5801   5.6292   5.6752   5.7316
     6.8288   6.8668   6.8840   6.9183   9.3743   9.4810   9.6281   9.7297
    10.1458  10.1810  10.2253  10.3007  10.4866  10.5653

          k = 0.1875 0.5413 0.0000 ( 21112 PWs)   bands (ev):

   -53.4476 -53.4202 -53.4024 -53.3688 -27.7829 -27.7526 -27.7352 -27.7045
   -27.5955 -27.5802 -27.5657 -27.5522 -27.5483 -27.5346 -27.5170 -27.5013
    -4.7205  -4.6815  -4.6677  -4.6313  -4.6196  -4.5858  -4.5646  -4.5324
     2.0000   2.0342   2.0689   2.1205   2.1914   2.2261   2.2449   2.2774
     3.3596   3.4204   3.5148   3.5800   4.1318   4.1891   4.2569   4.3132
     4.7100   4.7648   4.8461   4.9082   5.3667   5.4202   5.4739   5.5298
     7.0132   7.0515   7.0775   7.1157   9.4503   9.4900   9.5260   9.5678
    10.3351  10.3880  10.4585  10.5417  10.6171  10.6625

          k = 0.2500 0.4330 0.0000 ( 21125 PWs)   bands (ev):

   -53.4502 -53.4228 -53.4050 -53.3713 -27.7524 -27.7221 -27.7048 -27.6740
   -27.5965 -27.5852 -27.5667 -27.5573 -27.5492 -27.5396 -27.5180 -27.5063
    -4.8895  -4.8511  -4.8245  -4.7806  -4.6939  -4.6533  -4.6234  -4.5844
     2.1491   2.1947   2.2636   2.3194   2.4035   2.4329   2.4514   2.4710
     3.6879   3.7231   3.7428   3.8046   3.9890   4.0905   4.2141   4.2858
     4.4247   4.4622   4.4820   4.5163   5.6587   5.6887   5.6962   5.7650
     6.8122   6.8512   6.8672   6.9015   9.3142   9.4317   9.6009   9.7223
    10.1574  10.1899  10.2206  10.3088  10.3582  10.4685

          k = 0.2500 0.5052 0.0000 ( 21117 PWs)   bands (ev):

   -53.4470 -53.4196 -53.4018 -53.3682 -27.7571 -27.7269 -27.7095 -27.6787
   -27.6290 -27.5992 -27.5818 -27.5790 -27.5511 -27.5506 -27.5335 -27.5001
    -4.6923  -4.6534  -4.6399  -4.6049  -4.5947  -4.5625  -4.5415  -4.5100
     2.1017   2.1346   2.1477   2.1751   2.2573   2.3019   2.3506   2.3980
     3.5320   3.5929   3.6650   3.7054   4.0821   4.1140   4.1574   4.2022
     4.2407   4.2986   4.3556   4.4019   5.3783   5.4133   5.4403   5.5037
     7.0529   7.0900   7.1058   7.1393   9.3182   9.3655   9.4184   9.4689
    10.3057  10.3415  10.3751  10.4050  10.5543  10.6078

          k = 0.2500 0.5774 0.0000 ( 21116 PWs)   bands (ev):

   -53.4459 -53.4185 -53.4007 -53.3670 -27.7570 -27.7267 -27.7093 -27.6785
   -27.6423 -27.6125 -27.5950 -27.5768 -27.5638 -27.5489 -27.5313 -27.4980
    -4.6193  -4.5818  -4.5710  -4.5619  -4.5395  -4.5294  -4.5116  -4.4836
     2.0002   2.0327   2.0470   2.0732   2.3439   2.3761   2.4050   2.4467
     3.3743   3.4346   3.5154   3.5691   4.0512   4.0942   4.1702   4.2340
     4.2951   4.3485   4.3985   4.4411   5.2565   5.2884   5.3029   5.3666
     7.1798   7.2164   7.2358   7.2721   9.2464   9.2800   9.2978   9.3260
    10.3309  10.3683  10.4048  10.4277  10.7098  10.7486

          k = 0.3125 0.5413 0.0000 ( 21100 PWs)   bands (ev):

   -53.4453 -53.4179 -53.4001 -53.3664 -27.7359 -27.7056 -27.6883 -27.6707
   -27.6575 -27.6409 -27.6235 -27.5923 -27.5756 -27.5478 -27.5301 -27.4968
    -4.5836  -4.5493  -4.5403  -4.5336  -4.5129  -4.5049  -4.4924  -4.4653
     1.9309   1.9646   1.9794   2.0034   2.5712   2.6087   2.6450   2.6910
     3.3762   3.3886   3.4082   3.4375   3.8496   3.8694   3.8853   3.9039
     4.3509   4.4055   4.4515   4.4994   5.1710   5.2073   5.2295   5.2959
     7.2621   7.2973   7.3124   7.3464   9.1297   9.1656   9.1833   9.2106
    10.2649  10.2880  10.3111  10.3464  10.8078  10.8648

     the Fermi energy is     8.3459 ev

!    total energy              =   -1978.37161037 Ry
     total all-electron energy =    -38771.692455 Ry
     estimated scf accuracy    <          8.9E-10 Ry
     smearing contrib. (-TS)   =       0.00003054 Ry
     internal energy E=F+TS    =   -1978.37164091 Ry

     The total energy is F=E-TS. E is the sum of the following terms:
     one-electron contribution =   -1473.11352202 Ry
     hartree contribution      =     778.82101475 Ry
     xc contribution           =    -119.23390348 Ry
     ewald contribution        =     105.00585251 Ry
     one-center paw contrib.   =   -1269.85108269 Ry

     convergence has been achieved in  11 iterations

     Forces acting on atoms (cartesian axes, Ry/au):

     atom    1 type  2   force =     0.00000000   -0.00000000   -0.00024954
     atom    2 type  1   force =     0.00000000    0.00000000    0.00038843
     atom    3 type  2   force =     0.00000000    0.00000000    0.00143136
     atom    4 type  2   force =     0.00000000    0.00000000   -0.00003894
     atom    5 type  1   force =     0.00000000   -0.00000000    0.00187154
     atom    6 type  2   force =     0.00000000    0.00000000   -0.00041573
     atom    7 type  2   force =     0.00000000   -0.00000000   -0.00010577
     atom    8 type  1   force =     0.00000000    0.00000000    0.00009225
     atom    9 type  2   force =     0.00000000    0.00000000   -0.00098087
     atom   10 type  2   force =     0.00000000    0.00000000   -0.00143651
     atom   11 type  1   force =     0.00000000    0.00000000   -0.00076205
     atom   12 type  2   force =     0.00000000   -0.00000000    0.00020582

     Total force =     0.003100     Total SCF correction =     0.000110
     Energy error            =      3.0E-05 Ry
     Gradient error          =      1.9E-03 Ry/Bohr

     number of scf cycles    =  23
     number of bfgs steps    =  19

     energy             old  =   -1978.3715801507 Ry
     energy             new  =   -1978.3716103724 Ry

     CASE: energy            _new < energy            _old

     new trust radius        =       0.0149747085 bohr
     new conv_thr            =       0.0000000010 Ry


ATOMIC_POSITIONS (crystal)
S                0.3333329846        0.6666669692       -0.1113976625
Mo               0.0000000000        0.0000000000       -0.0590208735
S                0.3333329846        0.6666669692       -0.0066277859
S                0.6666669692        0.3333329846        0.0986107312
Mo               0.3333329846        0.6666669692        0.1510931107
S                0.6666669692        0.3333329846        0.2036643004
S                0.0000000000        0.0000000000        0.3147829095
Mo               0.6666669692        0.3333329846        0.3673300119
S                0.0000000000        0.0000000000        0.4198777568
S                0.3333329846        0.6666669692        0.5264938609
Mo               0.0000000000        0.0000000000        0.5789160241
S                0.3333329846        0.6666669692        0.6312774726



     Writing config-only to output data dir ./tmp/relax2/mos2_slab2.save/ :
     XML data file
     NEW-OLD atomic charge density approx. for the potential

     total cpu time spent up to now is    54955.6 secs

     Self-consistent Calculation

     iteration #  1     ecut=    80.00 Ry     beta= 0.20
     Davidson diagonalization with overlap
     ethr =  1.00E-06,  avg # of iterations =  6.0

     Threshold (ethr) on eigenvalues was too large:
     Diagonalizing with lowered threshold

     Davidson diagonalization with overlap
     ethr =  4.23E-08,  avg # of iterations =  4.1

     total cpu time spent up to now is    55313.5 secs

     total energy              =   -1978.37168757 Ry
     estimated scf accuracy    <       0.00007971 Ry

     iteration #  2     ecut=    80.00 Ry     beta= 0.20
     Davidson diagonalization with overlap
     ethr =  7.66E-08,  avg # of iterations =  1.0

     total cpu time spent up to now is    55412.2 secs

     total energy              =   -1978.37166884 Ry
     estimated scf accuracy    <       0.00005967 Ry

     iteration #  3     ecut=    80.00 Ry     beta= 0.20
     Davidson diagonalization with overlap
     ethr =  5.74E-08,  avg # of iterations =  2.7

     total cpu time spent up to now is    55530.5 secs

     total energy              =   -1978.37167485 Ry
     estimated scf accuracy    <       0.00000210 Ry

     iteration #  4     ecut=    80.00 Ry     beta= 0.20
     Davidson diagonalization with overlap
     ethr =  2.02E-09,  avg # of iterations =  3.8

     total cpu time spent up to now is    55666.7 secs

     total energy              =   -1978.37167523 Ry
     estimated scf accuracy    <       0.00000077 Ry

     iteration #  5     ecut=    80.00 Ry     beta= 0.20
     Davidson diagonalization with overlap
     ethr =  7.36E-10,  avg # of iterations =  1.4

     total cpu time spent up to now is    55769.2 secs

     total energy              =   -1978.37167515 Ry
     estimated scf accuracy    <       0.00000059 Ry

     iteration #  6     ecut=    80.00 Ry     beta= 0.20
     Davidson diagonalization with overlap
     ethr =  5.66E-10,  avg # of iterations =  2.0

     total cpu time spent up to now is    55890.8 secs

     total energy              =   -1978.37167521 Ry
     estimated scf accuracy    <       0.00000010 Ry

     iteration #  7     ecut=    80.00 Ry     beta= 0.20
     Davidson diagonalization with overlap
     ethr =  9.72E-11,  avg # of iterations =  2.0

     total cpu time spent up to now is    55997.0 secs

     total energy              =   -1978.37167521 Ry
     estimated scf accuracy    <       0.00000006 Ry

     iteration #  8     ecut=    80.00 Ry     beta= 0.20
     Davidson diagonalization with overlap
     ethr =  5.92E-11,  avg # of iterations =  2.5

     total cpu time spent up to now is    56110.1 secs

     total energy              =   -1978.37167520 Ry
     estimated scf accuracy    <       0.00000002 Ry

     iteration #  9     ecut=    80.00 Ry     beta= 0.20
     Davidson diagonalization with overlap
     ethr =  1.62E-11,  avg # of iterations =  2.2

     total cpu time spent up to now is    56231.6 secs

     total energy              =   -1978.37167521 Ry
     estimated scf accuracy    <       0.00000003 Ry

     iteration # 10     ecut=    80.00 Ry     beta= 0.20
     Davidson diagonalization with overlap
     ethr =  1.62E-11,  avg # of iterations =  1.7

     total cpu time spent up to now is    56338.8 secs

     total energy              =   -1978.37167520 Ry
     estimated scf accuracy    <       0.00000002 Ry

     iteration # 11     ecut=    80.00 Ry     beta= 0.20
     Davidson diagonalization with overlap
     ethr =  1.62E-11,  avg # of iterations =  1.0

     total cpu time spent up to now is    56438.1 secs

     total energy              =   -1978.37167519 Ry
     estimated scf accuracy    <       0.00000002 Ry

     iteration # 12     ecut=    80.00 Ry     beta= 0.20
     Davidson diagonalization with overlap
     ethr =  1.47E-11,  avg # of iterations =  1.0

     total cpu time spent up to now is    56537.2 secs

     total energy              =   -1978.37167520 Ry
     estimated scf accuracy    <       0.00000002 Ry

     iteration # 13     ecut=    80.00 Ry     beta= 0.20
     Davidson diagonalization with overlap
     ethr =  1.47E-11,  avg # of iterations =  1.0

     total cpu time spent up to now is    56636.3 secs

     total energy              =   -1978.37167519 Ry
     estimated scf accuracy    <       0.00000001 Ry

     iteration # 14     ecut=    80.00 Ry     beta= 0.20
     Davidson diagonalization with overlap
     ethr =  1.25E-11,  avg # of iterations =  2.6

     total cpu time spent up to now is    56747.9 secs

     total energy              =   -1978.37167520 Ry
     estimated scf accuracy    <       0.00000001 Ry

     iteration # 15     ecut=    80.00 Ry     beta= 0.20
     Davidson diagonalization with overlap
     ethr =  1.18E-11,  avg # of iterations =  2.9

     total cpu time spent up to now is    56874.8 secs

     total energy              =   -1978.37167520 Ry
     estimated scf accuracy    <       0.00000004 Ry

     iteration # 16     ecut=    80.00 Ry     beta= 0.20
     Davidson diagonalization with overlap
     ethr =  1.18E-11,  avg # of iterations =  1.1

     total cpu time spent up to now is    56974.4 secs

     total energy              =   -1978.37167519 Ry
     estimated scf accuracy    <       0.00000004 Ry

     iteration # 17     ecut=    80.00 Ry     beta= 0.20
     Davidson diagonalization with overlap
     ethr =  1.18E-11,  avg # of iterations =  2.0

     total cpu time spent up to now is    57086.0 secs

     total energy              =   -1978.37167519 Ry
     estimated scf accuracy    <       0.00000001 Ry

     iteration # 18     ecut=    80.00 Ry     beta= 0.20
     Davidson diagonalization with overlap
     ethr =  1.18E-11,  avg # of iterations =  1.3

     total cpu time spent up to now is    57187.9 secs

     total energy              =   -1978.37167519 Ry
     estimated scf accuracy    <       0.00000001 Ry

     iteration # 19     ecut=    80.00 Ry     beta= 0.20
     Davidson diagonalization with overlap
     ethr =  1.18E-11,  avg # of iterations =  2.8

     total cpu time spent up to now is    57304.1 secs

     total energy              =   -1978.37167518 Ry
     estimated scf accuracy    <       0.00000001 Ry

     iteration # 20     ecut=    80.00 Ry     beta= 0.20
     Davidson diagonalization with overlap
     ethr =  1.18E-11,  avg # of iterations =  2.0

     total cpu time spent up to now is    57416.7 secs

     total energy              =   -1978.37167519 Ry
     estimated scf accuracy    <          6.1E-09 Ry

     iteration # 21     ecut=    80.00 Ry     beta= 0.20
     Davidson diagonalization with overlap
     ethr =  5.89E-12,  avg # of iterations =  1.7

     total cpu time spent up to now is    57522.6 secs

     total energy              =   -1978.37167518 Ry
     estimated scf accuracy    <          5.8E-09 Ry

     iteration # 22     ecut=    80.00 Ry     beta= 0.20
     Davidson diagonalization with overlap
     ethr =  5.53E-12,  avg # of iterations =  3.5

     total cpu time spent up to now is    57645.6 secs

     total energy              =   -1978.37167518 Ry
     estimated scf accuracy    <          8.9E-09 Ry

     iteration # 23     ecut=    80.00 Ry     beta= 0.20
     Davidson diagonalization with overlap
     ethr =  5.53E-12,  avg # of iterations =  1.6

     total cpu time spent up to now is    57749.9 secs

     total energy              =   -1978.37167519 Ry
     estimated scf accuracy    <          3.6E-09 Ry

     iteration # 24     ecut=    80.00 Ry     beta= 0.20
     Davidson diagonalization with overlap
     ethr =  3.50E-12,  avg # of iterations =  2.7

     total cpu time spent up to now is    57874.4 secs

     total energy              =   -1978.37167519 Ry
     estimated scf accuracy    <          2.1E-09 Ry

     iteration # 25     ecut=    80.00 Ry     beta= 0.20
     Davidson diagonalization with overlap
     ethr =  2.06E-12,  avg # of iterations =  2.1

     total cpu time spent up to now is    57988.7 secs

     total energy              =   -1978.37167519 Ry
     estimated scf accuracy    <          1.3E-09 Ry

     iteration # 26     ecut=    80.00 Ry     beta= 0.20
     Davidson diagonalization with overlap
     ethr =  1.23E-12,  avg # of iterations =  2.1

     total cpu time spent up to now is    58100.4 secs

     End of self-consistent calculation

          k = 0.0000 0.0000 0.0000 ( 21311 PWs)   bands (ev):

   -53.4922 -53.4639 -53.4450 -53.4119 -27.6667 -27.6373 -27.6187 -27.5864
   -27.4299 -27.4298 -27.3991 -27.3991 -27.3806 -27.3806 -27.3498 -27.3498
    -6.8226  -6.7763  -6.7098  -6.6509  -5.5876  -5.5119  -5.4012  -5.3275
     1.3898   1.5476   1.8391   2.0406   4.7734   4.7734   4.7849   4.8286
     4.8286   4.8427   4.8427   4.8528   4.8528   5.1571   5.7403   5.8914
     5.8914   5.9406   5.9406   5.9552   5.9552   5.9726   5.9726   6.2481
     6.9626   7.3145   7.6627   7.8180  10.1360  10.1360  10.1696  10.1696
    10.1889  10.1889  10.2301  10.2301  10.3454  10.3454

          k = 0.0000 0.0722 0.0000 ( 21283 PWs)   bands (ev):

   -53.4906 -53.4623 -53.4435 -53.4103 -27.6637 -27.6343 -27.6157 -27.5833
   -27.4454 -27.4334 -27.4146 -27.4027 -27.3961 -27.3841 -27.3653 -27.3533
    -6.7630  -6.7168  -6.6506  -6.5917  -5.5603  -5.4855  -5.3769  -5.3041
     1.4591   1.6157   1.9067   2.1089   4.6366   4.6523   4.6928   4.7073
     4.7186   4.8358   4.8908   4.9047   4.9155   4.9720   5.3833   5.5820
     5.7944   5.8436   5.8581   5.8767   5.9987   6.0492   6.1897   6.4891
     6.9671   7.3007   7.6093   7.7434  10.0593  10.0899  10.1072  10.1432
    10.1901  10.2225  10.2251  10.2483  10.2621  10.2742

          k = 0.0000 0.1443 0.0000 ( 21263 PWs)   bands (ev):

   -53.4862 -53.4579 -53.4391 -53.4059 -27.6550 -27.6257 -27.6071 -27.5746
   -27.4895 -27.4586 -27.4434 -27.4401 -27.4127 -27.4095 -27.3941 -27.3634
    -6.5891  -6.5433  -6.4781  -6.4194  -5.4806  -5.4088  -5.3063  -5.2362
     1.6521   1.8042   2.0922   2.2952   4.2876   4.3360   4.3411   4.3605
     4.3761   4.5977   4.9017   5.0155   5.0601   5.0698   5.0833   5.0965
     5.5436   5.5926   5.6072   5.6282   6.0559   6.1468   6.3523   6.6385
     6.9427   7.2051   7.4124   7.5011   9.7555   9.8244   9.8846   9.9276
     9.9855  10.0464  10.0582  10.0813  10.1114  10.1220

          k = 0.0000 0.2165 0.0000 ( 21233 PWs)   bands (ev):

   -53.4796 -53.4513 -53.4324 -53.3992 -27.6420 -27.6127 -27.5941 -27.5616
   -27.5550 -27.5239 -27.5054 -27.4749 -27.4584 -27.4276 -27.4091 -27.3784
    -6.3160  -6.2709  -6.2078  -6.1499  -5.3557  -5.2885  -5.1961  -5.1303
     1.9141   2.0542   2.3275   2.5236   3.8560   3.9017   3.9160   3.9336
     3.9913   4.1768   4.3974   4.5110   5.2185   5.2657   5.2783   5.2926
     5.3057   5.3436   5.3592   5.3737   5.9659   6.0865   6.3092   6.5489
     6.8050   6.9525   7.0523   7.1065   9.3649   9.4939   9.6578   9.8362
     9.8603   9.9038   9.9512   9.9591  10.0063  10.0919

          k = 0.0000 0.2887 0.0000 ( 21197 PWs)   bands (ev):

   -53.4717 -53.4434 -53.4246 -53.3914 -27.6314 -27.6266 -27.6000 -27.5974
   -27.5816 -27.5788 -27.5513 -27.5462 -27.4761 -27.4452 -27.4267 -27.3960
    -5.9693  -5.9253  -5.8665  -5.8101  -5.1983  -5.1372  -5.0583  -4.9982
     2.1144   2.2246   2.4407   2.5914   3.4760   3.5126   3.5553   3.5930
     3.6732   3.7834   3.9034   3.9688   4.8902   4.9389   4.9538   4.9793
     5.6168   5.6674   5.6827   5.7062   5.7508   5.8873   6.1070   6.2952
     6.5390   6.6090   6.6541   6.6979   9.2269   9.3876   9.6093   9.6712
     9.7142   9.7600   9.8138   9.8305  10.1720  10.3273

          k = 0.0000 0.3608 0.0000 ( 21187 PWs)   bands (ev):

   -53.4638 -53.4356 -53.4167 -53.3835 -27.7069 -27.6753 -27.6569 -27.6268
   -27.6112 -27.5821 -27.5634 -27.5308 -27.4936 -27.4628 -27.4442 -27.4136
    -5.5877  -5.5452  -5.4940  -5.4405  -5.0274  -4.9732  -4.9108  -4.8574
     2.0705   2.1376   2.2573   2.3418   3.1159   3.1746   3.2749   3.3866
     3.4380   3.5320   3.6003   3.6622   4.6021   4.6507   4.6662   4.6927
     5.5194   5.6549   5.8599   5.9400   5.9871   6.0082   6.0135   6.0397
     6.3221   6.3812   6.4244   6.4667   9.3473   9.4975   9.5658   9.6059
     9.6429   9.6930   9.7145   9.9155  10.4974  10.6529

          k = 0.0000 0.4330 0.0000 ( 21140 PWs)   bands (ev):

   -53.4571 -53.4289 -53.4100 -53.3768 -27.7702 -27.7384 -27.7201 -27.6902
   -27.5981 -27.5690 -27.5504 -27.5177 -27.5085 -27.4776 -27.4591 -27.4284
    -5.2264  -5.1853  -5.1458  -5.0967  -4.8693  -4.8219  -4.7771  -4.7311
     1.8291   1.8743   1.9360   1.9909   2.7735   2.8285   2.9132   2.9852
     3.3432   3.4093   3.5087   3.5843   4.3816   4.4301   4.4460   4.4731
     5.3495   5.4742   5.6623   5.7936   6.1988   6.2433   6.2745   6.3138
     6.3397   6.4064   6.4712   6.5215   9.5575   9.5940   9.6160   9.6192
     9.6628   9.7306   9.9003  10.0487  10.8039  10.9421

          k = 0.0000 0.5052 0.0000 ( 21078 PWs)   bands (ev):

   -53.4527 -53.4244 -53.4056 -53.3723 -27.8122 -27.7803 -27.7619 -27.7322
   -27.5893 -27.5603 -27.5416 -27.5184 -27.5089 -27.4874 -27.4689 -27.4383
    -4.9576  -4.9165  -4.8912  -4.8481  -4.7548  -4.7130  -4.6830  -4.6443
     1.5972   1.6360   1.6748   1.7208   2.5344   2.5786   2.6398   2.7020
     3.2451   3.3062   3.4002   3.4718   4.2440   4.2924   4.3086   4.3361
     5.2584   5.3734   5.5459   5.6593   6.3562   6.4003   6.4410   6.4858
     6.5292   6.5922   6.6577   6.7111   9.6038   9.6385   9.6571   9.6927
     9.9158   9.9871  10.0892  10.1785  10.9982  11.1108

          k = 0.0000-0.5774 0.0000 ( 21006 PWs)   bands (ev):

   -53.4511 -53.4229 -53.4040 -53.3708 -27.8268 -27.7949 -27.7766 -27.7468
   -27.5862 -27.5572 -27.5386 -27.5218 -27.5058 -27.4909 -27.4724 -27.4418
    -4.8561  -4.8143  -4.7964  -4.7571  -4.7127  -4.6736  -4.6489  -4.6140
     1.5048   1.5421   1.5758   1.6205   2.4490   2.4883   2.5408   2.6022
     3.1979   3.2582   3.3498   3.4195   4.1973   4.2457   4.2620   4.2896
     5.2313   5.3423   5.5078   5.6140   6.4073   6.4517   6.4962   6.5431
     6.6470   6.6987   6.7498   6.7983   9.6313   9.6659   9.6836   9.7154
    10.0759  10.1247  10.1683  10.2200  11.0610  11.1558

          k = 0.0625 0.1083 0.0000 ( 21269 PWs)   bands (ev):

   -53.4876 -53.4593 -53.4405 -53.4073 -27.6578 -27.6285 -27.6099 -27.5775
   -27.4748 -27.4439 -27.4406 -27.4254 -27.4099 -27.3947 -27.3913 -27.3606
    -6.6462  -6.6003  -6.5347  -6.4760  -5.5068  -5.4340  -5.3294  -5.2585
     1.5907   1.7445   2.0340   2.2370   4.3972   4.4385   4.4516   4.4685
     4.4811   4.7142   4.9549   5.0094   5.0229   5.0346   5.0511   5.2263
     5.5797   5.6287   5.6431   5.6612   6.0939   6.1703   6.3562   6.6434
     6.9586   7.2483   7.4846   7.5847   9.8842   9.9279   9.9332   9.9597
    10.0137  10.0170  10.0596  10.1090  10.1504  10.1889

          k = 0.0625 0.1804 0.0000 ( 21194 PWs)   bands (ev):

   -53.4821 -53.4538 -53.4350 -53.4018 -27.6470 -27.6177 -27.5991 -27.5666
   -27.5284 -27.4973 -27.4789 -27.4544 -27.4483 -27.4236 -27.4051 -27.3743
    -6.4226  -6.3772  -6.3131  -6.2549  -5.4043  -5.3353  -5.2388  -5.1714
     1.8225   1.9686   2.2506   2.4520   4.0157   4.0646   4.0766   4.0928
     4.1442   4.3615   4.6262   4.7632   5.1718   5.2099   5.2292   5.2359
     5.2515   5.2644   5.2814   5.2953   6.1424   6.2391   6.4334   6.6790
     6.8807   7.0754   7.2028   7.2635   9.4792   9.5841   9.7017   9.8186
     9.8587   9.9166   9.9553   9.9885  10.0134  10.0533

          k = 0.0625 0.2526 0.0000 ( 21202 PWs)   bands (ev):

   -53.4748 -53.4466 -53.4277 -53.3945 -27.6328 -27.6035 -27.5976 -27.5849
   -27.5664 -27.5524 -27.5480 -27.5176 -27.4723 -27.4415 -27.4230 -27.3923
    -6.1121  -6.0675  -6.0068  -5.9496  -5.2625  -5.1988  -5.1142  -5.0517
     2.0678   2.1942   2.4445   2.6232   3.6329   3.6725   3.6964   3.7180
     3.8097   3.9755   4.1515   4.2381   4.8369   4.8828   4.9043   4.9323
     5.4417   5.4929   5.5072   5.5272   6.0389   6.1455   6.3305   6.5183
     6.6762   6.7676   6.8155   6.8590   9.2081   9.3551   9.5362   9.6616
     9.7769   9.8216   9.8533   9.8875   9.9761  10.1255

          k = 0.0625 0.3248 0.0000 ( 21194 PWs)   bands (ev):

   -53.4670 -53.4387 -53.4199 -53.3867 -27.6718 -27.6403 -27.6219 -27.6174
   -27.5918 -27.5882 -27.5696 -27.5370 -27.4917 -27.4608 -27.4423 -27.4117
    -5.7463  -5.7032  -5.6483  -5.5933  -5.0970  -5.0398  -4.9702  -4.9138
     2.1539   2.2402   2.4040   2.5154   3.3153   3.3566   3.4252   3.5034
     3.5740   3.6714   3.6900   3.7399   4.5333   4.5802   4.6162   4.6537
     5.6804   5.7226   5.7422   5.7691   5.8274   5.9300   6.0992   6.2424
     6.4533   6.5005   6.5297   6.5675   9.1727   9.3201   9.4878   9.5749
     9.7111   9.7545   9.7959   9.9182  10.2300  10.3833

          k = 0.0625 0.3969 0.0000 ( 21151 PWs)   bands (ev):

   -53.4597 -53.4315 -53.4126 -53.3794 -27.7395 -27.7079 -27.6895 -27.6595
   -27.6031 -27.5740 -27.5554 -27.5227 -27.5096 -27.4786 -27.4601 -27.4295
    -5.3716  -5.3301  -5.2849  -5.2336  -4.9302  -4.8798  -4.8273  -4.7780
     1.9903   2.0434   2.1285   2.1944   2.9390   2.9951   3.0813   3.1565
     3.4108   3.4781   3.5752   3.6537   4.3355   4.3831   4.4203   4.4574
     5.5715   5.6719   5.8091   5.8280   5.8792   5.8909   5.9194   5.9891
     6.4629   6.5036   6.5305   6.5634   9.3129   9.4257   9.5387   9.6029
     9.7520   9.7962   9.8653   9.9975  10.5676  10.7061

          k = 0.0625 0.4691 0.0000 ( 21105 PWs)   bands (ev):

   -53.4541 -53.4259 -53.4070 -53.3738 -27.7909 -27.7591 -27.7407 -27.7109
   -27.5921 -27.5631 -27.5445 -27.5232 -27.5118 -27.4922 -27.4737 -27.4431
    -5.0516  -5.0107  -4.9791  -4.9332  -4.7909  -4.7467  -4.7109  -4.6691
     1.7467   1.7878   1.8358   1.8851   2.6195   2.6653   2.7257   2.7842
     3.3175   3.3782   3.4751   3.5508   4.2283   4.2734   4.3000   4.3319
     5.3828   5.4836   5.6331   5.7360   5.9553   5.9951   6.0289   6.0768
     6.6364   6.6774   6.7101   6.7476   9.5133   9.5758   9.6304   9.6770
     9.8894   9.9385  10.0223  10.1215  10.8816  10.9959

          k = 0.0625 0.5413 0.0000 ( 21084 PWs)   bands (ev):

   -53.4511 -53.4229 -53.4040 -53.3708 -27.8185 -27.7867 -27.7683 -27.7386
   -27.5862 -27.5572 -27.5386 -27.5305 -27.5059 -27.4996 -27.4811 -27.4505
    -4.8615  -4.8199  -4.8007  -4.7605  -4.7101  -4.6706  -4.6451  -4.6096
     1.5850   1.6225   1.6572   1.7024   2.4399   2.4786   2.5254   2.5819
     3.2302   3.2903   3.3833   3.4545   4.1837   4.2294   4.2446   4.2695
     5.2797   5.3816   5.5299   5.6263   6.0494   6.0902   6.1268   6.1746
     6.7914   6.8341   6.8724   6.9141   9.6305   9.6603   9.6820   9.7138
    10.0690  10.1188  10.1742  10.2334  11.1089  11.1916

          k = 0.1250 0.2165 0.0000 ( 21179 PWs)   bands (ev):

   -53.4760 -53.4477 -53.4288 -53.3956 -27.6349 -27.6057 -27.5871 -27.5836
   -27.5546 -27.5524 -27.5340 -27.5036 -27.4732 -27.4424 -27.4238 -27.3931
    -6.1611  -6.1164  -6.0550  -5.9976  -5.2845  -5.2199  -5.1333  -5.0700
     2.0487   2.1807   2.4423   2.6305   3.6990   3.7397   3.7583   3.7768
     3.9111   4.1090   4.3251   4.4257   4.6981   4.7449   4.7642   4.7896
     5.3621   5.4132   5.4271   5.4453   6.2241   6.3155   6.4749   6.6515
     6.7408   6.8465   6.8853   6.9286   9.1978   9.3356   9.4979   9.6188
     9.7781   9.7927   9.8319   9.8531   9.9105  10.0576

          k = 0.1250 0.2887 0.0000 ( 21199 PWs)   bands (ev):

   -53.4687 -53.4404 -53.4216 -53.3884 -27.6470 -27.6207 -27.6156 -27.5972
   -27.5915 -27.5729 -27.5670 -27.5404 -27.4965 -27.4656 -27.4471 -27.4165
    -5.8299  -5.7864  -5.7298  -5.6741  -5.1331  -5.0743  -5.0008  -4.9429
     2.2047   2.3060   2.5036   2.6385   3.4653   3.5016   3.5215   3.6018
     3.6802   3.8035   3.8816   3.9265   4.2679   4.3228   4.4023   4.4710
     5.4696   5.5149   5.5315   5.5585   6.1512   6.2347   6.3646   6.4840
     6.5592   6.5893   6.6105   6.6411   9.0379   9.1905   9.3745   9.4922
     9.7702   9.7899   9.8252   9.8927   9.9879  10.1555

          k = 0.1250 0.3608 0.0000 ( 21195 PWs)   bands (ev):

   -53.4614 -53.4332 -53.4143 -53.3811 -27.7094 -27.6778 -27.6594 -27.6293
   -27.6065 -27.5774 -27.5587 -27.5261 -27.5202 -27.4893 -27.4708 -27.4402
    -5.4670  -5.4250  -5.3764  -5.3238  -4.9683  -4.9159  -4.8582  -4.8068
     2.1501   2.2146   2.3284   2.4087   3.1383   3.1859   3.2494   3.3123
     3.4990   3.5586   3.6399   3.7244   4.0715   4.1614   4.2691   4.3373
     5.4161   5.4564   5.4772   5.5118   5.9348   6.0057   6.1098   6.1974
     6.5178   6.5539   6.5706   6.6017   9.0775   9.2298   9.4294   9.5603
     9.8425   9.8699   9.9039   9.9887  10.2245  10.3704

          k = 0.1250 0.4330 0.0000 ( 21113 PWs)   bands (ev):

   -53.4552 -53.4270 -53.4081 -53.3749 -27.7615 -27.7298 -27.7115 -27.6815
   -27.5943 -27.5653 -27.5467 -27.5404 -27.5140 -27.5094 -27.4909 -27.4604
    -5.1258  -5.0849  -5.0484  -5.0005  -4.8152  -4.7691  -4.7282  -4.6840
     1.9625   2.0088   2.0742   2.1307   2.7186   2.7592   2.8002   2.8452
     3.4451   3.4997   3.5945   3.6783   4.0456   4.1277   4.2214   4.2830
     5.3666   5.4078   5.4476   5.4961   5.6635   5.7277   5.8219   5.8996
     6.6557   6.6940   6.7125   6.7435   9.2905   9.4230   9.6066   9.7299
     9.9520   9.9841  10.0146  10.0637  10.5398  10.6522

          k = 0.1250 0.5052 0.0000 ( 21081 PWs)   bands (ev):

   -53.4511 -53.4229 -53.4040 -53.3708 -27.7961 -27.7643 -27.7460 -27.7161
   -27.5862 -27.5572 -27.5539 -27.5386 -27.5229 -27.5059 -27.5044 -27.4739
    -4.8742  -4.8330  -4.8107  -4.7688  -4.7040  -4.6634  -4.6359  -4.5991
     1.7960   1.8348   1.8755   1.9233   2.4215   2.4581   2.4898   2.5340
     3.3287   3.3881   3.4827   3.5561   4.0989   4.1568   4.2182   4.2664
     5.3674   5.4262   5.4634   5.4903   5.5160   5.5530   5.6040   5.6847
     6.8428   6.8831   6.9119   6.9489   9.5175   9.5900   9.6709   9.7303
    10.1021  10.1452  10.1976  10.2648  10.8292  10.8947

          k = 0.1250 0.5774 0.0000 ( 21108 PWs)   bands (ev):

   -53.4496 -53.4214 -53.4026 -53.3693 -27.8083 -27.7764 -27.7580 -27.7283
   -27.5834 -27.5587 -27.5544 -27.5358 -27.5276 -27.5092 -27.5030 -27.4786
    -4.7798  -4.7378  -4.7225  -4.6849  -4.6628  -4.6252  -4.6022  -4.5694
     1.7318   1.7682   1.8006   1.8466   2.3158   2.3513   2.3805   2.4256
     3.2685   3.3287   3.4229   3.4942   4.1460   4.1863   4.2191   4.2575
     5.3068   5.3921   5.4428   5.4850   5.5025   5.5457   5.5566   5.6264
     6.9356   6.9781   7.0141   7.0552   9.5977   9.6261   9.6488   9.6832
    10.2133  10.2684  10.3149  10.3626  10.9579  11.0067

          k = 0.1875 0.3248 0.0000 ( 21195 PWs)   bands (ev):

   -53.4620 -53.4338 -53.4149 -53.3817 -27.6958 -27.6642 -27.6458 -27.6157
   -27.6076 -27.5785 -27.5599 -27.5273 -27.5270 -27.4960 -27.4775 -27.4469
    -5.5001  -5.4579  -5.4082  -5.3552  -4.9812  -4.9281  -4.8686  -4.8164
     2.2181   2.2889   2.4175   2.5054   3.2679   3.3046   3.3434   3.3871
     3.5420   3.5947   3.6601   3.7309   3.9200   4.0391   4.1823   4.2612
     5.2420   5.2822   5.3026   5.3377   6.0993   6.1568   6.2369   6.3084
     6.5245   6.5618   6.5791   6.6147   8.9880   9.1530   9.3759   9.5354
     9.8669   9.8819   9.9172   9.9675  10.0805  10.2372

          k = 0.1875 0.3969 0.0000 ( 21153 PWs)   bands (ev):

   -53.4558 -53.4276 -53.4087 -53.3755 -27.7377 -27.7061 -27.6877 -27.6577
   -27.5955 -27.5665 -27.5579 -27.5478 -27.5268 -27.5152 -27.5083 -27.4778
    -5.1666  -5.1256  -5.0865  -5.0375  -4.8273  -4.7800  -4.7361  -4.6906
     2.1263   2.1791   2.2630   2.3276   2.8038   2.8356   2.8580   2.8854
     3.5870   3.6259   3.6899   3.7769   3.9189   4.0347   4.1636   4.2353
     4.9264   4.9667   4.9953   5.0373   5.8797   5.9166   5.9649   6.0214
     6.6266   6.6674   6.6885   6.7253   9.1472   9.3106   9.5577   9.7680
     9.9803  10.0095  10.0289  10.0597  10.2634  10.3915

          k = 0.1875 0.4691 0.0000 ( 21101 PWs)   bands (ev):

   -53.4511 -53.4229 -53.4040 -53.3708 -27.7683 -27.7365 -27.7181 -27.6883
   -27.5863 -27.5828 -27.5573 -27.5517 -27.5386 -27.5332 -27.5059 -27.5028
    -4.8867  -4.8458  -4.8206  -4.7772  -4.6980  -4.6562  -4.6267  -4.5886
     2.0369   2.0801   2.1369   2.1908   2.4054   2.4402   2.4604   2.4885
     3.5031   3.5616   3.6464   3.7100   3.9917   4.0894   4.2038   4.2745
     4.7484   4.7950   4.8584   4.9198   5.5794   5.6296   5.6752   5.7326
     6.8268   6.8672   6.8851   6.9181   9.3735   9.4816   9.6280   9.7306
    10.1449  10.1814  10.2254  10.3014  10.4867  10.5660

          k = 0.1875 0.5413 0.0000 ( 21112 PWs)   bands (ev):

   -53.4485 -53.4203 -53.4015 -53.3682 -27.7843 -27.7525 -27.7341 -27.7043
   -27.5968 -27.5812 -27.5656 -27.5523 -27.5472 -27.5336 -27.5167 -27.5009
    -4.7231  -4.6812  -4.6673  -4.6319  -4.6211  -4.5858  -4.5637  -4.5326
     1.9981   2.0342   2.0685   2.1204   2.1886   2.2264   2.2461   2.2766
     3.3581   3.4201   3.5139   3.5805   4.1305   4.1890   4.2566   4.3136
     4.7086   4.7648   4.8456   4.9088   5.3661   5.4207   5.4740   5.5308
     7.0116   7.0517   7.0781   7.1157   9.4493   9.4900   9.5262   9.5682
    10.3342  10.3883  10.4585  10.5425  10.6173  10.6628

          k = 0.2500 0.4330 0.0000 ( 21125 PWs)   bands (ev):

   -53.4511 -53.4229 -53.4040 -53.3708 -27.7537 -27.7220 -27.7037 -27.6737
   -27.5978 -27.5863 -27.5666 -27.5573 -27.5481 -27.5386 -27.5177 -27.5059
    -4.8917  -4.8509  -4.8246  -4.7806  -4.6955  -4.6533  -4.6229  -4.5843
     2.1474   2.1943   2.2627   2.3196   2.4004   2.4335   2.4527   2.4699
     3.6867   3.7230   3.7416   3.8034   3.9886   4.0910   4.2141   4.2869
     4.4228   4.4619   4.4830   4.5161   5.6583   5.6878   5.6971   5.7661
     6.8101   6.8516   6.8685   6.9012   9.3132   9.4324   9.6007   9.7232
    10.1564  10.1902  10.2208  10.3094  10.3584  10.4696

          k = 0.2500 0.5052 0.0000 ( 21117 PWs)   bands (ev):

   -53.4479 -53.4197 -53.4009 -53.3676 -27.7585 -27.7267 -27.7084 -27.6785
   -27.6304 -27.5991 -27.5807 -27.5801 -27.5511 -27.5503 -27.5324 -27.4997
    -4.6949  -4.6532  -4.6396  -4.6057  -4.5959  -4.5625  -4.5406  -4.5102
     2.0984   2.1350   2.1490   2.1741   2.2557   2.3016   2.3504   2.3981
     3.5305   3.5926   3.6642   3.7055   4.0808   4.1134   4.1565   4.2027
     4.2401   4.2985   4.3563   4.4027   5.3778   5.4134   5.4405   5.5048
     7.0509   7.0903   7.1070   7.1390   9.3173   9.3655   9.4183   9.4694
    10.3046  10.3408  10.3764  10.4057  10.5551  10.6086

          k = 0.2500 0.5774 0.0000 ( 21116 PWs)   bands (ev):

   -53.4468 -53.4186 -53.3997 -53.3665 -27.7583 -27.7266 -27.7082 -27.6783
   -27.6436 -27.6124 -27.5939 -27.5779 -27.5636 -27.5489 -27.5303 -27.4975
    -4.6221  -4.5818  -4.5706  -4.5632  -4.5397  -4.5295  -4.5105  -4.4840
     1.9969   2.0332   2.0483   2.0722   2.3421   2.3759   2.4052   2.4466
     3.3728   3.4342   3.5147   3.5695   4.0497   4.0939   4.1690   4.2346
     4.2944   4.3482   4.3989   4.4418   5.2563   5.2881   5.3034   5.3678
     7.1781   7.2167   7.2368   7.2720   9.2442   9.2804   9.2990   9.3256
    10.3293  10.3679  10.4058  10.4293  10.7100  10.7498

          k = 0.3125 0.5413 0.0000 ( 21100 PWs)   bands (ev):

   -53.4462 -53.4180 -53.3991 -53.3659 -27.7373 -27.7055 -27.6871 -27.6720
   -27.6573 -27.6408 -27.6224 -27.5920 -27.5767 -27.5478 -27.5291 -27.4964
    -4.5866  -4.5503  -4.5410  -4.5327  -4.5128  -4.5053  -4.4914  -4.4657
     1.9275   1.9652   1.9809   2.0021   2.5694   2.6086   2.6449   2.6909
     3.3744   3.3877   3.4085   3.4373   3.8490   3.8679   3.8855   3.9039
     4.3501   4.4056   4.4516   4.4999   5.1706   5.2074   5.2298   5.2971
     7.2602   7.2975   7.3137   7.3463   9.1273   9.1661   9.1845   9.2101
    10.2633  10.2872  10.3122  10.3485  10.8079  10.8660

     the Fermi energy is     8.3467 ev

!    total energy              =   -1978.37167518 Ry
     total all-electron energy =    -38771.692520 Ry
     estimated scf accuracy    <          7.0E-10 Ry
     smearing contrib. (-TS)   =       0.00003114 Ry
     internal energy E=F+TS    =   -1978.37170632 Ry

     The total energy is F=E-TS. E is the sum of the following terms:
     one-electron contribution =   -1480.84724219 Ry
     hartree contribution      =     782.68797280 Ry
     xc contribution           =    -119.23527656 Ry
     ewald contribution        =     108.87402238 Ry
     one-center paw contrib.   =   -1269.85118275 Ry

     convergence has been achieved in  26 iterations

     Forces acting on atoms (cartesian axes, Ry/au):

     atom    1 type  2   force =     0.00000000    0.00000000   -0.00051296
     atom    2 type  1   force =     0.00000000   -0.00000000    0.00027275
     atom    3 type  2   force =     0.00000000    0.00000000    0.00182332
     atom    4 type  2   force =     0.00000000   -0.00000000   -0.00007553
     atom    5 type  1   force =     0.00000000    0.00000000    0.00218928
     atom    6 type  2   force =     0.00000000    0.00000000   -0.00076176
     atom    7 type  2   force =     0.00000000    0.00000000    0.00001001
     atom    8 type  1   force =     0.00000000    0.00000000    0.00031780
     atom    9 type  2   force =     0.00000000   -0.00000000   -0.00128328
     atom   10 type  2   force =     0.00000000    0.00000000   -0.00190125
     atom   11 type  1   force =     0.00000000    0.00000000   -0.00060859
     atom   12 type  2   force =     0.00000000    0.00000000    0.00053023

     Total force =     0.003880     Total SCF correction =     0.000098
     Energy error            =      6.5E-05 Ry
     Gradient error          =      2.2E-03 Ry/Bohr

     number of scf cycles    =  24
     number of bfgs steps    =  20

     energy             old  =   -1978.3716103724 Ry
     energy             new  =   -1978.3716751797 Ry

     CASE: energy            _new < energy            _old

     new trust radius        =       0.0224620627 bohr
     new conv_thr            =       0.0000000010 Ry


ATOMIC_POSITIONS (crystal)
S                0.3333329795        0.6666669590       -0.1110916572
Mo               0.0000000000        0.0000000000       -0.0587263133
S                0.3333329795        0.6666669590       -0.0063512424
S                0.6666669590        0.3333329795        0.0989136322
Mo               0.3333329795        0.6666669590        0.1513921734
S                0.6666669590        0.3333329795        0.2039746164
S                0.0000000000        0.0000000000        0.3145617672
Mo               0.6666669590        0.3333329795        0.3671088591
S                0.0000000000        0.0000000000        0.4196676433
S                0.3333329795        0.6666669590        0.5261352302
Mo               0.0000000000        0.0000000000        0.5785338407
S                0.3333329795        0.6666669590        0.6308812589



     Writing config-only to output data dir ./tmp/relax2/mos2_slab2.save/ :
     XML data file
     NEW-OLD atomic charge density approx. for the potential

     total cpu time spent up to now is    58155.2 secs

     Self-consistent Calculation

     iteration #  1     ecut=    80.00 Ry     beta= 0.20
     Davidson diagonalization with overlap
     ethr =  1.00E-06,  avg # of iterations =  6.0

     total cpu time spent up to now is    58406.5 secs

     total energy              =   -1978.37179315 Ry
     estimated scf accuracy    <       0.00013175 Ry

     iteration #  2     ecut=    80.00 Ry     beta= 0.20
     Davidson diagonalization with overlap
     ethr =  1.27E-07,  avg # of iterations =  2.8

     total cpu time spent up to now is    58518.0 secs

     total energy              =   -1978.37176398 Ry
     estimated scf accuracy    <       0.00011247 Ry

     iteration #  3     ecut=    80.00 Ry     beta= 0.20
     Davidson diagonalization with overlap
     ethr =  1.08E-07,  avg # of iterations =  1.7

     total cpu time spent up to now is    58624.3 secs

     total energy              =   -1978.37176964 Ry
     estimated scf accuracy    <       0.00001526 Ry

     iteration #  4     ecut=    80.00 Ry     beta= 0.20
     Davidson diagonalization with overlap
     ethr =  1.47E-08,  avg # of iterations =  3.4

     total cpu time spent up to now is    58743.2 secs

     total energy              =   -1978.37177079 Ry
     estimated scf accuracy    <       0.00000297 Ry

     iteration #  5     ecut=    80.00 Ry     beta= 0.20
     Davidson diagonalization with overlap
     ethr =  2.85E-09,  avg # of iterations =  2.6

     total cpu time spent up to now is    58855.3 secs

     total energy              =   -1978.37177069 Ry
     estimated scf accuracy    <       0.00000237 Ry

     iteration #  6     ecut=    80.00 Ry     beta= 0.20
     Davidson diagonalization with overlap
     ethr =  2.28E-09,  avg # of iterations =  2.1

     total cpu time spent up to now is    58971.9 secs

     total energy              =   -1978.37177078 Ry
     estimated scf accuracy    <       0.00000052 Ry

     iteration #  7     ecut=    80.00 Ry     beta= 0.20
     Davidson diagonalization with overlap
     ethr =  5.01E-10,  avg # of iterations =  3.7

     total cpu time spent up to now is    59086.6 secs

     total energy              =   -1978.37177080 Ry
     estimated scf accuracy    <       0.00000015 Ry

     iteration #  8     ecut=    80.00 Ry     beta= 0.20
     Davidson diagonalization with overlap
     ethr =  1.40E-10,  avg # of iterations =  3.3

     total cpu time spent up to now is    59205.3 secs

     total energy              =   -1978.37177083 Ry
     estimated scf accuracy    <       0.00000007 Ry

     iteration #  9     ecut=    80.00 Ry     beta= 0.20
     Davidson diagonalization with overlap
     ethr =  7.03E-11,  avg # of iterations =  1.5

     total cpu time spent up to now is    59308.8 secs

     total energy              =   -1978.37177084 Ry
     estimated scf accuracy    <       0.00000005 Ry

     iteration # 10     ecut=    80.00 Ry     beta= 0.20
     Davidson diagonalization with overlap
     ethr =  4.74E-11,  avg # of iterations =  2.0

     total cpu time spent up to now is    59419.1 secs

     total energy              =   -1978.37177085 Ry
     estimated scf accuracy    <       0.00000004 Ry

     iteration # 11     ecut=    80.00 Ry     beta= 0.20
     Davidson diagonalization with overlap
     ethr =  4.28E-11,  avg # of iterations =  1.0

     total cpu time spent up to now is    59518.1 secs

     total energy              =   -1978.37177085 Ry
     estimated scf accuracy    <       0.00000004 Ry

     iteration # 12     ecut=    80.00 Ry     beta= 0.20
     Davidson diagonalization with overlap
     ethr =  3.76E-11,  avg # of iterations =  1.0

     total cpu time spent up to now is    59617.0 secs

     total energy              =   -1978.37177084 Ry
     estimated scf accuracy    <       0.00000003 Ry

     iteration # 13     ecut=    80.00 Ry     beta= 0.20
     Davidson diagonalization with overlap
     ethr =  3.08E-11,  avg # of iterations =  1.7

     total cpu time spent up to now is    59722.7 secs

     total energy              =   -1978.37177085 Ry
     estimated scf accuracy    <       0.00000004 Ry

     iteration # 14     ecut=    80.00 Ry     beta= 0.20
     Davidson diagonalization with overlap
     ethr =  3.08E-11,  avg # of iterations =  1.0

     total cpu time spent up to now is    59821.7 secs

     total energy              =   -1978.37177085 Ry
     estimated scf accuracy    <       0.00000003 Ry

     iteration # 15     ecut=    80.00 Ry     beta= 0.20
     Davidson diagonalization with overlap
     ethr =  2.98E-11,  avg # of iterations =  1.3

     total cpu time spent up to now is    59924.1 secs

     total energy              =   -1978.37177085 Ry
     estimated scf accuracy    <       0.00000002 Ry

     iteration # 16     ecut=    80.00 Ry     beta= 0.20
     Davidson diagonalization with overlap
     ethr =  2.32E-11,  avg # of iterations =  2.4

     total cpu time spent up to now is    60039.5 secs

     total energy              =   -1978.37177084 Ry
     estimated scf accuracy    <       0.00000004 Ry

     iteration # 17     ecut=    80.00 Ry     beta= 0.20
     Davidson diagonalization with overlap
     ethr =  2.32E-11,  avg # of iterations =  2.4

     total cpu time spent up to now is    60157.5 secs

     total energy              =   -1978.37177085 Ry
     estimated scf accuracy    <          9.9E-09 Ry

     iteration # 18     ecut=    80.00 Ry     beta= 0.20
     Davidson diagonalization with overlap
     ethr =  9.56E-12,  avg # of iterations =  1.2

     total cpu time spent up to now is    60258.3 secs

     total energy              =   -1978.37177085 Ry
     estimated scf accuracy    <          9.6E-09 Ry

     iteration # 19     ecut=    80.00 Ry     beta= 0.20
     Davidson diagonalization with overlap
     ethr =  9.28E-12,  avg # of iterations =  1.4

     total cpu time spent up to now is    60361.7 secs

     total energy              =   -1978.37177085 Ry
     estimated scf accuracy    <          6.0E-09 Ry

     iteration # 20     ecut=    80.00 Ry     beta= 0.20
     Davidson diagonalization with overlap
     ethr =  5.79E-12,  avg # of iterations =  2.1

     total cpu time spent up to now is    60476.0 secs

     total energy              =   -1978.37177085 Ry
     estimated scf accuracy    <          2.8E-09 Ry

     iteration # 21     ecut=    80.00 Ry     beta= 0.20
     Davidson diagonalization with overlap
     ethr =  2.70E-12,  avg # of iterations =  3.3

     total cpu time spent up to now is    60603.0 secs

     total energy              =   -1978.37177084 Ry
     estimated scf accuracy    <          5.2E-09 Ry

     iteration # 22     ecut=    80.00 Ry     beta= 0.20
     Davidson diagonalization with overlap
     ethr =  2.70E-12,  avg # of iterations =  2.0

     total cpu time spent up to now is    60712.1 secs

     total energy              =   -1978.37177084 Ry
     estimated scf accuracy    <          1.5E-09 Ry

     iteration # 23     ecut=    80.00 Ry     beta= 0.20
     Davidson diagonalization with overlap
     ethr =  1.42E-12,  avg # of iterations =  3.1

     total cpu time spent up to now is    60830.8 secs

     total energy              =   -1978.37177083 Ry
     estimated scf accuracy    <          1.4E-09 Ry

     iteration # 24     ecut=    80.00 Ry     beta= 0.20
     Davidson diagonalization with overlap
     ethr =  1.34E-12,  avg # of iterations =  1.1

     total cpu time spent up to now is    60930.8 secs

     total energy              =   -1978.37177084 Ry
     estimated scf accuracy    <          1.0E-09 Ry

     iteration # 25     ecut=    80.00 Ry     beta= 0.20
     Davidson diagonalization with overlap
     ethr =  9.65E-13,  avg # of iterations =  1.1

     total cpu time spent up to now is    61030.2 secs

     End of self-consistent calculation

          k = 0.0000 0.0000 0.0000 ( 21311 PWs)   bands (ev):

   -53.4933 -53.4640 -53.4438 -53.4112 -27.6680 -27.6374 -27.6175 -27.5858
   -27.4312 -27.4312 -27.3992 -27.3992 -27.3793 -27.3793 -27.3493 -27.3493
    -6.8251  -6.7767  -6.7107  -6.6503  -5.5897  -5.5114  -5.4013  -5.3261
     1.3861   1.5470   1.8370   2.0432   4.7688   4.7688   4.7807   4.8294
     4.8294   4.8440   4.8440   4.8513   4.8513   5.1591   5.7396   5.8876
     5.8876   5.9410   5.9410   5.9564   5.9565   5.9716   5.9716   6.2532
     6.9624   7.3195   7.6650   7.8221  10.1349  10.1349  10.1693  10.1693
    10.1895  10.1895  10.2307  10.2307  10.3450  10.3450

          k = 0.0000 0.0722 0.0000 ( 21283 PWs)   bands (ev):

   -53.4917 -53.4625 -53.4423 -53.4096 -27.6649 -27.6344 -27.6145 -27.5827
   -27.4468 -27.4348 -27.4147 -27.4027 -27.3949 -27.3829 -27.3649 -27.3528
    -6.7655  -6.7172  -6.6514  -6.5912  -5.5624  -5.4851  -5.3770  -5.3028
     1.4554   1.6151   1.9046   2.1115   4.6322   4.6484   4.6935   4.7086
     4.7172   4.8312   4.8915   4.9059   4.9141   4.9734   5.3822   5.5836
     5.7906   5.8440   5.8592   5.8758   5.9977   6.0491   6.1886   6.4921
     6.9670   7.3055   7.6114   7.7470  10.0583  10.0895  10.1082  10.1439
    10.1904  10.2228  10.2242  10.2491  10.2611  10.2754

          k = 0.0000 0.1443 0.0000 ( 21263 PWs)   bands (ev):

   -53.4873 -53.4580 -53.4378 -53.4052 -27.6562 -27.6258 -27.6058 -27.5741
   -27.4909 -27.4587 -27.4448 -27.4389 -27.4127 -27.4090 -27.3929 -27.3629
    -6.5916  -6.5437  -6.4789  -6.4189  -5.4827  -5.4084  -5.3064  -5.2349
     1.6484   1.8036   2.0900   2.2977   4.2834   4.3332   4.3417   4.3618
     4.3742   4.5985   4.9008   5.0110   5.0621   5.0705   5.0842   5.0954
     5.5398   5.5930   5.6082   5.6275   6.0550   6.1469   6.3515   6.6406
     6.9427   7.2087   7.4140   7.5035   9.7560   9.8255   9.8854   9.9273
     9.9866  10.0468  10.0597  10.0803  10.1131  10.1225

          k = 0.0000 0.2165 0.0000 ( 21233 PWs)   bands (ev):

   -53.4806 -53.4514 -53.4312 -53.3985 -27.6432 -27.6128 -27.5929 -27.5611
   -27.5564 -27.5239 -27.5041 -27.4745 -27.4598 -27.4277 -27.4078 -27.3779
    -6.3185  -6.2712  -6.2086  -6.1494  -5.3577  -5.2882  -5.1962  -5.1291
     1.9104   2.0534   2.3250   2.5258   3.8523   3.9015   3.9157   3.9336
     3.9892   4.1774   4.3968   4.5128   5.2147   5.2656   5.2783   5.2891
     5.3052   5.3441   5.3601   5.3728   5.9647   6.0870   6.3088   6.5508
     6.8049   6.9544   7.0530   7.1080   9.3652   9.4954   9.6589   9.8375
     9.8592   9.9044   9.9516   9.9596  10.0076  10.0939

          k = 0.0000 0.2887 0.0000 ( 21197 PWs)   bands (ev):

   -53.4728 -53.4435 -53.4234 -53.3907 -27.6328 -27.6278 -27.6001 -27.5975
   -27.5803 -27.5775 -27.5509 -27.5457 -27.4774 -27.4453 -27.4254 -27.3955
    -5.9718  -5.9256  -5.8673  -5.8097  -5.2001  -5.1370  -5.0584  -4.9972
     2.1110   2.2235   2.4382   2.5928   3.4729   3.5118   3.5560   3.5906
     3.6727   3.7844   3.9036   3.9701   4.8865   4.9392   4.9544   4.9788
     5.6128   5.6678   5.6832   5.7057   5.7494   5.8882   6.1070   6.2972
     6.5386   6.6096   6.6545   6.6990   9.2267   9.3892   9.6103   9.6701
     9.7147   9.7604   9.8150   9.8329  10.1723  10.3292

          k = 0.0000 0.3608 0.0000 ( 21187 PWs)   bands (ev):

   -53.4649 -53.4357 -53.4155 -53.3828 -27.7083 -27.6753 -27.6556 -27.6264
   -27.6124 -27.5822 -27.5622 -27.5302 -27.4950 -27.4628 -27.4430 -27.4131
    -5.5902  -5.5455  -5.4947  -5.4401  -5.0292  -4.9732  -4.9108  -4.8566
     2.0678   2.1365   2.2554   2.3424   3.1133   3.1739   3.2735   3.3863
     3.4367   3.5331   3.6005   3.6633   4.5984   4.6510   4.6668   4.6923
     5.5177   5.6559   5.8600   5.9364   5.9871   6.0084   6.0154   6.0396
     6.3213   6.3815   6.4248   6.4676   9.3467   9.4988   9.5647   9.6061
     9.6433   9.6940   9.7153   9.9180  10.4976  10.6546

          k = 0.0000 0.4330 0.0000 ( 21140 PWs)   bands (ev):

   -53.4582 -53.4290 -53.4088 -53.3761 -27.7717 -27.7384 -27.7188 -27.6898
   -27.5993 -27.5691 -27.5491 -27.5171 -27.5099 -27.4776 -27.4578 -27.4279
    -5.2289  -5.1855  -5.1463  -5.0965  -4.8711  -4.8220  -4.7770  -4.7306
     1.8266   1.8736   1.9349   1.9911   2.7714   2.8282   2.9121   2.9856
     3.3415   3.4094   3.5081   3.5853   4.3778   4.4303   4.4465   4.4728
     5.3477   5.4752   5.6624   5.7955   6.1958   6.2432   6.2745   6.3139
     6.3387   6.4067   6.4714   6.5224   9.5563   9.5940   9.6153   9.6198
     9.6635   9.7316   9.9008  10.0507  10.8039  10.9436

          k = 0.0000 0.5052 0.0000 ( 21078 PWs)   bands (ev):

   -53.4537 -53.4246 -53.4044 -53.3716 -27.8137 -27.7803 -27.7606 -27.7318
   -27.5905 -27.5604 -27.5404 -27.5198 -27.5083 -27.4875 -27.4677 -27.4378
    -4.9604  -4.9167  -4.8914  -4.8481  -4.7568  -4.7132  -4.6825  -4.6440
     1.5948   1.6355   1.6743   1.7208   2.5325   2.5783   2.6390   2.7025
     3.2430   3.3060   3.3995   3.4726   4.2403   4.2926   4.3091   4.3358
     5.2564   5.3744   5.5461   5.6611   6.3536   6.4001   6.4408   6.4861
     6.5282   6.5923   6.6577   6.7121   9.6022   9.6384   9.6581   9.6931
     9.9150   9.9877  10.0894  10.1799  10.9977  11.1121

          k = 0.0000-0.5774 0.0000 ( 21006 PWs)   bands (ev):

   -53.4522 -53.4230 -53.4028 -53.3700 -27.8283 -27.7949 -27.7753 -27.7465
   -27.5874 -27.5573 -27.5373 -27.5232 -27.5052 -27.4909 -27.4711 -27.4413
    -4.8590  -4.8144  -4.7963  -4.7573  -4.7147  -4.6738  -4.6482  -4.6139
     1.5024   1.5417   1.5754   1.6204   2.4471   2.4881   2.5402   2.6027
     3.1957   3.2580   3.3491   3.4202   4.1936   4.2459   4.2625   4.2893
     5.2294   5.3434   5.5080   5.6158   6.4048   6.4515   6.4960   6.5434
     6.6461   6.6987   6.7498   6.7991   9.6296   9.6658   9.6848   9.7157
    10.0750  10.1249  10.1687  10.2209  11.0603  11.1571

          k = 0.0625 0.1083 0.0000 ( 21269 PWs)   bands (ev):

   -53.4887 -53.4595 -53.4393 -53.4066 -27.6591 -27.6286 -27.6086 -27.5769
   -27.4762 -27.4440 -27.4420 -27.4242 -27.4099 -27.3943 -27.3901 -27.3601
    -6.6487  -6.6007  -6.5355  -6.4754  -5.5088  -5.4335  -5.3296  -5.2572
     1.5870   1.7439   2.0318   2.2395   4.3930   4.4352   4.4523   4.4700
     4.4793   4.7151   4.9504   5.0100   5.0241   5.0332   5.0502   5.2282
     5.5759   5.6291   5.6444   5.6602   6.0930   6.1703   6.3552   6.6455
     6.9586   7.2524   7.4864   7.5875   9.8847   9.9277   9.9331   9.9612
    10.0145  10.0172  10.0600  10.1108  10.1500  10.1891

          k = 0.0625 0.1804 0.0000 ( 21194 PWs)   bands (ev):

   -53.4832 -53.4539 -53.4337 -53.4011 -27.6482 -27.6178 -27.5978 -27.5660
   -27.5298 -27.4974 -27.4776 -27.4557 -27.4479 -27.4236 -27.4038 -27.3738
    -6.4251  -6.3775  -6.3139  -6.2544  -5.4063  -5.3349  -5.2390  -5.1701
     1.8188   1.9678   2.2482   2.4543   4.0117   4.0649   4.0766   4.0925
     4.1416   4.3622   4.6255   4.7651   5.1674   5.2070   5.2291   5.2364
     5.2507   5.2649   5.2829   5.2942   6.1414   6.2394   6.4328   6.6805
     6.8808   7.0781   7.2038   7.2652   9.4795   9.5854   9.7026   9.8186
     9.8591   9.9165   9.9558   9.9892  10.0147  10.0539

          k = 0.0625 0.2526 0.0000 ( 21202 PWs)   bands (ev):

   -53.4759 -53.4467 -53.4265 -53.3938 -27.6340 -27.6036 -27.5991 -27.5837
   -27.5664 -27.5518 -27.5467 -27.5172 -27.4737 -27.4415 -27.4217 -27.3918
    -6.1145  -6.0679  -6.0075  -5.9491  -5.2644  -5.1986  -5.1143  -5.0506
     2.0643   2.1933   2.4419   2.6250   3.6297   3.6719   3.6972   3.7167
     3.8080   3.9762   4.1512   4.2396   4.8336   4.8832   4.9046   4.9320
     5.4376   5.4934   5.5080   5.5265   6.0379   6.1461   6.3303   6.5197
     6.6761   6.7684   6.8159   6.8602   9.2081   9.3566   9.5370   9.6626
     9.7766   9.8218   9.8540   9.8883   9.9771  10.1279

          k = 0.0625 0.3248 0.0000 ( 21194 PWs)   bands (ev):

   -53.4681 -53.4388 -53.4186 -53.3859 -27.6732 -27.6403 -27.6206 -27.6186
   -27.5913 -27.5883 -27.5684 -27.5364 -27.4931 -27.4609 -27.4411 -27.4112
    -5.7488  -5.7035  -5.6490  -5.5929  -5.0988  -5.0397  -4.9702  -4.9129
     2.1508   2.2390   2.4017   2.5163   3.3123   3.3558   3.4248   3.5008
     3.5736   3.6720   3.6921   3.7404   4.5306   4.5802   4.6161   4.6539
     5.6770   5.7225   5.7428   5.7688   5.8264   5.9307   6.0993   6.2440
     6.4524   6.5006   6.5302   6.5684   9.1722   9.3215   9.4881   9.5759
     9.7106   9.7551   9.7967   9.9199  10.2303  10.3852

          k = 0.0625 0.3969 0.0000 ( 21151 PWs)   bands (ev):

   -53.4608 -53.4316 -53.4114 -53.3787 -27.7410 -27.7079 -27.6882 -27.6591
   -27.6043 -27.5741 -27.5541 -27.5221 -27.5110 -27.4787 -27.4589 -27.4290
    -5.3742  -5.3303  -5.2855  -5.2333  -4.9320  -4.8799  -4.8273  -4.7774
     1.9877   2.0425   2.1271   2.1948   2.9367   2.9946   3.0801   3.1568
     3.4092   3.4782   3.5746   3.6548   4.3328   4.3830   4.4203   4.4575
     5.5701   5.6727   5.8090   5.8254   5.8795   5.8911   5.9199   5.9905
     6.4612   6.5038   6.5311   6.5638   9.3122   9.4265   9.5387   9.6039
     9.7515   9.7969   9.8658   9.9994  10.5677  10.7076

          k = 0.0625 0.4691 0.0000 ( 21105 PWs)   bands (ev):

   -53.4552 -53.4260 -53.4058 -53.3731 -27.7924 -27.7591 -27.7395 -27.7105
   -27.5934 -27.5632 -27.5432 -27.5246 -27.5112 -27.4923 -27.4725 -27.4427
    -5.0542  -5.0109  -4.9795  -4.9331  -4.7927  -4.7469  -4.7106  -4.6688
     1.7442   1.7873   1.8350   1.8852   2.6175   2.6649   2.7249   2.7845
     3.3155   3.3780   3.4744   3.5517   4.2252   4.2735   4.3003   4.3317
     5.3811   5.4845   5.6333   5.7375   5.9531   5.9951   6.0289   6.0773
     6.6348   6.6775   6.7104   6.7480   9.5125   9.5760   9.6303   9.6777
     9.8888   9.9390  10.0225  10.1230  10.8815  10.9971

          k = 0.0625 0.5413 0.0000 ( 21084 PWs)   bands (ev):

   -53.4522 -53.4230 -53.4028 -53.3701 -27.8201 -27.7867 -27.7670 -27.7382
   -27.5874 -27.5573 -27.5373 -27.5319 -27.5052 -27.4996 -27.4798 -27.4500
    -4.8643  -4.8200  -4.8006  -4.7607  -4.7121  -4.6708  -4.6444  -4.6095
     1.5826   1.6220   1.6568   1.7024   2.4379   2.4783   2.5249   2.5822
     3.2280   3.2900   3.3826   3.4553   4.1802   4.2296   4.2458   4.2686
     5.2780   5.3825   5.5301   5.6279   6.0472   6.0901   6.1268   6.1750
     6.7900   6.8341   6.8725   6.9146   9.6291   9.6601   9.6828   9.7142
    10.0681  10.1192  10.1745  10.2343  11.1084  11.1926

          k = 0.1250 0.2165 0.0000 ( 21179 PWs)   bands (ev):

   -53.4770 -53.4478 -53.4276 -53.3949 -27.6362 -27.6058 -27.5859 -27.5850
   -27.5540 -27.5524 -27.5327 -27.5031 -27.4746 -27.4424 -27.4226 -27.3927
    -6.1636  -6.1168  -6.0558  -5.9971  -5.2864  -5.2197  -5.1334  -5.0689
     2.0451   2.1798   2.4397   2.6325   3.6955   3.7396   3.7594   3.7755
     3.9086   4.1097   4.3246   4.4273   4.6949   4.7455   4.7647   4.7895
     5.3579   5.4137   5.4281   5.4443   6.2232   6.3159   6.4746   6.6520
     6.7412   6.8476   6.8858   6.9299   9.1978   9.3370   9.4986   9.6199
     9.7773   9.7927   9.8320   9.8540   9.9117  10.0612

          k = 0.1250 0.2887 0.0000 ( 21199 PWs)   bands (ev):

   -53.4698 -53.4405 -53.4204 -53.3876 -27.6485 -27.6219 -27.6157 -27.5959
   -27.5916 -27.5717 -27.5666 -27.5398 -27.4979 -27.4657 -27.4458 -27.4160
    -5.8324  -5.7867  -5.7305  -5.6737  -5.1349  -5.0741  -5.0009  -4.9420
     2.2015   2.3048   2.5011   2.6397   3.4625   3.5002   3.5221   3.5998
     3.6794   3.8041   3.8820   3.9271   4.2663   4.3226   4.4019   4.4722
     5.4661   5.5150   5.5323   5.5579   6.1504   6.2352   6.3646   6.4845
     6.5586   6.5892   6.6112   6.6420   9.0375   9.1919   9.3751   9.4935
     9.7697   9.7899   9.8262   9.8925   9.9891  10.1583

          k = 0.1250 0.3608 0.0000 ( 21195 PWs)   bands (ev):

   -53.4625 -53.4333 -53.4131 -53.3804 -27.7108 -27.6778 -27.6581 -27.6289
   -27.6077 -27.5775 -27.5575 -27.5255 -27.5216 -27.4893 -27.4695 -27.4397
    -5.4695  -5.4252  -5.3770  -5.3234  -4.9701  -4.9159  -4.8582  -4.8061
     2.1474   2.2135   2.3266   2.4093   3.1360   3.1851   3.2482   3.3122
     3.4977   3.5585   3.6392   3.7253   4.0699   4.1613   4.2689   4.3385
     5.4134   5.4563   5.4779   5.5116   5.9340   6.0062   6.1099   6.1985
     6.5156   6.5539   6.5718   6.6018   9.0766   9.2311   9.4299   9.5617
     9.8418   9.8702   9.9045   9.9897  10.2249  10.3723

          k = 0.1250 0.4330 0.0000 ( 21113 PWs)   bands (ev):

   -53.4563 -53.4271 -53.4069 -53.3742 -27.7630 -27.7298 -27.7102 -27.6812
   -27.5956 -27.5654 -27.5454 -27.5418 -27.5134 -27.5095 -27.4897 -27.4599
    -5.1284  -5.0851  -5.0489  -5.0003  -4.8171  -4.7692  -4.7280  -4.6835
     1.9600   2.0081   2.0730   2.1310   2.7163   2.7586   2.7999   2.8451
     3.4431   3.4994   3.5934   3.6791   4.0438   4.1276   4.2211   4.2839
     5.3645   5.4075   5.4474   5.4965   5.6626   5.7283   5.8221   5.9009
     6.6535   6.6942   6.7136   6.7434   9.2895   9.4240   9.6069   9.7312
     9.9508   9.9845  10.0152  10.0647  10.5398  10.6535

          k = 0.1250 0.5052 0.0000 ( 21081 PWs)   bands (ev):

   -53.4522 -53.4230 -53.4028 -53.3701 -27.7977 -27.7643 -27.7447 -27.7158
   -27.5875 -27.5573 -27.5553 -27.5374 -27.5229 -27.5053 -27.5031 -27.4734
    -4.8770  -4.8331  -4.8108  -4.7689  -4.7060  -4.6636  -4.6353  -4.5989
     1.7935   1.8343   1.8749   1.9233   2.4192   2.4576   2.4898   2.5340
     3.3265   3.3878   3.4818   3.5569   4.0969   4.1564   4.2179   4.2668
     5.3655   5.4253   5.4631   5.4897   5.5169   5.5532   5.6045   5.6861
     6.8409   6.8832   6.9125   6.9491   9.5166   9.5904   9.6708   9.7312
    10.1011  10.1456  10.1978  10.2658  10.8287  10.8954

          k = 0.1250 0.5774 0.0000 ( 21108 PWs)   bands (ev):

   -53.4507 -53.4215 -53.4013 -53.3686 -27.8098 -27.7764 -27.7568 -27.7279
   -27.5846 -27.5601 -27.5545 -27.5345 -27.5277 -27.5079 -27.5024 -27.4782
    -4.7827  -4.7379  -4.7223  -4.6852  -4.6648  -4.6254  -4.6014  -4.5694
     1.7295   1.7678   1.8002   1.8465   2.3135   2.3509   2.3806   2.4255
     3.2662   3.3283   3.4220   3.4950   4.1435   4.1862   4.2193   4.2575
     5.3051   5.3926   5.4412   5.4851   5.5025   5.5454   5.5577   5.6276
     6.9340   6.9782   7.0144   7.0556   9.5963   9.6259   9.6495   9.6836
    10.2124  10.2687  10.3151  10.3634  10.9563  11.0076

          k = 0.1875 0.3248 0.0000 ( 21195 PWs)   bands (ev):

   -53.4631 -53.4339 -53.4137 -53.3810 -27.6972 -27.6642 -27.6445 -27.6153
   -27.6089 -27.5786 -27.5587 -27.5284 -27.5267 -27.4961 -27.4763 -27.4465
    -5.5026  -5.4582  -5.4089  -5.3548  -4.9830  -4.9281  -4.8686  -4.8157
     2.2153   2.2878   2.4155   2.5061   3.2654   3.3036   3.3421   3.3866
     3.5410   3.5945   3.6594   3.7305   3.9191   4.0398   4.1825   4.2629
     5.2394   5.2820   5.3033   5.3375   6.0988   6.1572   6.2369   6.3093
     6.5224   6.5617   6.5802   6.6148   8.9871   9.1544   9.3764   9.5370
     9.8661   9.8818   9.9180   9.9676  10.0812  10.2396

          k = 0.1875 0.3969 0.0000 ( 21153 PWs)   bands (ev):

   -53.4569 -53.4277 -53.4075 -53.3748 -27.7392 -27.7061 -27.6864 -27.6573
   -27.5968 -27.5666 -27.5593 -27.5466 -27.5268 -27.5146 -27.5070 -27.4773
    -5.1691  -5.1258  -5.0870  -5.0372  -4.8291  -4.7801  -4.7359  -4.6901
     2.1237   2.1782   2.2617   2.3280   2.8008   2.8351   2.8585   2.8848
     3.5850   3.6257   3.6882   3.7758   3.9183   4.0356   4.1639   4.2368
     4.9242   4.9665   4.9956   5.0374   5.8790   5.9170   5.9648   6.0225
     6.6243   6.6675   6.6894   6.7255   9.1458   9.3119   9.5581   9.7703
     9.9787  10.0093  10.0300  10.0600  10.2635  10.3932

          k = 0.1875 0.4691 0.0000 ( 21101 PWs)   bands (ev):

   -53.4522 -53.4230 -53.4028 -53.3701 -27.7698 -27.7365 -27.7169 -27.6879
   -27.5875 -27.5842 -27.5574 -27.5517 -27.5374 -27.5320 -27.5053 -27.5023
    -4.8894  -4.8459  -4.8208  -4.7772  -4.6999  -4.6564  -4.6262  -4.5884
     2.0344   2.0796   2.1360   2.1910   2.4023   2.4399   2.4613   2.4879
     3.5008   3.5612   3.6452   3.7101   3.9900   4.0896   4.2036   4.2757
     4.7464   4.7948   4.8579   4.9206   5.5785   5.6302   5.6753   5.7338
     6.8246   6.8674   6.8863   6.9180   9.3722   9.4823   9.6279   9.7317
    10.1438  10.1818  10.2254  10.3023  10.4866  10.5671

          k = 0.1875 0.5413 0.0000 ( 21112 PWs)   bands (ev):

   -53.4496 -53.4204 -53.4002 -53.3675 -27.7858 -27.7525 -27.7328 -27.7039
   -27.5982 -27.5825 -27.5656 -27.5524 -27.5459 -27.5324 -27.5163 -27.5003
    -4.7261  -4.6814  -4.6671  -4.6327  -4.6227  -4.5860  -4.5628  -4.5326
     1.9957   2.0339   2.0678   2.1204   2.1855   2.2262   2.2471   2.2759
     3.3557   3.4196   3.5129   3.5812   4.1287   4.1888   4.2563   4.3142
     4.7064   4.7647   4.8450   4.9096   5.3653   5.4214   5.4742   5.5321
     7.0097   7.0519   7.0788   7.1160   9.4480   9.4899   9.5265   9.5687
    10.3330  10.3886  10.4584  10.5436  10.6172  10.6633

          k = 0.2500 0.4330 0.0000 ( 21125 PWs)   bands (ev):

   -53.4522 -53.4230 -53.4028 -53.3701 -27.7552 -27.7220 -27.7024 -27.6734
   -27.5992 -27.5875 -27.5666 -27.5574 -27.5469 -27.5374 -27.5173 -27.5053
    -4.8945  -4.8510  -4.8248  -4.7806  -4.6974  -4.6535  -4.6224  -4.5841
     2.1449   2.1937   2.2616   2.3198   2.3971   2.4336   2.4538   2.4689
     3.6848   3.7223   3.7401   3.8018   3.9880   4.0917   4.2143   4.2884
     4.4207   4.4615   4.4840   4.5161   5.6576   5.6866   5.6983   5.7674
     6.8078   6.8517   6.8697   6.9011   9.3118   9.4332   9.6006   9.7245
    10.1552  10.1905  10.2210  10.3101  10.3585  10.4714

          k = 0.2500 0.5052 0.0000 ( 21117 PWs)   bands (ev):

   -53.4490 -53.4198 -53.3996 -53.3669 -27.7600 -27.7267 -27.7071 -27.6781
   -27.6318 -27.5992 -27.5813 -27.5794 -27.5512 -27.5499 -27.5312 -27.4991
    -4.6979  -4.6533  -4.6393  -4.6069  -4.5970  -4.5627  -4.5397  -4.5102
     2.0949   2.1347   2.1500   2.1731   2.2535   2.3011   2.3500   2.3983
     3.5282   3.5922   3.6633   3.7054   4.0786   4.1124   4.1555   4.2031
     4.2393   4.2984   4.3573   4.4040   5.3770   5.4134   5.4410   5.5061
     7.0488   7.0904   7.1083   7.1390   9.3161   9.3654   9.4182   9.4700
    10.3031  10.3398  10.3778  10.4062  10.5562  10.6096

          k = 0.2500 0.5774 0.0000 ( 21116 PWs)   bands (ev):

   -53.4479 -53.4187 -53.3985 -53.3658 -27.7598 -27.7266 -27.7069 -27.6780
   -27.6450 -27.6124 -27.5926 -27.5791 -27.5631 -27.5490 -27.5291 -27.4969
    -4.6253  -4.5823  -4.5707  -4.5643  -4.5400  -4.5297  -4.5095  -4.4842
     1.9934   2.0331   2.0493   2.0712   2.3398   2.3753   2.4052   2.4465
     3.3705   3.4337   3.5138   3.5699   4.0473   4.0933   4.1676   4.2351
     4.2933   4.3480   4.3995   4.4428   5.2559   5.2878   5.3043   5.3691
     7.1761   7.2168   7.2378   7.2722   9.2419   9.2805   9.3002   9.3254
    10.3274  10.3674  10.4066  10.4311  10.7105  10.7511

          k = 0.3125 0.5413 0.0000 ( 21100 PWs)   bands (ev):

   -53.4473 -53.4181 -53.3979 -53.3652 -27.7388 -27.7055 -27.6859 -27.6735
   -27.6569 -27.6408 -27.6211 -27.5916 -27.5779 -27.5479 -27.5279 -27.4957
    -4.5898  -4.5519  -4.5417  -4.5318  -4.5131  -4.5057  -4.4904  -4.4660
     1.9238   1.9652   1.9821   2.0009   2.5671   2.6082   2.6447   2.6910
     3.3721   3.3863   3.4085   3.4372   3.8478   3.8663   3.8856   3.9038
     4.3489   4.4057   4.4518   4.5007   5.1700   5.2076   5.2305   5.2983
     7.2583   7.2976   7.3151   7.3463   9.1247   9.1662   9.1856   9.2098
    10.2616  10.2865  10.3130  10.3508  10.8083  10.8675

     the Fermi energy is     8.3478 ev

!    total energy              =   -1978.37177084 Ry
     total all-electron energy =    -38771.692616 Ry
     estimated scf accuracy    <          9.6E-10 Ry
     smearing contrib. (-TS)   =       0.00003204 Ry
     internal energy E=F+TS    =   -1978.37180288 Ry

     The total energy is F=E-TS. E is the sum of the following terms:
     one-electron contribution =   -1492.58950104 Ry
     hartree contribution      =     788.55921396 Ry
     xc contribution           =    -119.23719144 Ry
     ewald contribution        =     114.74699102 Ry
     one-center paw contrib.   =   -1269.85131539 Ry

     convergence has been achieved in  25 iterations

     Forces acting on atoms (cartesian axes, Ry/au):

     atom    1 type  2   force =     0.00000000    0.00000000   -0.00077165
     atom    2 type  1   force =     0.00000000   -0.00000000    0.00015734
     atom    3 type  2   force =     0.00000000    0.00000000    0.00220996
     atom    4 type  2   force =     0.00000000    0.00000000   -0.00013841
     atom    5 type  1   force =     0.00000000    0.00000000    0.00243944
     atom    6 type  2   force =     0.00000000    0.00000000   -0.00104913
     atom    7 type  2   force =     0.00000000    0.00000000    0.00009606
     atom    8 type  1   force =     0.00000000    0.00000000    0.00052946
     atom    9 type  2   force =     0.00000000   -0.00000000   -0.00153592
     atom   10 type  2   force =     0.00000000    0.00000000   -0.00236041
     atom   11 type  1   force =     0.00000000    0.00000000   -0.00043156
     atom   12 type  2   force =     0.00000000    0.00000000    0.00085482

     Total force =     0.004660     Total SCF correction =     0.000113
     Energy error            =      9.6E-05 Ry
     Gradient error          =      2.4E-03 Ry/Bohr

     number of scf cycles    =  25
     number of bfgs steps    =  21

     energy             old  =   -1978.3716751797 Ry
     energy             new  =   -1978.3717708411 Ry

     CASE: energy            _new < energy            _old

     new trust radius        =       0.0336930940 bohr
     new conv_thr            =       0.0000000010 Ry


ATOMIC_POSITIONS (crystal)
S                0.3333329718        0.6666669437       -0.1106307012
Mo               0.0000000000        0.0000000000       -0.0582774939
S                0.3333329718        0.6666669437       -0.0059205988
S                0.6666669437        0.3333329718        0.0993409985
Mo               0.3333329718        0.6666669437        0.1518147480
S                0.6666669437        0.3333329718        0.2044059476
S                0.0000000000        0.0000000000        0.3142621898
Mo               0.6666669437        0.3333329718        0.3668076410
S                0.0000000000        0.0000000000        0.4193751700
S                0.3333329718        0.6666669437        0.5255801776
Mo               0.0000000000        0.0000000000        0.5779547198
S                0.3333329718        0.6666669437        0.6302869383



     Writing config-only to output data dir ./tmp/relax2/mos2_slab2.save/ :
     XML data file
     NEW-OLD atomic charge density approx. for the potential

     total cpu time spent up to now is    61085.2 secs

     Self-consistent Calculation

     iteration #  1     ecut=    80.00 Ry     beta= 0.20
     Davidson diagonalization with overlap
     ethr =  1.00E-06,  avg # of iterations =  7.0

     total cpu time spent up to now is    61363.2 secs

     total energy              =   -1978.37196418 Ry
     estimated scf accuracy    <       0.00033563 Ry

     iteration #  2     ecut=    80.00 Ry     beta= 0.20
     Davidson diagonalization with overlap
     ethr =  3.23E-07,  avg # of iterations =  1.5

     total cpu time spent up to now is    61467.0 secs

     total energy              =   -1978.37188178 Ry
     estimated scf accuracy    <       0.00026286 Ry

     iteration #  3     ecut=    80.00 Ry     beta= 0.20
     Davidson diagonalization with overlap
     ethr =  2.53E-07,  avg # of iterations =  2.7

     total cpu time spent up to now is    61584.7 secs

     total energy              =   -1978.37190788 Ry
     estimated scf accuracy    <       0.00001026 Ry

     iteration #  4     ecut=    80.00 Ry     beta= 0.20
     Davidson diagonalization with overlap
     ethr =  9.86E-09,  avg # of iterations =  3.7

     total cpu time spent up to now is    61715.9 secs

     total energy              =   -1978.37190870 Ry
     estimated scf accuracy    <       0.00000533 Ry

     iteration #  5     ecut=    80.00 Ry     beta= 0.20
     Davidson diagonalization with overlap
     ethr =  5.12E-09,  avg # of iterations =  1.7

     total cpu time spent up to now is    61820.1 secs

     total energy              =   -1978.37190831 Ry
     estimated scf accuracy    <       0.00000446 Ry

     iteration #  6     ecut=    80.00 Ry     beta= 0.20
     Davidson diagonalization with overlap
     ethr =  4.29E-09,  avg # of iterations =  2.0

     total cpu time spent up to now is    61933.3 secs

     total energy              =   -1978.37190863 Ry
     estimated scf accuracy    <       0.00000092 Ry

     iteration #  7     ecut=    80.00 Ry     beta= 0.20
     Davidson diagonalization with overlap
     ethr =  8.81E-10,  avg # of iterations =  2.9

     total cpu time spent up to now is    62043.9 secs

     total energy              =   -1978.37190859 Ry
     estimated scf accuracy    <       0.00000047 Ry

     iteration #  8     ecut=    80.00 Ry     beta= 0.20
     Davidson diagonalization with overlap
     ethr =  4.55E-10,  avg # of iterations =  3.0

     total cpu time spent up to now is    62159.8 secs

     total energy              =   -1978.37190869 Ry
     estimated scf accuracy    <       0.00000011 Ry

     iteration #  9     ecut=    80.00 Ry     beta= 0.20
     Davidson diagonalization with overlap
     ethr =  1.02E-10,  avg # of iterations =  2.8

     total cpu time spent up to now is    62281.5 secs

     total energy              =   -1978.37190868 Ry
     estimated scf accuracy    <       0.00000014 Ry

     iteration # 10     ecut=    80.00 Ry     beta= 0.20
     Davidson diagonalization with overlap
     ethr =  1.02E-10,  avg # of iterations =  2.0

     total cpu time spent up to now is    62393.6 secs

     total energy              =   -1978.37190872 Ry
     estimated scf accuracy    <       0.00000011 Ry

     iteration # 11     ecut=    80.00 Ry     beta= 0.20
     Davidson diagonalization with overlap
     ethr =  1.02E-10,  avg # of iterations =  2.0

     total cpu time spent up to now is    62502.0 secs

     total energy              =   -1978.37190871 Ry
     estimated scf accuracy    <       0.00000007 Ry

     iteration # 12     ecut=    80.00 Ry     beta= 0.20
     Davidson diagonalization with overlap
     ethr =  7.10E-11,  avg # of iterations =  1.0

     total cpu time spent up to now is    62600.6 secs

     total energy              =   -1978.37190869 Ry
     estimated scf accuracy    <       0.00000007 Ry

     iteration # 13     ecut=    80.00 Ry     beta= 0.20
     Davidson diagonalization with overlap
     ethr =  6.60E-11,  avg # of iterations =  2.3

     total cpu time spent up to now is    62723.7 secs

     total energy              =   -1978.37190870 Ry
     estimated scf accuracy    <       0.00000009 Ry

     iteration # 14     ecut=    80.00 Ry     beta= 0.20
     Davidson diagonalization with overlap
     ethr =  6.60E-11,  avg # of iterations =  2.0

     total cpu time spent up to now is    62832.5 secs

     total energy              =   -1978.37190870 Ry
     estimated scf accuracy    <       0.00000004 Ry

     iteration # 15     ecut=    80.00 Ry     beta= 0.20
     Davidson diagonalization with overlap
     ethr =  3.65E-11,  avg # of iterations =  2.3

     total cpu time spent up to now is    62942.8 secs

     total energy              =   -1978.37190868 Ry
     estimated scf accuracy    <       0.00000002 Ry

     iteration # 16     ecut=    80.00 Ry     beta= 0.20
     Davidson diagonalization with overlap
     ethr =  2.13E-11,  avg # of iterations =  2.0

     total cpu time spent up to now is    63054.1 secs

     total energy              =   -1978.37190867 Ry
     estimated scf accuracy    <       0.00000001 Ry

     iteration # 17     ecut=    80.00 Ry     beta= 0.20
     Davidson diagonalization with overlap
     ethr =  1.22E-11,  avg # of iterations =  2.8

     total cpu time spent up to now is    63179.4 secs

     total energy              =   -1978.37190869 Ry
     estimated scf accuracy    <       0.00000002 Ry

     iteration # 18     ecut=    80.00 Ry     beta= 0.20
     Davidson diagonalization with overlap
     ethr =  1.22E-11,  avg # of iterations =  2.1

     total cpu time spent up to now is    63292.5 secs

     total energy              =   -1978.37190869 Ry
     estimated scf accuracy    <          4.4E-09 Ry

     iteration # 19     ecut=    80.00 Ry     beta= 0.20
     Davidson diagonalization with overlap
     ethr =  4.28E-12,  avg # of iterations =  2.1

     total cpu time spent up to now is    63406.9 secs

     total energy              =   -1978.37190869 Ry
     estimated scf accuracy    <          2.7E-09 Ry

     iteration # 20     ecut=    80.00 Ry     beta= 0.20
     Davidson diagonalization with overlap
     ethr =  2.60E-12,  avg # of iterations =  2.4

     total cpu time spent up to now is    63519.7 secs

     total energy              =   -1978.37190869 Ry
     estimated scf accuracy    <          2.4E-09 Ry

     iteration # 21     ecut=    80.00 Ry     beta= 0.20
     Davidson diagonalization with overlap
     ethr =  2.33E-12,  avg # of iterations =  2.2

     total cpu time spent up to now is    63631.4 secs

     total energy              =   -1978.37190869 Ry
     estimated scf accuracy    <          2.0E-09 Ry

     iteration # 22     ecut=    80.00 Ry     beta= 0.20
     Davidson diagonalization with overlap
     ethr =  1.94E-12,  avg # of iterations =  1.0

     total cpu time spent up to now is    63730.0 secs

     total energy              =   -1978.37190869 Ry
     estimated scf accuracy    <          1.8E-09 Ry

     iteration # 23     ecut=    80.00 Ry     beta= 0.20
     Davidson diagonalization with overlap
     ethr =  1.70E-12,  avg # of iterations =  1.2

     total cpu time spent up to now is    63831.1 secs

     total energy              =   -1978.37190870 Ry
     estimated scf accuracy    <          1.6E-09 Ry

     iteration # 24     ecut=    80.00 Ry     beta= 0.20
     Davidson diagonalization with overlap
     ethr =  1.50E-12,  avg # of iterations =  1.4

     total cpu time spent up to now is    63934.0 secs

     total energy              =   -1978.37190871 Ry
     estimated scf accuracy    <          1.6E-09 Ry

     iteration # 25     ecut=    80.00 Ry     beta= 0.20
     Davidson diagonalization with overlap
     ethr =  1.50E-12,  avg # of iterations =  1.0

     total cpu time spent up to now is    64032.8 secs

     total energy              =   -1978.37190871 Ry
     estimated scf accuracy    <          1.5E-09 Ry

     iteration # 26     ecut=    80.00 Ry     beta= 0.20
     Davidson diagonalization with overlap
     ethr =  1.41E-12,  avg # of iterations =  1.0

     total cpu time spent up to now is    64131.8 secs

     total energy              =   -1978.37190870 Ry
     estimated scf accuracy    <          1.4E-09 Ry

     iteration # 27     ecut=    80.00 Ry     beta= 0.20
     Davidson diagonalization with overlap
     ethr =  1.39E-12,  avg # of iterations =  1.1

     total cpu time spent up to now is    64231.6 secs

     total energy              =   -1978.37190870 Ry
     estimated scf accuracy    <          1.4E-09 Ry

     iteration # 28     ecut=    80.00 Ry     beta= 0.20
     Davidson diagonalization with overlap
     ethr =  1.36E-12,  avg # of iterations =  1.0

     total cpu time spent up to now is    64330.4 secs

     total energy              =   -1978.37190870 Ry
     estimated scf accuracy    <          1.4E-09 Ry

     iteration # 29     ecut=    80.00 Ry     beta= 0.20
     Davidson diagonalization with overlap
     ethr =  1.32E-12,  avg # of iterations =  1.0

     total cpu time spent up to now is    64429.2 secs

     total energy              =   -1978.37190870 Ry
     estimated scf accuracy    <          1.3E-09 Ry

     iteration # 30     ecut=    80.00 Ry     beta= 0.20
     Davidson diagonalization with overlap
     ethr =  1.25E-12,  avg # of iterations =  1.1

     total cpu time spent up to now is    64529.4 secs

     total energy              =   -1978.37190869 Ry
     estimated scf accuracy    <          1.1E-09 Ry

     iteration # 31     ecut=    80.00 Ry     beta= 0.20
     Davidson diagonalization with overlap
     ethr =  1.01E-12,  avg # of iterations =  2.1

     total cpu time spent up to now is    64639.0 secs

     End of self-consistent calculation

          k = 0.0000 0.0000 0.0000 ( 21311 PWs)   bands (ev):

   -53.4949 -53.4643 -53.4422 -53.4098 -27.6698 -27.6377 -27.6159 -27.5846
   -27.4331 -27.4331 -27.3994 -27.3994 -27.3777 -27.3777 -27.3481 -27.3481
    -6.8288  -6.7773  -6.7117  -6.6492  -5.5932  -5.5109  -5.4012  -5.3239
     1.3802   1.5461   1.8347   2.0471   4.7635   4.7635   4.7743   4.8294
     4.8295   4.8449   4.8449   4.8508   4.8508   5.1612   5.7392   5.8830
     5.8831   5.9409   5.9409   5.9577   5.9577   5.9712   5.9713   6.2611
     6.9621   7.3266   7.6689   7.8284  10.1331  10.1331  10.1686  10.1686
    10.1902  10.1902  10.2318  10.2318  10.3441  10.3441

          k = 0.0000 0.0722 0.0000 ( 21283 PWs)   bands (ev):

   -53.4933 -53.4628 -53.4407 -53.4082 -27.6667 -27.6347 -27.6129 -27.5815
   -27.4487 -27.4367 -27.4150 -27.4030 -27.3932 -27.3812 -27.3637 -27.3517
    -6.7692  -6.7178  -6.6524  -6.5901  -5.5658  -5.4846  -5.3770  -5.3006
     1.4495   1.6141   1.9022   2.1153   4.6269   4.6426   4.6936   4.7095
     4.7166   4.8260   4.8916   4.9067   4.9137   4.9749   5.3813   5.5860
     5.7861   5.8438   5.8603   5.8756   5.9960   6.0492   6.1876   6.4966
     6.9667   7.3122   7.6150   7.7525  10.0567  10.0887  10.1095  10.1453
    10.1904  10.2223  10.2232  10.2503  10.2595  10.2770

          k = 0.0000 0.1443 0.0000 ( 21263 PWs)   bands (ev):

   -53.4889 -53.4584 -53.4362 -53.4038 -27.6580 -27.6261 -27.6042 -27.5728
   -27.4929 -27.4589 -27.4467 -27.4372 -27.4130 -27.4079 -27.3912 -27.3617
    -6.5953  -6.5443  -6.4799  -6.4178  -5.4860  -5.4080  -5.3064  -5.2328
     1.6425   1.8025   2.0874   2.3014   4.2783   4.3290   4.3415   4.3630
     4.3728   4.5995   4.9001   5.0058   5.0649   5.0705   5.0848   5.0951
     5.5353   5.5928   5.6091   5.6274   6.0534   6.1471   6.3507   6.6438
     6.9426   7.2139   7.4164   7.5071   9.7565   9.8268   9.8864   9.9269
     9.9883  10.0472  10.0621  10.0785  10.1155  10.1230

          k = 0.0000 0.2165 0.0000 ( 21233 PWs)   bands (ev):

   -53.4822 -53.4517 -53.4296 -53.3971 -27.6450 -27.6132 -27.5913 -27.5598
   -27.5584 -27.5242 -27.5025 -27.4734 -27.4617 -27.4280 -27.4062 -27.3767
    -6.3221  -6.2718  -6.2096  -6.1483  -5.3608  -5.2879  -5.1962  -5.1272
     1.9046   2.0521   2.3221   2.5291   3.8476   3.9008   3.9147   3.9338
     3.9865   4.1782   4.3964   4.5154   5.2102   5.2646   5.2779   5.2858
     5.3052   5.3442   5.3609   5.3727   5.9628   6.0876   6.3085   6.5538
     6.8048   6.9570   7.0541   7.1102   9.3655   9.4973   9.6606   9.8396
     9.8573   9.9048   9.9522   9.9602  10.0096  10.0968

          k = 0.0000 0.2887 0.0000 ( 21197 PWs)   bands (ev):

   -53.4744 -53.4439 -53.4218 -53.3893 -27.6348 -27.6296 -27.6003 -27.5978
   -27.5787 -27.5760 -27.5498 -27.5444 -27.4794 -27.4455 -27.4238 -27.3944
    -5.9754  -5.9262  -5.8682  -5.8087  -5.2031  -5.1368  -5.0584  -4.9955
     2.1057   2.2220   2.4352   2.5950   3.4684   3.5104   3.5564   3.5875
     3.6726   3.7860   3.9042   3.9721   4.8820   4.9390   4.9551   4.9789
     5.6080   5.6676   5.6836   5.7058   5.7471   5.8892   6.1071   6.3002
     6.5378   6.6103   6.6550   6.7008   9.2264   9.3912   9.6119   9.6682
     9.7150   9.7609   9.8168   9.8365  10.1727  10.3319

          k = 0.0000 0.3608 0.0000 ( 21187 PWs)   bands (ev):

   -53.4665 -53.4360 -53.4139 -53.3814 -27.7104 -27.6756 -27.6540 -27.6254
   -27.6142 -27.5825 -27.5606 -27.5290 -27.4970 -27.4631 -27.4413 -27.4120
    -5.5938  -5.5460  -5.4955  -5.4392  -5.0321  -4.9732  -4.9108  -4.8552
     2.0634   2.1350   2.2531   2.3433   3.1092   3.1728   3.2714   3.3862
     3.4352   3.5347   3.6009   3.6653   4.5939   4.6507   4.6673   4.6924
     5.5151   5.6570   5.8602   5.9320   5.9868   6.0087   6.0184   6.0399
     6.3199   6.3821   6.4254   6.4691   9.3458   9.5005   9.5629   9.6062
     9.6439   9.6956   9.7165   9.9216  10.4979  10.6569

          k = 0.0000 0.4330 0.0000 ( 21140 PWs)   bands (ev):

   -53.4598 -53.4294 -53.4072 -53.3747 -27.7737 -27.7387 -27.7171 -27.6888
   -27.6011 -27.5695 -27.5475 -27.5158 -27.5118 -27.4779 -27.4562 -27.4268
    -5.2326  -5.1859  -5.1469  -5.0958  -4.8738  -4.8222  -4.7767  -4.7295
     1.8228   1.8726   1.9335   1.9916   2.7679   2.8274   2.9106   2.9866
     3.3388   3.4095   3.5075   3.5870   4.3733   4.4301   4.4470   4.4729
     5.3448   5.4763   5.6626   5.7983   6.1919   6.2427   6.2745   6.3145
     6.3373   6.4071   6.4717   6.5240   9.5544   9.5938   9.6141   9.6207
     9.6649   9.7328   9.9015  10.0536  10.8038  10.9456

          k = 0.0000 0.5052 0.0000 ( 21078 PWs)   bands (ev):

   -53.4553 -53.4249 -53.4028 -53.3702 -27.8157 -27.7806 -27.7590 -27.7308
   -27.5923 -27.5607 -27.5388 -27.5217 -27.5071 -27.4877 -27.4660 -27.4367
    -4.9641  -4.9171  -4.8917  -4.8477  -4.7595  -4.7137  -4.6819  -4.6432
     1.5912   1.6346   1.6735   1.7212   2.5294   2.5777   2.6378   2.7035
     3.2399   3.3058   3.3988   3.4741   4.2357   4.2924   4.3096   4.3360
     5.2533   5.3755   5.5464   5.6639   6.3500   6.3996   6.4406   6.4870
     6.5267   6.5925   6.6578   6.7135   9.6000   9.6380   9.6594   9.6941
     9.9137   9.9884  10.0897  10.1819  10.9970  11.1138

          k = 0.0000-0.5774 0.0000 ( 21006 PWs)   bands (ev):

   -53.4538 -53.4233 -53.4012 -53.3687 -27.8304 -27.7952 -27.7736 -27.7454
   -27.5892 -27.5577 -27.5357 -27.5252 -27.5040 -27.4912 -27.4695 -27.4402
    -4.8628  -4.8150  -4.7962  -4.7570  -4.7175  -4.6744  -4.6474  -4.6132
     1.4990   1.5408   1.5748   1.6208   2.4441   2.4874   2.5391   2.6037
     3.1925   3.2577   3.3484   3.4217   4.1890   4.2457   4.2630   4.2895
     5.2262   5.3444   5.5083   5.6185   6.4013   6.4510   6.4958   6.5443
     6.6446   6.6986   6.7497   6.8004   9.6272   9.6655   9.6862   9.7165
    10.0734  10.1252  10.1693  10.2224  11.0593  11.1586

          k = 0.0625 0.1083 0.0000 ( 21269 PWs)   bands (ev):

   -53.4903 -53.4598 -53.4377 -53.4052 -27.6609 -27.6289 -27.6070 -27.5756
   -27.4781 -27.4443 -27.4439 -27.4225 -27.4102 -27.3931 -27.3884 -27.3589
    -6.6524  -6.6013  -6.5365  -6.4743  -5.5122  -5.4331  -5.3295  -5.2550
     1.5811   1.7429   2.0293   2.2433   4.3878   4.4302   4.4522   4.4713
     4.4782   4.7162   4.9452   5.0101   5.0250   5.0327   5.0495   5.2312
     5.5714   5.6289   5.6457   5.6598   6.0915   6.1703   6.3542   6.6487
     6.9585   7.2583   7.4892   7.5916   9.8852   9.9269   9.9332   9.9631
    10.0160  10.0174  10.0606  10.1132  10.1491  10.1892

          k = 0.0625 0.1804 0.0000 ( 21194 PWs)   bands (ev):

   -53.4848 -53.4543 -53.4321 -53.3997 -27.6500 -27.6181 -27.5962 -27.5648
   -27.5317 -27.4976 -27.4760 -27.4577 -27.4467 -27.4239 -27.4022 -27.3727
    -6.4287  -6.3781  -6.3149  -6.2533  -5.4095  -5.3346  -5.2390  -5.1682
     1.8129   1.9666   2.2454   2.4579   4.0068   4.0646   4.0760   4.0927
     4.1379   4.3631   4.6249   4.7680   5.1622   5.2032   5.2285   5.2369
     5.2504   5.2650   5.2846   5.2936   6.1398   6.2397   6.4321   6.6828
     6.8808   7.0818   7.2054   7.2677   9.4800   9.5871   9.7039   9.8187
     9.8597   9.9161   9.9565   9.9899  10.0166  10.0551

          k = 0.0625 0.2526 0.0000 ( 21202 PWs)   bands (ev):

   -53.4775 -53.4470 -53.4249 -53.3924 -27.6358 -27.6040 -27.6011 -27.5821
   -27.5667 -27.5506 -27.5450 -27.5161 -27.4756 -27.4418 -27.4201 -27.3907
    -6.1182  -6.0685  -6.0085  -5.9481  -5.2675  -5.1984  -5.1143  -5.0488
     2.0586   2.1918   2.4388   2.6278   3.6254   3.6708   3.6978   3.7152
     3.8059   3.9772   4.1511   4.2418   4.8297   4.8834   4.9050   4.9323
     5.4327   5.4932   5.5087   5.5263   6.0362   6.1466   6.3301   6.5218
     6.6760   6.7696   6.8165   6.8621   9.2079   9.3585   9.5381   9.6639
     9.7760   9.8219   9.8550   9.8895   9.9784  10.1314

          k = 0.0625 0.3248 0.0000 ( 21194 PWs)   bands (ev):

   -53.4697 -53.4392 -53.4170 -53.3846 -27.6753 -27.6406 -27.6204 -27.6190
   -27.5903 -27.5887 -27.5668 -27.5352 -27.4950 -27.4612 -27.4394 -27.4101
    -5.7524  -5.7040  -5.6499  -5.5920  -5.1017  -5.0396  -4.9702  -4.9114
     2.1460   2.2374   2.3990   2.5178   3.3077   3.3543   3.4240   3.4977
     3.5737   3.6725   3.6952   3.7416   4.5271   4.5801   4.6161   4.6545
     5.6727   5.7219   5.7433   5.7690   5.8248   5.9315   6.0994   6.2464
     6.4510   6.5006   6.5310   6.5698   9.1714   9.3231   9.4885   9.5773
     9.7098   9.7559   9.7981   9.9225  10.2308  10.3879

          k = 0.0625 0.3969 0.0000 ( 21151 PWs)   bands (ev):

   -53.4624 -53.4319 -53.4098 -53.3773 -27.7431 -27.7081 -27.6866 -27.6581
   -27.6061 -27.5745 -27.5526 -27.5209 -27.5129 -27.4790 -27.4572 -27.4279
    -5.3778  -5.3308  -5.2862  -5.2325  -4.9347  -4.8800  -4.8271  -4.7762
     1.9837   2.0413   2.1253   2.1955   2.9331   2.9936   3.0785   3.1575
     3.4069   3.4784   3.5741   3.6567   4.3293   4.3828   4.4202   4.4581
     5.5677   5.6735   5.8087   5.8221   5.8796   5.8918   5.9207   5.9928
     6.4589   6.5038   6.5319   6.5647   9.3110   9.4275   9.5385   9.6053
     9.7507   9.7979   9.8666  10.0022  10.5679  10.7096

          k = 0.0625 0.4691 0.0000 ( 21105 PWs)   bands (ev):

   -53.4568 -53.4263 -53.4042 -53.3717 -27.7945 -27.7594 -27.7378 -27.7095
   -27.5951 -27.5636 -27.5417 -27.5265 -27.5099 -27.4925 -27.4708 -27.4415
    -5.0579  -5.0113  -4.9800  -4.9326  -4.7954  -4.7472  -4.7102  -4.6678
     1.7406   1.7864   1.8339   1.8856   2.6143   2.6642   2.7238   2.7853
     3.3125   3.3777   3.4735   3.5533   4.2213   4.2732   4.3006   4.3319
     5.3785   5.4855   5.6335   5.7399   5.9500   5.9949   6.0290   6.0783
     6.6326   6.6775   6.7108   6.7489   9.5113   9.5761   9.6302   9.6790
     9.8878   9.9398  10.0229  10.1253  10.8812  10.9986

          k = 0.0625 0.5413 0.0000 ( 21084 PWs)   bands (ev):

   -53.4538 -53.4233 -53.4012 -53.3687 -27.8221 -27.7869 -27.7654 -27.7372
   -27.5892 -27.5577 -27.5357 -27.5339 -27.5040 -27.4999 -27.4782 -27.4489
    -4.8682  -4.8205  -4.8007  -4.7604  -4.7149  -4.6713  -4.6436  -4.6088
     1.5791   1.6212   1.6561   1.7027   2.4349   2.4776   2.5240   2.5831
     3.2247   3.2896   3.3817   3.4568   4.1758   4.2292   4.2470   4.2682
     5.2752   5.3836   5.5305   5.6304   6.0441   6.0897   6.1269   6.1759
     6.7880   6.8341   6.8728   6.9156   9.6272   9.6597   9.6839   9.7152
    10.0666  10.1196  10.1749  10.2359  11.1076  11.1936

          k = 0.1250 0.2165 0.0000 ( 21179 PWs)   bands (ev):

   -53.4786 -53.4481 -53.4260 -53.3935 -27.6380 -27.6061 -27.5870 -27.5843
   -27.5528 -27.5527 -27.5311 -27.5020 -27.4765 -27.4427 -27.4209 -27.3915
    -6.1672  -6.1173  -6.0567  -5.9961  -5.2895  -5.2194  -5.1334  -5.0670
     2.0393   2.1784   2.4366   2.6355   3.6910   3.7388   3.7605   3.7746
     3.9051   4.1108   4.3243   4.4296   4.6909   4.7457   4.7654   4.7899
     5.3531   5.4135   5.4290   5.4440   6.2218   6.3163   6.4742   6.6528
     6.7419   6.8491   6.8865   6.9318   9.1978   9.3388   9.4996   9.6216
     9.7760   9.7926   9.8319   9.8553   9.9135  10.0665

          k = 0.1250 0.2887 0.0000 ( 21199 PWs)   bands (ev):

   -53.4714 -53.4409 -53.4187 -53.3863 -27.6505 -27.6237 -27.6159 -27.5943
   -27.5920 -27.5701 -27.5655 -27.5385 -27.4998 -27.4659 -27.4442 -27.4149
    -5.8360  -5.7873  -5.7314  -5.6727  -5.1378  -5.0740  -5.0009  -4.9404
     2.1962   2.3032   2.4981   2.6415   3.4584   3.4978   3.5227   3.5971
     3.6788   3.8051   3.8825   3.9282   4.2640   4.3227   4.4017   4.4740
     5.4619   5.5146   5.5331   5.5579   6.1491   6.2357   6.3646   6.4853
     6.5578   6.5889   6.6122   6.6434   9.0367   9.1937   9.3759   9.4954
     9.7689   9.7898   9.8276   9.8922   9.9908  10.1626

          k = 0.1250 0.3608 0.0000 ( 21195 PWs)   bands (ev):

   -53.4641 -53.4336 -53.4115 -53.3790 -27.7129 -27.6781 -27.6565 -27.6279
   -27.6095 -27.5778 -27.5559 -27.5242 -27.5236 -27.4896 -27.4679 -27.4386
    -5.4731  -5.4257  -5.3778  -5.3226  -4.9729  -4.9160  -4.8581  -4.8047
     2.1431   2.2121   2.3244   2.4102   3.1323   3.1837   3.2465   3.3124
     3.4957   3.5585   3.6383   3.7269   4.0677   4.1615   4.2689   4.3404
     5.4100   5.4556   5.4786   5.5120   5.9326   6.0067   6.1100   6.2003
     6.5128   6.5535   6.5732   6.6025   9.0753   9.2327   9.4305   9.5638
     9.8406   9.8704   9.9055   9.9913  10.2252  10.3749

          k = 0.1250 0.4330 0.0000 ( 21113 PWs)   bands (ev):

   -53.4579 -53.4274 -53.4053 -53.3728 -27.7651 -27.7301 -27.7085 -27.6801
   -27.5973 -27.5658 -27.5438 -27.5438 -27.5121 -27.5097 -27.4880 -27.4588
    -5.1320  -5.0856  -5.0495  -4.9997  -4.8198  -4.7695  -4.7276  -4.6825
     1.9562   2.0071   2.0716   2.1315   2.7130   2.7575   2.7993   2.8455
     3.4401   3.4989   3.5920   3.6804   4.0412   4.1275   4.2209   4.2854
     5.3614   5.4070   5.4472   5.4974   5.6610   5.7290   5.8223   5.9029
     6.6506   6.6940   6.7150   6.7440   9.2877   9.4253   9.6073   9.7331
     9.9491   9.9849  10.0162  10.0664  10.5395  10.6551

          k = 0.1250 0.5052 0.0000 ( 21081 PWs)   bands (ev):

   -53.4538 -53.4233 -53.4012 -53.3687 -27.7997 -27.7646 -27.7430 -27.7147
   -27.5892 -27.5577 -27.5573 -27.5358 -27.5232 -27.5040 -27.5015 -27.4723
    -4.8808  -4.8336  -4.8111  -4.7686  -4.7087  -4.6641  -4.6346  -4.5982
     1.7900   1.8335   1.8740   1.9237   2.4159   2.4567   2.4896   2.5344
     3.3231   3.3872   3.4807   3.5582   4.0940   4.1560   4.2176   4.2677
     5.3625   5.4238   5.4625   5.4888   5.5181   5.5538   5.6051   5.6884
     6.8384   6.8832   6.9132   6.9500   9.5151   9.5908   9.6707   9.7325
    10.0997  10.1460  10.1981  10.2674  10.8276  10.8960

          k = 0.1250 0.5774 0.0000 ( 21108 PWs)   bands (ev):

   -53.4523 -53.4219 -53.3997 -53.3672 -27.8118 -27.7767 -27.7551 -27.7269
   -27.5864 -27.5620 -27.5549 -27.5329 -27.5279 -27.5062 -27.5011 -27.4771
    -4.7866  -4.7386  -4.7221  -4.6852  -4.6673  -4.6261  -4.6005  -4.5688
     1.7260   1.7669   1.7996   1.8469   2.3102   2.3500   2.3805   2.4259
     3.2628   3.3277   3.4210   3.4963   4.1401   4.1857   4.2195   4.2579
     5.3025   5.3931   5.4388   5.4849   5.5026   5.5452   5.5593   5.6298
     6.9316   6.9781   7.0149   7.0566   9.5944   9.6255   9.6504   9.6846
    10.2108  10.2690  10.3154  10.3648  10.9537  11.0085

          k = 0.1875 0.3248 0.0000 ( 21195 PWs)   bands (ev):

   -53.4647 -53.4342 -53.4121 -53.3796 -27.6993 -27.6645 -27.6429 -27.6143
   -27.6106 -27.5790 -27.5571 -27.5303 -27.5254 -27.4963 -27.4746 -27.4454
    -5.5062  -5.4587  -5.4097  -5.3540  -4.9858  -4.9281  -4.8685  -4.8143
     2.2108   2.2863   2.4132   2.5072   3.2617   3.3019   3.3406   3.3861
     3.5396   3.5942   3.6586   3.7301   3.9179   4.0410   4.1831   4.2655
     5.2359   5.2814   5.3040   5.3379   6.0977   6.1575   6.2368   6.3107
     6.5196   6.5612   6.5815   6.6156   8.9856   9.1561   9.3771   9.5395
     9.8647   9.8817   9.9192   9.9678  10.0824  10.2430

          k = 0.1875 0.3969 0.0000 ( 21153 PWs)   bands (ev):

   -53.4585 -53.4280 -53.4059 -53.3734 -27.7413 -27.7063 -27.6848 -27.6563
   -27.5985 -27.5669 -27.5612 -27.5450 -27.5271 -27.5133 -27.5054 -27.4762
    -5.1728  -5.1263  -5.0877  -5.0366  -4.8318  -4.7803  -4.7357  -4.6890
     2.1197   2.1771   2.2600   2.3287   2.7969   2.8339   2.8589   2.8846
     3.5817   3.6252   3.6858   3.7741   3.9176   4.0369   4.1647   4.2393
     4.9211   4.9660   4.9959   5.0381   5.8776   5.9172   5.9646   6.0243
     6.6214   6.6674   6.6905   6.7262   9.1437   9.3134   9.5587   9.7737
     9.9766  10.0088  10.0313  10.0610  10.2634  10.3955

          k = 0.1875 0.4691 0.0000 ( 21101 PWs)   bands (ev):

   -53.4538 -53.4233 -53.4012 -53.3687 -27.7718 -27.7368 -27.7152 -27.6868
   -27.5892 -27.5862 -27.5577 -27.5520 -27.5358 -27.5303 -27.5040 -27.5012
    -4.8931  -4.8463  -4.8211  -4.7768  -4.7025  -4.6569  -4.6255  -4.5876
     2.0307   2.0788   2.1347   2.1916   2.3985   2.4390   2.4621   2.4878
     3.4972   3.5606   3.6437   3.7104   3.9875   4.0900   4.2036   4.2775
     4.7433   4.7945   4.8574   4.9219   5.5768   5.6307   5.6755   5.7357
     6.8217   6.8672   6.8877   6.9186   9.3703   9.4830   9.6279   9.7335
    10.1421  10.1822  10.2257  10.3038  10.4863  10.5684

          k = 0.1875 0.5413 0.0000 ( 21112 PWs)   bands (ev):

   -53.4512 -53.4208 -53.3986 -53.3661 -27.7878 -27.7527 -27.7312 -27.7029
   -27.6002 -27.5842 -27.5659 -27.5527 -27.5442 -27.5308 -27.5152 -27.4990
    -4.7299  -4.6821  -4.6668  -4.6338  -4.6242  -4.5866  -4.5618  -4.5320
     1.9921   2.0332   2.0667   2.1208   2.1817   2.2254   2.2481   2.2759
     3.3521   3.4189   3.5118   3.5822   4.1259   4.1885   4.2559   4.3153
     4.7030   4.7644   4.8445   4.9111   5.3640   5.4222   5.4746   5.5341
     7.0071   7.0519   7.0797   7.1168   9.4462   9.4897   9.5268   9.5697
    10.3310  10.3887  10.4582  10.5452  10.6163  10.6642

          k = 0.2500 0.4330 0.0000 ( 21125 PWs)   bands (ev):

   -53.4538 -53.4233 -53.4012 -53.3687 -27.7573 -27.7223 -27.7007 -27.6723
   -27.6011 -27.5892 -27.5669 -27.5577 -27.5452 -27.5358 -27.5162 -27.5040
    -4.8982  -4.8515  -4.8252  -4.7802  -4.7000  -4.6539  -4.6218  -4.5832
     2.1411   2.1928   2.2601   2.3203   2.3932   2.4331   2.4547   2.4685
     3.6816   3.7205   3.7386   3.7995   3.9872   4.0927   4.2149   4.2907
     4.4177   4.4607   4.4851   4.5166   5.6562   5.6850   5.7000   5.7694
     6.8048   6.8516   6.8713   6.9017   9.3096   9.4339   9.6005   9.7265
    10.1533  10.1906  10.2214  10.3114  10.3584  10.4737

          k = 0.2500 0.5052 0.0000 ( 21117 PWs)   bands (ev):

   -53.4506 -53.4202 -53.3980 -53.3655 -27.7620 -27.7270 -27.7054 -27.6771
   -27.6338 -27.5994 -27.5830 -27.5778 -27.5516 -27.5488 -27.5296 -27.4978
    -4.7017  -4.6541  -4.6391  -4.6087  -4.5978  -4.5633  -4.5386  -4.5097
     2.0905   2.1336   2.1509   2.1727   2.2502   2.3003   2.3494   2.3990
     3.5246   3.5916   3.6621   3.7053   4.0752   4.1106   4.1542   4.2034
     4.2384   4.2985   4.3589   4.4060   5.3755   5.4132   5.4419   5.5081
     7.0460   7.0903   7.1100   7.1395   9.3141   9.3652   9.4181   9.4711
    10.3008  10.3385  10.3795  10.4061  10.5577  10.6112

          k = 0.2500 0.5774 0.0000 ( 21116 PWs)   bands (ev):

   -53.4495 -53.4191 -53.3969 -53.3644 -27.7619 -27.7268 -27.7053 -27.6769
   -27.6470 -27.6127 -27.5910 -27.5809 -27.5620 -27.5494 -27.5275 -27.4956
    -4.6292  -4.5836  -4.5716  -4.5650  -4.5401  -4.5302  -4.5084  -4.4837
     1.9891   2.0321   2.0503   2.0708   2.3365   2.3743   2.4051   2.4470
     3.3670   3.4330   3.5129   3.5707   4.0434   4.0922   4.1657   4.2358
     4.2917   4.3479   4.4005   4.4444   5.2548   5.2873   5.3058   5.3712
     7.1736   7.2167   7.2391   7.2729   9.2389   9.2802   9.3015   9.3258
    10.3247  10.3667  10.4068  10.4334  10.7112  10.7530

          k = 0.3125 0.5413 0.0000 ( 21100 PWs)   bands (ev):

   -53.4489 -53.4185 -53.3963 -53.3638 -27.7408 -27.7058 -27.6842 -27.6755
   -27.6559 -27.6411 -27.6194 -27.5905 -27.5797 -27.5482 -27.5263 -27.4945
    -4.5939  -4.5544  -4.5429  -4.5307  -4.5137  -4.5057  -4.4893  -4.4657
     1.9194   1.9644   1.9833   2.0004   2.5638   2.6074   2.6443   2.6916
     3.3688   3.3840   3.4083   3.4375   3.8458   3.8643   3.8857   3.9039
     4.3470   4.4058   4.4520   4.5020   5.1686   5.2077   5.2318   5.3003
     7.2557   7.2973   7.3168   7.3470   9.1215   9.1660   9.1869   9.2101
    10.2593  10.2857  10.3131  10.3536  10.8088  10.8695

     the Fermi energy is     8.3496 ev

!    total energy              =   -1978.37190870 Ry
     total all-electron energy =    -38771.692753 Ry
     estimated scf accuracy    <          7.4E-10 Ry
     smearing contrib. (-TS)   =       0.00003349 Ry
     internal energy E=F+TS    =   -1978.37194219 Ry

     The total energy is F=E-TS. E is the sum of the following terms:
     one-electron contribution =   -1510.30605965 Ry
     hartree contribution      =     797.41777533 Ry
     xc contribution           =    -119.23981038 Ry
     ewald contribution        =     123.60763592 Ry
     one-center paw contrib.   =   -1269.85148341 Ry

     convergence has been achieved in  31 iterations

     Forces acting on atoms (cartesian axes, Ry/au):

     atom    1 type  2   force =     0.00000000   -0.00000000   -0.00104661
     atom    2 type  1   force =     0.00000000    0.00000000    0.00004900
     atom    3 type  2   force =     0.00000000    0.00000000    0.00259230
     atom    4 type  2   force =     0.00000000    0.00000000   -0.00021969
     atom    5 type  1   force =     0.00000000    0.00000000    0.00266825
     atom    6 type  2   force =     0.00000000    0.00000000   -0.00132369
     atom    7 type  2   force =     0.00000000   -0.00000000    0.00017804
     atom    8 type  1   force =     0.00000000    0.00000000    0.00073841
     atom    9 type  2   force =     0.00000000   -0.00000000   -0.00177071
     atom   10 type  2   force =     0.00000000   -0.00000000   -0.00280699
     atom   11 type  1   force =     0.00000000    0.00000000   -0.00026051
     atom   12 type  2   force =     0.00000000    0.00000000    0.00120221

     Total force =     0.005463     Total SCF correction =     0.000114
     Energy error            =      1.4E-04 Ry
     Gradient error          =      2.8E-03 Ry/Bohr

     number of scf cycles    =  26
     number of bfgs steps    =  22

     energy             old  =   -1978.3717708411 Ry
     energy             new  =   -1978.3719086972 Ry

     CASE: energy            _new < energy            _old

     new trust radius        =       0.0505396410 bohr
     new conv_thr            =       0.0000000014 Ry


ATOMIC_POSITIONS (crystal)
S                0.3333329604        0.6666669207       -0.1099319708
Mo               0.0000000000        0.0000000000       -0.0575779686
S                0.3333329604        0.6666669207       -0.0052197594
S                0.6666669207        0.3333329604        0.0998809111
Mo               0.3333329604        0.6666669207        0.1523529273
S                0.6666669207        0.3333329604        0.2049322400
S                0.0000000000        0.0000000000        0.3139268726
Mo               0.6666669207        0.3333329604        0.3664655393
S                0.0000000000        0.0000000000        0.4190224177
S                0.3333329604        0.6666669207        0.5246895698
Mo               0.0000000000        0.0000000000        0.5770633934
S                0.3333329604        0.6666669207        0.6293954574



     Writing config-only to output data dir ./tmp/relax2/mos2_slab2.save/ :
     XML data file
     NEW-OLD atomic charge density approx. for the potential

     total cpu time spent up to now is    64694.0 secs

     Self-consistent Calculation

     iteration #  1     ecut=    80.00 Ry     beta= 0.20
     Davidson diagonalization with overlap
     ethr =  1.00E-06,  avg # of iterations =  7.1

     total cpu time spent up to now is    64999.3 secs

     total energy              =   -1978.37224153 Ry
     estimated scf accuracy    <       0.00079786 Ry

     iteration #  2     ecut=    80.00 Ry     beta= 0.20
     Davidson diagonalization with overlap
     ethr =  7.67E-07,  avg # of iterations =  1.0

     total cpu time spent up to now is    65098.0 secs

     total energy              =   -1978.37204921 Ry
     estimated scf accuracy    <       0.00059930 Ry

     iteration #  3     ecut=    80.00 Ry     beta= 0.20
     Davidson diagonalization with overlap
     ethr =  5.76E-07,  avg # of iterations =  3.0

     total cpu time spent up to now is    65216.9 secs

     total energy              =   -1978.37210841 Ry
     estimated scf accuracy    <       0.00002503 Ry

     iteration #  4     ecut=    80.00 Ry     beta= 0.20
     Davidson diagonalization with overlap
     ethr =  2.41E-08,  avg # of iterations =  3.8

     total cpu time spent up to now is    65349.7 secs

     total energy              =   -1978.37211168 Ry
     estimated scf accuracy    <       0.00000829 Ry

     iteration #  5     ecut=    80.00 Ry     beta= 0.20
     Davidson diagonalization with overlap
     ethr =  7.97E-09,  avg # of iterations =  2.0

     total cpu time spent up to now is    65458.4 secs

     total energy              =   -1978.37211119 Ry
     estimated scf accuracy    <       0.00000554 Ry

     iteration #  6     ecut=    80.00 Ry     beta= 0.20
     Davidson diagonalization with overlap
     ethr =  5.33E-09,  avg # of iterations =  2.0

     total cpu time spent up to now is    65579.4 secs

     total energy              =   -1978.37211172 Ry
     estimated scf accuracy    <       0.00000132 Ry

     iteration #  7     ecut=    80.00 Ry     beta= 0.20
     Davidson diagonalization with overlap
     ethr =  1.27E-09,  avg # of iterations =  2.4

     total cpu time spent up to now is    65685.6 secs

     total energy              =   -1978.37211175 Ry
     estimated scf accuracy    <       0.00000059 Ry

     iteration #  8     ecut=    80.00 Ry     beta= 0.20
     Davidson diagonalization with overlap
     ethr =  5.71E-10,  avg # of iterations =  2.6

     total cpu time spent up to now is    65798.9 secs

     total energy              =   -1978.37211191 Ry
     estimated scf accuracy    <       0.00000016 Ry

     iteration #  9     ecut=    80.00 Ry     beta= 0.20
     Davidson diagonalization with overlap
     ethr =  1.49E-10,  avg # of iterations =  2.5

     total cpu time spent up to now is    65919.9 secs

     total energy              =   -1978.37211186 Ry
     estimated scf accuracy    <       0.00000030 Ry

     iteration # 10     ecut=    80.00 Ry     beta= 0.20
     Davidson diagonalization with overlap
     ethr =  1.49E-10,  avg # of iterations =  1.8

     total cpu time spent up to now is    66027.0 secs

     total energy              =   -1978.37211188 Ry
     estimated scf accuracy    <       0.00000021 Ry

     iteration # 11     ecut=    80.00 Ry     beta= 0.20
     Davidson diagonalization with overlap
     ethr =  1.49E-10,  avg # of iterations =  2.0

     total cpu time spent up to now is    66135.7 secs

     total energy              =   -1978.37211190 Ry
     estimated scf accuracy    <       0.00000010 Ry

     iteration # 12     ecut=    80.00 Ry     beta= 0.20
     Davidson diagonalization with overlap
     ethr =  9.96E-11,  avg # of iterations =  1.0

     total cpu time spent up to now is    66234.3 secs

     total energy              =   -1978.37211188 Ry
     estimated scf accuracy    <       0.00000010 Ry

     iteration # 13     ecut=    80.00 Ry     beta= 0.20
     Davidson diagonalization with overlap
     ethr =  9.96E-11,  avg # of iterations =  1.2

     total cpu time spent up to now is    66335.5 secs

     total energy              =   -1978.37211186 Ry
     estimated scf accuracy    <       0.00000012 Ry

     iteration # 14     ecut=    80.00 Ry     beta= 0.20
     Davidson diagonalization with overlap
     ethr =  9.96E-11,  avg # of iterations =  1.1

     total cpu time spent up to now is    66435.2 secs

     total energy              =   -1978.37211186 Ry
     estimated scf accuracy    <       0.00000009 Ry

     iteration # 15     ecut=    80.00 Ry     beta= 0.20
     Davidson diagonalization with overlap
     ethr =  8.62E-11,  avg # of iterations =  1.2

     total cpu time spent up to now is    66536.2 secs

     total energy              =   -1978.37211186 Ry
     estimated scf accuracy    <       0.00000005 Ry

     iteration # 16     ecut=    80.00 Ry     beta= 0.20
     Davidson diagonalization with overlap
     ethr =  4.45E-11,  avg # of iterations =  1.6

     total cpu time spent up to now is    66642.0 secs

     total energy              =   -1978.37211187 Ry
     estimated scf accuracy    <       0.00000002 Ry

     iteration # 17     ecut=    80.00 Ry     beta= 0.20
     Davidson diagonalization with overlap
     ethr =  2.38E-11,  avg # of iterations =  4.6

     total cpu time spent up to now is    66784.7 secs

     total energy              =   -1978.37211186 Ry
     estimated scf accuracy    <       0.00000008 Ry

     iteration # 18     ecut=    80.00 Ry     beta= 0.20
     Davidson diagonalization with overlap
     ethr =  2.38E-11,  avg # of iterations =  3.3

     total cpu time spent up to now is    66911.3 secs

     total energy              =   -1978.37211186 Ry
     estimated scf accuracy    <       0.00000002 Ry

     iteration # 19     ecut=    80.00 Ry     beta= 0.20
     Davidson diagonalization with overlap
     ethr =  1.52E-11,  avg # of iterations =  2.3

     total cpu time spent up to now is    67033.8 secs

     total energy              =   -1978.37211187 Ry
     estimated scf accuracy    <          5.0E-09 Ry

     iteration # 20     ecut=    80.00 Ry     beta= 0.20
     Davidson diagonalization with overlap
     ethr =  4.82E-12,  avg # of iterations =  2.7

     total cpu time spent up to now is    67150.3 secs

     total energy              =   -1978.37211187 Ry
     estimated scf accuracy    <          3.3E-09 Ry

     iteration # 21     ecut=    80.00 Ry     beta= 0.20
     Davidson diagonalization with overlap
     ethr =  3.17E-12,  avg # of iterations =  1.4

     total cpu time spent up to now is    67253.3 secs

     total energy              =   -1978.37211187 Ry
     estimated scf accuracy    <          3.0E-09 Ry

     iteration # 22     ecut=    80.00 Ry     beta= 0.20
     Davidson diagonalization with overlap
     ethr =  2.88E-12,  avg # of iterations =  1.0

     total cpu time spent up to now is    67351.9 secs

     total energy              =   -1978.37211186 Ry
     estimated scf accuracy    <          2.9E-09 Ry

     iteration # 23     ecut=    80.00 Ry     beta= 0.20
     Davidson diagonalization with overlap
     ethr =  2.80E-12,  avg # of iterations =  1.3

     total cpu time spent up to now is    67453.9 secs

     total energy              =   -1978.37211186 Ry
     estimated scf accuracy    <          3.2E-09 Ry

     iteration # 24     ecut=    80.00 Ry     beta= 0.20
     Davidson diagonalization with overlap
     ethr =  2.80E-12,  avg # of iterations =  1.0

     total cpu time spent up to now is    67552.5 secs

     total energy              =   -1978.37211187 Ry
     estimated scf accuracy    <          2.9E-09 Ry

     iteration # 25     ecut=    80.00 Ry     beta= 0.20
     Davidson diagonalization with overlap
     ethr =  2.80E-12,  avg # of iterations =  1.0

     total cpu time spent up to now is    67651.4 secs

     total energy              =   -1978.37211186 Ry
     estimated scf accuracy    <          2.8E-09 Ry

     iteration # 26     ecut=    80.00 Ry     beta= 0.20
     Davidson diagonalization with overlap
     ethr =  2.72E-12,  avg # of iterations =  1.0

     total cpu time spent up to now is    67750.4 secs

     total energy              =   -1978.37211186 Ry
     estimated scf accuracy    <          2.8E-09 Ry

     iteration # 27     ecut=    80.00 Ry     beta= 0.20
     Davidson diagonalization with overlap
     ethr =  2.67E-12,  avg # of iterations =  2.0

     total cpu time spent up to now is    67859.4 secs

     total energy              =   -1978.37211187 Ry
     estimated scf accuracy    <          3.1E-09 Ry

     iteration # 28     ecut=    80.00 Ry     beta= 0.20
     Davidson diagonalization with overlap
     ethr =  2.67E-12,  avg # of iterations =  1.3

     total cpu time spent up to now is    67961.3 secs

     total energy              =   -1978.37211186 Ry
     estimated scf accuracy    <          2.7E-09 Ry

     iteration # 29     ecut=    80.00 Ry     beta= 0.20
     Davidson diagonalization with overlap
     ethr =  2.56E-12,  avg # of iterations =  2.0

     total cpu time spent up to now is    68074.8 secs

     End of self-consistent calculation

          k = 0.0000 0.0000 0.0000 ( 21311 PWs)   bands (ev):

   -53.4965 -53.4648 -53.4406 -53.4080 -27.6714 -27.6383 -27.6144 -27.5827
   -27.4347 -27.4347 -27.4000 -27.4000 -27.3762 -27.3762 -27.3463 -27.3463
    -6.8334  -6.7782  -6.7121  -6.6473  -5.5985  -5.5111  -5.4004  -5.3206
     1.3710   1.5442   1.8341   2.0529   4.7617   4.7617   4.7647   4.8271
     4.8271   4.8456   4.8456   4.8522   4.8522   5.1610   5.7402   5.8811
     5.8811   5.9387   5.9388   5.9582   5.9582   5.9729   5.9729   6.2728
     6.9614   7.3351   7.6761   7.8380  10.1305  10.1305  10.1676  10.1676
    10.1908  10.1908  10.2333  10.2333  10.3422  10.3422

          k = 0.0000 0.0722 0.0000 ( 21283 PWs)   bands (ev):

   -53.4949 -53.4632 -53.4390 -53.4064 -27.6684 -27.6353 -27.6113 -27.5797
   -27.4503 -27.4383 -27.4155 -27.4035 -27.3917 -27.3797 -27.3619 -27.3498
    -6.7738  -6.7187  -6.6529  -6.5882  -5.5711  -5.4848  -5.3761  -5.2973
     1.4402   1.6122   1.9016   2.1211   4.6236   4.6352   4.6912   4.7101
     4.7181   4.8241   4.8892   4.9074   4.9151   4.9749   5.3822   5.5894
     5.7842   5.8417   5.8609   5.8772   5.9939   6.0495   6.1876   6.5033
     6.9661   7.3205   7.6215   7.7608  10.0546  10.0877  10.1107  10.1471
    10.1895  10.2191  10.2239  10.2520  10.2575  10.2776

          k = 0.0000 0.1443 0.0000 ( 21263 PWs)   bands (ev):

   -53.4905 -53.4588 -53.4346 -53.4020 -27.6597 -27.6266 -27.6027 -27.5710
   -27.4945 -27.4595 -27.4483 -27.4357 -27.4136 -27.4060 -27.3897 -27.3599
    -6.5999  -6.5452  -6.4803  -6.4160  -5.4911  -5.4082  -5.3055  -5.2297
     1.6332   1.8004   2.0865   2.3070   4.2759   4.3232   4.3391   4.3626
     4.3739   4.6000   4.9013   5.0039   5.0682   5.0691   5.0856   5.0964
     5.5333   5.5908   5.6097   5.6289   6.0509   6.1469   6.3503   6.6486
     6.9422   7.2203   7.4209   7.5123   9.7572   9.8279   9.8872   9.9268
     9.9901  10.0483  10.0660  10.0755  10.1180  10.1227

          k = 0.0000 0.2165 0.0000 ( 21233 PWs)   bands (ev):

   -53.4838 -53.4521 -53.4280 -53.3953 -27.6467 -27.6137 -27.5897 -27.5600
   -27.5580 -27.5248 -27.5010 -27.4716 -27.4633 -27.4285 -27.4047 -27.3749
    -6.3266  -6.2727  -6.2100  -6.1465  -5.3656  -5.2881  -5.1954  -5.1243
     1.8954   2.0498   2.3209   2.5342   3.8449   3.8988   3.9128   3.9339
     3.9839   4.1794   4.3979   4.5191   5.2080   5.2624   5.2777   5.2849
     5.3066   5.3421   5.3615   5.3741   5.9600   6.0875   6.3085   6.5581
     6.8043   6.9602   7.0561   7.1128   9.3660   9.4988   9.6625   9.8427
     9.8542   9.9046   9.9530   9.9609  10.0118  10.1013

          k = 0.0000 0.2887 0.0000 ( 21197 PWs)   bands (ev):

   -53.4760 -53.4443 -53.4201 -53.3875 -27.6364 -27.6313 -27.6009 -27.5984
   -27.5772 -27.5744 -27.5480 -27.5426 -27.4810 -27.4461 -27.4223 -27.3926
    -5.9797  -5.9271  -5.8687  -5.8069  -5.2075  -5.1369  -5.0577  -4.9929
     2.0972   2.2198   2.4337   2.5983   3.4630   3.5077   3.5555   3.5852
     3.6736   3.7886   3.9064   3.9751   4.8798   4.9370   4.9555   4.9804
     5.6059   5.6657   5.6841   5.7071   5.7438   5.8893   6.1075   6.3046
     6.5367   6.6113   6.6560   6.7028   9.2259   9.3925   9.6139   9.6651
     9.7148   9.7617   9.8190   9.8418  10.1731  10.3355

          k = 0.0000 0.3608 0.0000 ( 21187 PWs)   bands (ev):

   -53.4681 -53.4364 -53.4123 -53.3796 -27.7120 -27.6762 -27.6525 -27.6235
   -27.6158 -27.5830 -27.5591 -27.5272 -27.4986 -27.4636 -27.4398 -27.4101
    -5.5979  -5.5470  -5.4961  -5.4376  -5.0359  -4.9734  -4.9101  -4.8529
     2.0570   2.1335   2.2519   2.3448   3.1031   3.1703   3.2686   3.3868
     3.4344   3.5370   3.6023   3.6684   4.5917   4.6489   4.6677   4.6938
     5.5112   5.6571   5.8605   5.9296   5.9854   6.0088   6.0225   6.0413
     6.3184   6.3829   6.4263   6.4710   9.3446   9.5015   9.5602   9.6060
     9.6448   9.6977   9.7182   9.9269  10.4982  10.6596

          k = 0.0000 0.4330 0.0000 ( 21140 PWs)   bands (ev):

   -53.4614 -53.4298 -53.4056 -53.3729 -27.7753 -27.7393 -27.7157 -27.6869
   -27.6027 -27.5700 -27.5460 -27.5140 -27.5134 -27.4785 -27.4547 -27.4250
    -5.2362  -5.1870  -5.1475  -5.0944  -4.8770  -4.8225  -4.7762  -4.7275
     1.8182   1.8713   1.9323   1.9927   2.7628   2.8258   2.9089   2.9881
     3.3357   3.4097   3.5077   3.5897   4.3711   4.4283   4.4474   4.4743
     5.3404   5.4762   5.6630   5.8023   6.1890   6.2417   6.2745   6.3160
     6.3354   6.4077   6.4724   6.5260   9.5521   9.5933   9.6125   9.6217
     9.6668   9.7334   9.9026  10.0578  10.8037  10.9475

          k = 0.0000 0.5052 0.0000 ( 21078 PWs)   bands (ev):

   -53.4569 -53.4253 -53.4011 -53.3684 -27.8173 -27.7812 -27.7576 -27.7289
   -27.5939 -27.5613 -27.5373 -27.5233 -27.5052 -27.4883 -27.4645 -27.4349
    -4.9673  -4.9185  -4.8922  -4.8465  -4.7620  -4.7145  -4.6814  -4.6414
     1.5873   1.6331   1.6724   1.7224   2.5249   2.5762   2.6364   2.7051
     3.2361   3.3056   3.3987   3.4766   4.2335   4.2906   4.3099   4.3374
     5.2486   5.3753   5.5469   5.6678   6.3466   6.3988   6.4406   6.4887
     6.5245   6.5927   6.6582   6.7154   9.5981   9.6371   9.6605   9.6959
     9.9119   9.9887  10.0903  10.1847  10.9962  11.1151

          k = 0.0000-0.5774 0.0000 ( 21006 PWs)   bands (ev):

   -53.4554 -53.4237 -53.3996 -53.3669 -27.8320 -27.7958 -27.7722 -27.7436
   -27.5908 -27.5582 -27.5342 -27.5268 -27.5022 -27.4918 -27.4680 -27.4383
    -4.8657  -4.8167  -4.7964  -4.7559  -4.7197  -4.6755  -4.6469  -4.6115
     1.4952   1.5391   1.5739   1.6221   2.4399   2.4859   2.5377   2.6053
     3.1885   3.2575   3.3483   3.4240   4.1868   4.2439   4.2633   4.2909
     5.2214   5.3443   5.5090   5.6224   6.3978   6.4503   6.4958   6.5461
     6.6425   6.6986   6.7500   6.8021   9.6254   9.6645   9.6874   9.7184
    10.0715  10.1254  10.1700  10.2243  11.0581  11.1596

          k = 0.0625 0.1083 0.0000 ( 21269 PWs)   bands (ev):

   -53.4919 -53.4602 -53.4361 -53.4034 -27.6625 -27.6295 -27.6055 -27.5738
   -27.4797 -27.4455 -27.4448 -27.4210 -27.4108 -27.3913 -27.3869 -27.3571
    -6.6570  -6.6022  -6.5369  -6.4725  -5.5173  -5.4333  -5.3287  -5.2519
     1.5719   1.7408   2.0285   2.2490   4.3855   4.4232   4.4498   4.4713
     4.4797   4.7166   4.9433   5.0077   5.0256   5.0341   5.0506   5.2355
     5.5695   5.6268   5.6462   5.6615   6.0892   6.1702   6.3539   6.6536
     6.9580   7.2655   7.4943   7.5977   9.8857   9.9256   9.9334   9.9645
    10.0178  10.0179  10.0619  10.1153  10.1469  10.1895

          k = 0.0625 0.1804 0.0000 ( 21194 PWs)   bands (ev):

   -53.4864 -53.4547 -53.4305 -53.3979 -27.6516 -27.6187 -27.5947 -27.5630
   -27.5333 -27.4982 -27.4745 -27.4593 -27.4449 -27.4245 -27.4006 -27.3708
    -6.4332  -6.3790  -6.3154  -6.2514  -5.4144  -5.3347  -5.2381  -5.1652
     1.8036   1.9644   2.2443   2.4633   4.0045   4.0622   4.0751   4.0934
     4.1334   4.3640   4.6264   4.7721   5.1603   5.2010   5.2266   5.2374
     5.2512   5.2635   5.2849   5.2955   6.1374   6.2394   6.4317   6.6863
     6.8806   7.0865   7.2082   7.2709   9.4806   9.5883   9.7052   9.8191
     9.8601   9.9156   9.9571   9.9903  10.0186  10.0580

          k = 0.0625 0.2526 0.0000 ( 21202 PWs)   bands (ev):

   -53.4791 -53.4474 -53.4233 -53.3906 -27.6374 -27.6045 -27.6027 -27.5806
   -27.5673 -27.5488 -27.5436 -27.5142 -27.4772 -27.4424 -27.4186 -27.3888
    -6.1226  -6.0694  -6.0089  -5.9463  -5.2720  -5.1985  -5.1136  -5.0461
     2.0496   2.1895   2.4373   2.6321   3.6221   3.6686   3.6972   3.7142
     3.8037   3.9790   4.1528   4.2450   4.8277   4.8822   4.9054   4.9338
     5.4307   5.4911   5.5092   5.5277   6.0337   6.1466   6.3301   6.5250
     6.6755   6.7713   6.8176   6.8640   9.2078   9.3597   9.5393   9.6655
     9.7745   9.8219   9.8564   9.8910   9.9798  10.1366

          k = 0.0625 0.3248 0.0000 ( 21194 PWs)   bands (ev):

   -53.4713 -53.4396 -53.4154 -53.3827 -27.6769 -27.6412 -27.6220 -27.6175
   -27.5892 -27.5884 -27.5652 -27.5333 -27.4966 -27.4617 -27.4379 -27.4082
    -5.7566  -5.7050  -5.6504  -5.5903  -5.1057  -5.0398  -4.9695  -4.9090
     2.1385   2.2356   2.3976   2.5199   3.3012   3.3513   3.4219   3.4959
     3.5753   3.6742   3.6989   3.7440   4.5249   4.5797   4.6162   4.6559
     5.6703   5.7198   5.7434   5.7704   5.8226   5.9315   6.0997   6.2500
     6.4495   6.5008   6.5319   6.5716   9.1704   9.3240   9.4887   9.5788
     9.7086   9.7568   9.7996   9.9263  10.2312  10.3913

          k = 0.0625 0.3969 0.0000 ( 21151 PWs)   bands (ev):

   -53.4640 -53.4323 -53.4082 -53.3755 -27.7447 -27.7088 -27.6851 -27.6562
   -27.6077 -27.5750 -27.5510 -27.5191 -27.5145 -27.4795 -27.4557 -27.4261
    -5.3817  -5.3318  -5.2868  -5.2310  -4.9382  -4.8802  -4.8266  -4.7741
     1.9783   2.0400   2.1241   2.1967   2.9278   2.9918   3.0765   3.1589
     3.4044   3.4789   3.5743   3.6595   4.3269   4.3823   4.4202   4.4595
     5.5642   5.6734   5.8081   5.8199   5.8785   5.8932   5.9218   5.9965
     6.4573   6.5035   6.5325   6.5664   9.3094   9.4279   9.5384   9.6068
     9.7496   9.7989   9.8677  10.0062  10.5679  10.7117

          k = 0.0625 0.4691 0.0000 ( 21105 PWs)   bands (ev):

   -53.4584 -53.4268 -53.4026 -53.3699 -27.7961 -27.7600 -27.7364 -27.7077
   -27.5968 -27.5641 -27.5401 -27.5281 -27.5081 -27.4931 -27.4693 -27.4397
    -5.0613  -5.0125  -4.9805  -4.9313  -4.7982  -4.7478  -4.7097  -4.6660
     1.7364   1.7850   1.8328   1.8868   2.6099   2.6627   2.7224   2.7868
     3.3087   3.3774   3.4734   3.5557   4.2189   4.2720   4.3005   4.3334
     5.3746   5.4854   5.6339   5.7431   5.9471   5.9939   6.0293   6.0803
     6.6308   6.6773   6.7113   6.7506   9.5095   9.5761   9.6302   9.6805
     9.8865   9.9405  10.0237  10.1284  10.8809  10.9996

          k = 0.0625 0.5413 0.0000 ( 21084 PWs)   bands (ev):

   -53.4554 -53.4237 -53.3996 -53.3669 -27.8238 -27.7876 -27.7639 -27.7353
   -27.5908 -27.5582 -27.5355 -27.5342 -27.5022 -27.5005 -27.4767 -27.4471
    -4.8711  -4.8222  -4.8009  -4.7593  -4.7171  -4.6724  -4.6431  -4.6071
     1.5753   1.6195   1.6551   1.7040   2.4309   2.4760   2.5227   2.5847
     3.2206   3.2893   3.3816   3.4591   4.1737   4.2270   4.2472   4.2699
     5.2709   5.3836   5.5311   5.6339   6.0406   6.0888   6.1271   6.1778
     6.7860   6.8339   6.8732   6.9173   9.6255   9.6589   9.6848   9.7169
    10.0647  10.1199  10.1755  10.2380  11.1066  11.1939

          k = 0.1250 0.2165 0.0000 ( 21179 PWs)   bands (ev):

   -53.4802 -53.4485 -53.4244 -53.3917 -27.6396 -27.6067 -27.5886 -27.5827
   -27.5533 -27.5509 -27.5296 -27.5002 -27.4781 -27.4432 -27.4194 -27.3897
    -6.1716  -6.1182  -6.0572  -5.9943  -5.2941  -5.2195  -5.1326  -5.0643
     2.0302   2.1760   2.4352   2.6401   3.6885   3.7362   3.7603   3.7753
     3.9003   4.1123   4.3260   4.4329   4.6891   4.7445   4.7663   4.7915
     5.3511   5.4112   5.4295   5.4455   6.2196   6.3161   6.4739   6.6542
     6.7423   6.8513   6.8879   6.9337   9.1976   9.3399   9.5005   9.6237
     9.7746   9.7921   9.8315   9.8569   9.9153  10.0737

          k = 0.1250 0.2887 0.0000 ( 21199 PWs)   bands (ev):

   -53.4730 -53.4413 -53.4171 -53.3845 -27.6521 -27.6254 -27.6165 -27.5928
   -27.5925 -27.5686 -27.5637 -27.5367 -27.5014 -27.4665 -27.4427 -27.4130
    -5.8402  -5.7882  -5.7319  -5.6710  -5.1420  -5.0741  -5.0002  -4.9379
     2.1880   2.3011   2.4967   2.6444   3.4535   3.4939   3.5224   3.5949
     3.6791   3.8076   3.8838   3.9300   4.2620   4.3233   4.4026   4.4767
     5.4596   5.5126   5.5334   5.5594   6.1473   6.2357   6.3647   6.4869
     6.5571   6.5883   6.6132   6.6451   9.0356   9.1946   9.3767   9.4977
     9.7679   9.7896   9.8290   9.8919   9.9926  10.1687

          k = 0.1250 0.3608 0.0000 ( 21195 PWs)   bands (ev):

   -53.4657 -53.4340 -53.4099 -53.3772 -27.7145 -27.6787 -27.6550 -27.6260
   -27.6111 -27.5784 -27.5544 -27.5252 -27.5224 -27.4902 -27.4664 -27.4367
    -5.4771  -5.4267  -5.3784  -5.3210  -4.9765  -4.9161  -4.8575  -4.8026
     2.1368   2.2107   2.3232   2.4117   3.1271   3.1815   3.2446   3.3131
     3.4936   3.5586   3.6382   3.7291   4.0649   4.1625   4.2701   4.3432
     5.4073   5.4540   5.4788   5.5137   5.9306   6.0067   6.1101   6.2026
     6.5109   6.5523   6.5743   6.6043   9.0733   9.2333   9.4314   9.5665
     9.8394   9.8704   9.9068   9.9936  10.2255  10.3783

          k = 0.1250 0.4330 0.0000 ( 21113 PWs)   bands (ev):

   -53.4595 -53.4279 -53.4037 -53.3710 -27.7667 -27.7307 -27.7071 -27.6783
   -27.5990 -27.5663 -27.5454 -27.5423 -27.5103 -27.5103 -27.4865 -27.4570
    -5.1356  -5.0867  -5.0501  -4.9983  -4.8228  -4.7699  -4.7271  -4.6806
     1.9514   2.0059   2.0705   2.1327   2.7093   2.7559   2.7981   2.8468
     3.4359   3.4981   3.5913   3.6823   4.0378   4.1279   4.2216   4.2878
     5.3580   5.4061   5.4471   5.4991   5.6586   5.7292   5.8227   5.9054
     6.6487   6.6930   6.7159   6.7458   9.2852   9.4256   9.6080   9.7357
     9.9476   9.9849  10.0177  10.0688  10.5390  10.6565

          k = 0.1250 0.5052 0.0000 ( 21081 PWs)   bands (ev):

   -53.4554 -53.4237 -53.3996 -53.3669 -27.8013 -27.7652 -27.7416 -27.7129
   -27.5908 -27.5589 -27.5582 -27.5342 -27.5238 -27.5022 -27.5000 -27.4705
    -4.8839  -4.8351  -4.8114  -4.7675  -4.7110  -4.6650  -4.6341  -4.5964
     1.7860   1.8320   1.8729   1.9249   2.4126   2.4549   2.4887   2.5359
     3.3184   3.3865   3.4802   3.5603   4.0905   4.1557   4.2176   4.2693
     5.3578   5.4220   5.4613   5.4878   5.5193   5.5552   5.6061   5.6914
     6.8365   6.8828   6.9138   6.9517   9.5130   9.5910   9.6710   9.7342
    10.0979  10.1463  10.1987  10.2696  10.8257  10.8958

          k = 0.1250 0.5774 0.0000 ( 21108 PWs)   bands (ev):

   -53.4539 -53.4223 -53.3981 -53.3654 -27.8135 -27.7773 -27.7537 -27.7250
   -27.5880 -27.5637 -27.5554 -27.5314 -27.5285 -27.5047 -27.4993 -27.4752
    -4.7894  -4.7405  -4.7221  -4.6845  -4.6690  -4.6273  -4.6000  -4.5671
     1.7222   1.7651   1.7985   1.8482   2.3070   2.3481   2.3797   2.4275
     3.2581   3.3271   3.4207   3.4985   4.1372   4.1844   4.2193   4.2594
     5.2982   5.3924   5.4360   5.4845   5.5031   5.5456   5.5614   5.6330
     6.9295   6.9779   7.0154   7.0583   9.5927   9.6248   9.6513   9.6863
    10.2087  10.2691  10.3158  10.3666  10.9495  11.0082

          k = 0.1875 0.3248 0.0000 ( 21195 PWs)   bands (ev):

   -53.4663 -53.4346 -53.4105 -53.3778 -27.7009 -27.6651 -27.6414 -27.6124
   -27.6123 -27.5795 -27.5555 -27.5320 -27.5236 -27.4969 -27.4731 -27.4435
    -5.5102  -5.4597  -5.4103  -5.3524  -4.9895  -4.9283  -4.8679  -4.8121
     2.2041   2.2848   2.4120   2.5089   3.2566   3.2993   3.3389   3.3859
     3.5377   3.5942   3.6582   3.7298   3.9165   4.0431   4.1854   4.2694
     5.2333   5.2798   5.3041   5.3395   6.0963   6.1573   6.2365   6.3123
     6.5175   6.5601   6.5825   6.6174   8.9835   9.1567   9.3781   9.5429
     9.8633   9.8812   9.9205   9.9681  10.0836  10.2478

          k = 0.1875 0.3969 0.0000 ( 21153 PWs)   bands (ev):

   -53.4601 -53.4285 -53.4043 -53.3716 -27.7429 -27.7070 -27.6833 -27.6544
   -27.6002 -27.5675 -27.5628 -27.5435 -27.5277 -27.5115 -27.5039 -27.4744
    -5.1764  -5.1273  -5.0883  -5.0352  -4.8349  -4.7807  -4.7351  -4.6870
     2.1143   2.1759   2.2589   2.3300   2.7943   2.8311   2.8582   2.8860
     3.5768   3.6235   3.6831   3.7724   3.9171   4.0390   4.1671   4.2430
     4.9182   4.9648   4.9960   5.0398   5.8756   5.9170   5.9644   6.0260
     6.6194   6.6666   6.6914   6.7281   9.1407   9.3136   9.5594   9.7786
     9.9749  10.0078  10.0325  10.0628  10.2631  10.3982

          k = 0.1875 0.4691 0.0000 ( 21101 PWs)   bands (ev):

   -53.4554 -53.4237 -53.3996 -53.3669 -27.7734 -27.7374 -27.7138 -27.6850
   -27.5909 -27.5878 -27.5583 -27.5526 -27.5342 -27.5288 -27.5022 -27.4994
    -4.8963  -4.8477  -4.8216  -4.7756  -4.7050  -4.6576  -4.6250  -4.5858
     2.0262   2.0775   2.1336   2.1927   2.3961   2.4365   2.4617   2.4894
     3.4918   3.5596   3.6427   3.7109   3.9839   4.0906   4.2047   4.2803
     4.7392   4.7938   4.8574   4.9242   5.5743   5.6308   5.6759   5.7377
     6.8198   6.8663   6.8888   6.9205   9.3673   9.4830   9.6282   9.7360
    10.1403  10.1823  10.2260  10.3058  10.4854  10.5696

          k = 0.1875 0.5413 0.0000 ( 21112 PWs)   bands (ev):

   -53.4528 -53.4212 -53.3970 -53.3643 -27.7895 -27.7534 -27.7297 -27.7010
   -27.6018 -27.5858 -27.5665 -27.5533 -27.5428 -27.5292 -27.5133 -27.4972
    -4.7327  -4.6840  -4.6668  -4.6347  -4.6242  -4.5879  -4.5613  -4.5303
     1.9880   2.0314   2.0653   2.1221   2.1794   2.2231   2.2479   2.2776
     3.3470   3.4182   3.5114   3.5839   4.1220   4.1879   4.2556   4.3171
     4.6980   4.7638   4.8446   4.9135   5.3620   5.4227   5.4755   5.5362
     7.0051   7.0514   7.0805   7.1187   9.4442   9.4894   9.5272   9.5713
    10.3282  10.3881  10.4578  10.5470  10.6135  10.6651

          k = 0.2500 0.4330 0.0000 ( 21125 PWs)   bands (ev):

   -53.4554 -53.4237 -53.3996 -53.3669 -27.7589 -27.7229 -27.6993 -27.6705
   -27.6028 -27.5909 -27.5675 -27.5583 -27.5437 -27.5343 -27.5143 -27.5022
    -4.9014  -4.8528  -4.8257  -4.7790  -4.7025  -4.6546  -4.6213  -4.5815
     2.1362   2.1917   2.2590   2.3210   2.3913   2.4305   2.4545   2.4702
     3.6763   3.7166   3.7372   3.7970   3.9863   4.0942   4.2168   4.2942
     4.4152   4.4595   4.4858   4.5183   5.6532   5.6835   5.7018   5.7714
     6.8030   6.8506   6.8725   6.9036   9.3064   9.4338   9.6008   9.7293
    10.1514  10.1903  10.2218  10.3131  10.3576  10.4768

          k = 0.2500 0.5052 0.0000 ( 21117 PWs)   bands (ev):

   -53.4522 -53.4206 -53.3964 -53.3637 -27.7637 -27.7276 -27.7040 -27.6752
   -27.6354 -27.6000 -27.5847 -27.5763 -27.5521 -27.5469 -27.5281 -27.4960
    -4.7045  -4.6561  -4.6391  -4.6101  -4.5973  -4.5645  -4.5381  -4.5080
     2.0878   2.1304   2.1506   2.1741   2.2465   2.2991   2.3489   2.4005
     3.5191   3.5908   3.6612   3.7052   4.0700   4.1078   4.1529   4.2032
     4.2381   4.2995   4.3615   4.4091   5.3728   5.4129   5.4434   5.5102
     7.0442   7.0893   7.1112   7.1414   9.3119   9.3651   9.4184   9.4728
    10.2977  10.3369  10.3801  10.4039  10.5591  10.6129

          k = 0.2500 0.5774 0.0000 ( 21116 PWs)   bands (ev):

   -53.4511 -53.4195 -53.3953 -53.3626 -27.7635 -27.7275 -27.7038 -27.6751
   -27.6486 -27.6133 -27.5895 -27.5825 -27.5602 -27.5499 -27.5259 -27.4938
    -4.6318  -4.5860  -4.5730  -4.5650  -4.5401  -4.5306  -4.5079  -4.4820
     1.9867   2.0290   2.0500   2.0723   2.3331   2.3722   2.4044   2.4484
     3.3619   3.4324   3.5126   3.5719   4.0374   4.0903   4.1640   4.2362
     4.2896   4.3482   4.4023   4.4468   5.2527   5.2871   5.3078   5.3731
     7.1717   7.2160   7.2402   7.2748   9.2371   9.2790   9.3024   9.3276
    10.3214  10.3657  10.4045  10.4343  10.7121  10.7544

          k = 0.3125 0.5413 0.0000 ( 21100 PWs)   bands (ev):

   -53.4505 -53.4189 -53.3947 -53.3620 -27.7425 -27.7064 -27.6828 -27.6771
   -27.6540 -27.6417 -27.6180 -27.5887 -27.5813 -27.5488 -27.5248 -27.4927
    -4.5963  -4.5565  -4.5451  -4.5303  -4.5154  -4.5046  -4.4889  -4.4639
     1.9171   1.9614   1.9829   2.0021   2.5599   2.6058   2.6434   2.6930
     3.3658   3.3801   3.4072   3.4384   3.8429   3.8628   3.8853   3.9042
     4.3442   4.4058   4.4525   4.5037   5.1661   5.2081   5.2337   5.3025
     7.2539   7.2964   7.3181   7.3489   9.1197   9.1648   9.1878   9.2119
    10.2567  10.2850  10.3106  10.3546  10.8095  10.8711

     the Fermi energy is     8.3524 ev

!    total energy              =   -1978.37211186 Ry
     total all-electron energy =    -38771.692957 Ry
     estimated scf accuracy    <          9.8E-10 Ry
     smearing contrib. (-TS)   =       0.00003581 Ry
     internal energy E=F+TS    =   -1978.37214767 Ry

     The total energy is F=E-TS. E is the sum of the following terms:
     one-electron contribution =   -1536.97366084 Ry
     hartree contribution      =     810.75273238 Ry
     xc contribution           =    -119.24264365 Ry
     ewald contribution        =     136.94302699 Ry
     one-center paw contrib.   =   -1269.85160255 Ry

     convergence has been achieved in  29 iterations

     Forces acting on atoms (cartesian axes, Ry/au):

     atom    1 type  2   force =     0.00000000    0.00000000   -0.00102330
     atom    2 type  1   force =     0.00000000    0.00000000    0.00006276
     atom    3 type  2   force =     0.00000000    0.00000000    0.00252336
     atom    4 type  2   force =     0.00000000    0.00000000   -0.00024504
     atom    5 type  1   force =     0.00000000    0.00000000    0.00250078
     atom    6 type  2   force =     0.00000000   -0.00000000   -0.00123811
     atom    7 type  2   force =     0.00000000    0.00000000    0.00014378
     atom    8 type  1   force =     0.00000000    0.00000000    0.00069381
     atom    9 type  2   force =     0.00000000    0.00000000   -0.00169813
     atom   10 type  2   force =     0.00000000    0.00000000   -0.00270261
     atom   11 type  1   force =     0.00000000   -0.00000000   -0.00021479
     atom   12 type  2   force =     0.00000000   -0.00000000    0.00119751

     Total force =     0.005238     Total SCF correction =     0.000151
     Energy error            =      2.0E-04 Ry
     Gradient error          =      2.7E-03 Ry/Bohr

     number of scf cycles    =  27
     number of bfgs steps    =  23

     energy             old  =   -1978.3719086972 Ry
     energy             new  =   -1978.3721118606 Ry

     CASE: energy            _new < energy            _old

     new trust radius        =       0.0758094615 bohr
     new conv_thr            =       0.0000000020 Ry


ATOMIC_POSITIONS (crystal)
S                0.3333329431        0.6666668862       -0.1088846815
Mo               0.0000000000        0.0000000000       -0.0565284042
S                0.3333329431        0.6666668862       -0.0041675839
S                0.6666668862        0.3333329431        0.1007030386
Mo               0.3333329431        0.6666668862        0.1531732482
S                0.6666668862        0.3333329431        0.2057367290
S                0.0000000000        0.0000000000        0.3134098217
Mo               0.6666668862        0.3333329431        0.3659391640
S                0.0000000000        0.0000000000        0.4184808321
S                0.3333329431        0.6666668862        0.5233526464
Mo               0.0000000000        0.0000000000        0.5757261721
S                0.3333329431        0.6666668862        0.6280584861



     Writing config-only to output data dir ./tmp/relax2/mos2_slab2.save/ :
     XML data file
     NEW-OLD atomic charge density approx. for the potential

     total cpu time spent up to now is    68129.8 secs

     Self-consistent Calculation

     iteration #  1     ecut=    80.00 Ry     beta= 0.20
     Davidson diagonalization with overlap
     ethr =  1.00E-06,  avg # of iterations =  8.1

     total cpu time spent up to now is    68468.0 secs

     total energy              =   -1978.37270361 Ry
     estimated scf accuracy    <       0.00186181 Ry

     iteration #  2     ecut=    80.00 Ry     beta= 0.20
     Davidson diagonalization with overlap
     ethr =  1.79E-06,  avg # of iterations =  1.0

     total cpu time spent up to now is    68567.3 secs

     total energy              =   -1978.37225097 Ry
     estimated scf accuracy    <       0.00137821 Ry

     iteration #  3     ecut=    80.00 Ry     beta= 0.20
     Davidson diagonalization with overlap
     ethr =  1.33E-06,  avg # of iterations =  2.8

     total cpu time spent up to now is    68685.2 secs

     total energy              =   -1978.37238485 Ry
     estimated scf accuracy    <       0.00004786 Ry

     iteration #  4     ecut=    80.00 Ry     beta= 0.20
     Davidson diagonalization with overlap
     ethr =  4.60E-08,  avg # of iterations =  4.0

     total cpu time spent up to now is    68822.6 secs

     total energy              =   -1978.37239356 Ry
     estimated scf accuracy    <       0.00001697 Ry

     iteration #  5     ecut=    80.00 Ry     beta= 0.20
     Davidson diagonalization with overlap
     ethr =  1.63E-08,  avg # of iterations =  1.9

     total cpu time spent up to now is    68931.4 secs

     total energy              =   -1978.37239270 Ry
     estimated scf accuracy    <       0.00001111 Ry

     iteration #  6     ecut=    80.00 Ry     beta= 0.20
     Davidson diagonalization with overlap
     ethr =  1.07E-08,  avg # of iterations =  2.1

     total cpu time spent up to now is    69046.4 secs

     total energy              =   -1978.37239361 Ry
     estimated scf accuracy    <       0.00000216 Ry

     iteration #  7     ecut=    80.00 Ry     beta= 0.20
     Davidson diagonalization with overlap
     ethr =  2.07E-09,  avg # of iterations =  2.5

     total cpu time spent up to now is    69156.0 secs

     total energy              =   -1978.37239380 Ry
     estimated scf accuracy    <       0.00000077 Ry

     iteration #  8     ecut=    80.00 Ry     beta= 0.20
     Davidson diagonalization with overlap
     ethr =  7.42E-10,  avg # of iterations =  3.0

     total cpu time spent up to now is    69270.9 secs

     total energy              =   -1978.37239395 Ry
     estimated scf accuracy    <       0.00000028 Ry

     iteration #  9     ecut=    80.00 Ry     beta= 0.20
     Davidson diagonalization with overlap
     ethr =  2.72E-10,  avg # of iterations =  2.8

     total cpu time spent up to now is    69388.9 secs

     total energy              =   -1978.37239390 Ry
     estimated scf accuracy    <       0.00000053 Ry

     iteration # 10     ecut=    80.00 Ry     beta= 0.20
     Davidson diagonalization with overlap
     ethr =  2.72E-10,  avg # of iterations =  2.1

     total cpu time spent up to now is    69502.8 secs

     total energy              =   -1978.37239399 Ry
     estimated scf accuracy    <       0.00000019 Ry

     iteration # 11     ecut=    80.00 Ry     beta= 0.20
     Davidson diagonalization with overlap
     ethr =  1.78E-10,  avg # of iterations =  2.8

     total cpu time spent up to now is    69615.4 secs

     total energy              =   -1978.37239396 Ry
     estimated scf accuracy    <       0.00000018 Ry

     iteration # 12     ecut=    80.00 Ry     beta= 0.20
     Davidson diagonalization with overlap
     ethr =  1.73E-10,  avg # of iterations =  2.5

     total cpu time spent up to now is    69738.4 secs

     total energy              =   -1978.37239400 Ry
     estimated scf accuracy    <       0.00000025 Ry

     iteration # 13     ecut=    80.00 Ry     beta= 0.20
     Davidson diagonalization with overlap
     ethr =  1.73E-10,  avg # of iterations =  2.5

     total cpu time spent up to now is    69855.1 secs

     total energy              =   -1978.37239404 Ry
     estimated scf accuracy    <       0.00000014 Ry

     iteration # 14     ecut=    80.00 Ry     beta= 0.20
     Davidson diagonalization with overlap
     ethr =  1.32E-10,  avg # of iterations =  2.3

     total cpu time spent up to now is    69964.9 secs

     total energy              =   -1978.37239404 Ry
     estimated scf accuracy    <       0.00000011 Ry

     iteration # 15     ecut=    80.00 Ry     beta= 0.20
     Davidson diagonalization with overlap
     ethr =  1.04E-10,  avg # of iterations =  2.1

     total cpu time spent up to now is    70081.4 secs

     total energy              =   -1978.37239407 Ry
     estimated scf accuracy    <       0.00000008 Ry

     iteration # 16     ecut=    80.00 Ry     beta= 0.20
     Davidson diagonalization with overlap
     ethr =  8.04E-11,  avg # of iterations =  2.7

     total cpu time spent up to now is    70192.1 secs

     total energy              =   -1978.37239403 Ry
     estimated scf accuracy    <       0.00000013 Ry

     iteration # 17     ecut=    80.00 Ry     beta= 0.20
     Davidson diagonalization with overlap
     ethr =  8.04E-11,  avg # of iterations =  2.9

     total cpu time spent up to now is    70321.2 secs

     total energy              =   -1978.37239406 Ry
     estimated scf accuracy    <       0.00000002 Ry

     iteration # 18     ecut=    80.00 Ry     beta= 0.20
     Davidson diagonalization with overlap
     ethr =  2.05E-11,  avg # of iterations =  1.9

     total cpu time spent up to now is    70430.0 secs

     total energy              =   -1978.37239406 Ry
     estimated scf accuracy    <       0.00000001 Ry

     iteration # 19     ecut=    80.00 Ry     beta= 0.20
     Davidson diagonalization with overlap
     ethr =  1.42E-11,  avg # of iterations =  2.9

     total cpu time spent up to now is    70564.7 secs

     total energy              =   -1978.37239405 Ry
     estimated scf accuracy    <       0.00000002 Ry

     iteration # 20     ecut=    80.00 Ry     beta= 0.20
     Davidson diagonalization with overlap
     ethr =  1.42E-11,  avg # of iterations =  1.2

     total cpu time spent up to now is    70666.1 secs

     total energy              =   -1978.37239405 Ry
     estimated scf accuracy    <       0.00000001 Ry

     iteration # 21     ecut=    80.00 Ry     beta= 0.20
     Davidson diagonalization with overlap
     ethr =  1.07E-11,  avg # of iterations =  2.0

     total cpu time spent up to now is    70774.4 secs

     total energy              =   -1978.37239406 Ry
     estimated scf accuracy    <          8.8E-09 Ry

     iteration # 22     ecut=    80.00 Ry     beta= 0.20
     Davidson diagonalization with overlap
     ethr =  8.48E-12,  avg # of iterations =  1.0

     total cpu time spent up to now is    70873.6 secs

     total energy              =   -1978.37239407 Ry
     estimated scf accuracy    <          8.7E-09 Ry

     iteration # 23     ecut=    80.00 Ry     beta= 0.20
     Davidson diagonalization with overlap
     ethr =  8.40E-12,  avg # of iterations =  1.1

     total cpu time spent up to now is    70973.6 secs

     total energy              =   -1978.37239407 Ry
     estimated scf accuracy    <          9.5E-09 Ry

     iteration # 24     ecut=    80.00 Ry     beta= 0.20
     Davidson diagonalization with overlap
     ethr =  8.40E-12,  avg # of iterations =  1.0

     total cpu time spent up to now is    71073.2 secs

     total energy              =   -1978.37239407 Ry
     estimated scf accuracy    <          8.8E-09 Ry

     iteration # 25     ecut=    80.00 Ry     beta= 0.20
     Davidson diagonalization with overlap
     ethr =  8.40E-12,  avg # of iterations =  1.0

     total cpu time spent up to now is    71172.2 secs

     total energy              =   -1978.37239407 Ry
     estimated scf accuracy    <          8.7E-09 Ry

     iteration # 26     ecut=    80.00 Ry     beta= 0.20
     Davidson diagonalization with overlap
     ethr =  8.39E-12,  avg # of iterations =  1.0

     total cpu time spent up to now is    71271.2 secs

     total energy              =   -1978.37239407 Ry
     estimated scf accuracy    <          8.5E-09 Ry

     iteration # 27     ecut=    80.00 Ry     beta= 0.20
     Davidson diagonalization with overlap
     ethr =  8.14E-12,  avg # of iterations =  1.0

     total cpu time spent up to now is    71370.2 secs

     total energy              =   -1978.37239407 Ry
     estimated scf accuracy    <          8.4E-09 Ry

     iteration # 28     ecut=    80.00 Ry     beta= 0.20
     Davidson diagonalization with overlap
     ethr =  8.10E-12,  avg # of iterations =  1.0

     total cpu time spent up to now is    71469.4 secs

     total energy              =   -1978.37239407 Ry
     estimated scf accuracy    <          8.4E-09 Ry

     iteration # 29     ecut=    80.00 Ry     beta= 0.20
     Davidson diagonalization with overlap
     ethr =  8.07E-12,  avg # of iterations =  1.0

     total cpu time spent up to now is    71568.6 secs

     total energy              =   -1978.37239407 Ry
     estimated scf accuracy    <          8.5E-09 Ry

     iteration # 30     ecut=    80.00 Ry     beta= 0.20
     Davidson diagonalization with overlap
     ethr =  8.07E-12,  avg # of iterations =  2.1

     total cpu time spent up to now is    71680.9 secs

     total energy              =   -1978.37239407 Ry
     estimated scf accuracy    <       0.00000001 Ry

     iteration # 31     ecut=    80.00 Ry     beta= 0.20
     Davidson diagonalization with overlap
     ethr =  8.07E-12,  avg # of iterations =  2.1

     total cpu time spent up to now is    71791.4 secs

     total energy              =   -1978.37239407 Ry
     estimated scf accuracy    <          6.6E-09 Ry

     iteration # 32     ecut=    80.00 Ry     beta= 0.20
     Davidson diagonalization with overlap
     ethr =  6.39E-12,  avg # of iterations =  2.3

     total cpu time spent up to now is    71904.4 secs

     total energy              =   -1978.37239406 Ry
     estimated scf accuracy    <          7.9E-09 Ry

     iteration # 33     ecut=    80.00 Ry     beta= 0.20
     Davidson diagonalization with overlap
     ethr =  6.39E-12,  avg # of iterations =  1.2

     total cpu time spent up to now is    72005.8 secs

     total energy              =   -1978.37239407 Ry
     estimated scf accuracy    <          4.1E-09 Ry

     iteration # 34     ecut=    80.00 Ry     beta= 0.20
     Davidson diagonalization with overlap
     ethr =  3.96E-12,  avg # of iterations =  2.2

     total cpu time spent up to now is    72118.4 secs

     End of self-consistent calculation

          k = 0.0000 0.0000 0.0000 ( 21311 PWs)   bands (ev):

   -53.4990 -53.4653 -53.4379 -53.4051 -27.6740 -27.6390 -27.6118 -27.5799
   -27.4373 -27.4373 -27.4007 -27.4007 -27.3736 -27.3736 -27.3434 -27.3434
    -6.8406  -6.7796  -6.7125  -6.6442  -5.6070  -5.5114  -5.3990  -5.3153
     1.3566   1.5417   1.8332   2.0622   4.7499   4.7588   4.7588   4.8237
     4.8237   4.8467   4.8467   4.8549   4.8549   5.1610   5.7414   5.8781
     5.8781   5.9357   5.9357   5.9594   5.9594   5.9757   5.9757   6.2906
     6.9602   7.3487   7.6867   7.8531  10.1263  10.1264  10.1658  10.1658
    10.1919  10.1919  10.2355  10.2355  10.3392  10.3392

          k = 0.0000 0.0722 0.0000 ( 21283 PWs)   bands (ev):

   -53.4975 -53.4637 -53.4363 -53.4036 -27.6709 -27.6360 -27.6087 -27.5768
   -27.4529 -27.4408 -27.4163 -27.4043 -27.3891 -27.3771 -27.3590 -27.3470
    -6.7809  -6.7201  -6.6533  -6.5850  -5.5795  -5.4851  -5.3747  -5.2921
     1.4258   1.6096   1.9006   2.1303   4.6151   4.6273   4.6878   4.7112
     4.7208   4.8212   4.8859   4.9087   4.9178   4.9753   5.3835   5.5948
     5.7811   5.8387   5.8621   5.8799   5.9909   6.0502   6.1877   6.5137
     6.9651   7.3335   7.6311   7.7738  10.0513  10.0861  10.1128  10.1498
    10.1878  10.2139  10.2250  10.2540  10.2548  10.2786

          k = 0.0000 0.1443 0.0000 ( 21263 PWs)   bands (ev):

   -53.4930 -53.4593 -53.4319 -53.3991 -27.6623 -27.6274 -27.6001 -27.5681
   -27.4970 -27.4603 -27.4509 -27.4332 -27.4143 -27.4031 -27.3872 -27.3570
    -6.6070  -6.5466  -6.4807  -6.4128  -5.4991  -5.4084  -5.3042  -5.2248
     1.6188   1.7976   2.0851   2.3160   4.2719   4.3138   4.3356   4.3628
     4.3761   4.6011   4.9031   5.0010   5.0648   5.0756   5.0869   5.0990
     5.5302   5.5878   5.6109   5.6316   6.0473   6.1468   6.3499   6.6558
     6.9415   7.2304   7.4275   7.5203   9.7582   9.8294   9.8883   9.9266
     9.9929  10.0499  10.0705  10.0722  10.1218  10.1222

          k = 0.0000 0.2165 0.0000 ( 21233 PWs)   bands (ev):

   -53.4864 -53.4527 -53.4253 -53.3925 -27.6492 -27.6144 -27.5872 -27.5626
   -27.5551 -27.5255 -27.4985 -27.4687 -27.4659 -27.4293 -27.4021 -27.3720
    -6.3336  -6.2741  -6.2105  -6.1434  -5.3732  -5.2882  -5.1941  -5.1197
     1.8810   2.0467   2.3189   2.5423   3.8404   3.8956   3.9097   3.9343
     3.9808   4.1816   4.4002   4.5251   5.2047   5.2590   5.2766   5.2846
     5.3089   5.3392   5.3628   5.3766   5.9558   6.0874   6.3084   6.5646
     6.8036   6.9653   7.0591   7.1168   9.3668   9.5009   9.6654   9.8472
     9.8492   9.9041   9.9544   9.9620  10.0152  10.1084

          k = 0.0000 0.2887 0.0000 ( 21197 PWs)   bands (ev):

   -53.4785 -53.4448 -53.4174 -53.3846 -27.6390 -27.6338 -27.6017 -27.5991
   -27.5747 -27.5718 -27.5451 -27.5397 -27.4835 -27.4469 -27.4197 -27.3897
    -5.9865  -5.9286  -5.8692  -5.8040  -5.2143  -5.1371  -5.0564  -4.9887
     2.0840   2.2167   2.4314   2.6036   3.4545   3.5035   3.5547   3.5818
     3.6755   3.7927   3.9099   3.9800   4.8765   4.9342   4.9567   4.9829
     5.6026   5.6628   5.6853   5.7096   5.7387   5.8895   6.1080   6.3112
     6.5350   6.6128   6.6577   6.7059   9.2253   9.3945   9.6168   9.6603
     9.7144   9.7631   9.8224   9.8497  10.1737  10.3412

          k = 0.0000 0.3608 0.0000 ( 21187 PWs)   bands (ev):

   -53.4706 -53.4370 -53.4095 -53.3767 -27.7145 -27.6770 -27.6500 -27.6206
   -27.6184 -27.5837 -27.5565 -27.5243 -27.5011 -27.4644 -27.4373 -27.4072
    -5.6043  -5.5486  -5.4966  -5.4349  -5.0418  -4.9736  -4.9090  -4.8493
     2.0471   2.1314   2.2500   2.3474   3.0935   3.1665   3.2645   3.3877
     3.4334   3.5409   3.6046   3.6734   4.5883   4.6461   4.6689   4.6963
     5.5052   5.6572   5.8610   5.9258   5.9831   6.0096   6.0289   6.0438
     6.3159   6.3842   6.4279   6.4741   9.3428   9.5031   9.5558   9.6054
     9.6463   9.7009   9.7205   9.9350  10.4986  10.6638

          k = 0.0000 0.4330 0.0000 ( 21140 PWs)   bands (ev):

   -53.4640 -53.4303 -53.4029 -53.3700 -27.7779 -27.7402 -27.7132 -27.6840
   -27.6053 -27.5707 -27.5434 -27.5160 -27.5111 -27.4792 -27.4521 -27.4221
    -5.2420  -5.1888  -5.1480  -5.0920  -4.8820  -4.8231  -4.7751  -4.7244
     1.8110   1.8693   1.9307   1.9946   2.7548   2.8233   2.9063   2.9906
     3.3310   3.4102   3.5082   3.5941   4.3677   4.4255   4.4485   4.4768
     5.3336   5.4761   5.6635   5.8085   6.1844   6.2400   6.2749   6.3187
     6.3326   6.4088   6.4737   6.5292   9.5485   9.5924   9.6099   9.6234
     9.6698   9.7344   9.9042  10.0643  10.8035  10.9504

          k = 0.0000 0.5052 0.0000 ( 21078 PWs)   bands (ev):

   -53.4595 -53.4258 -53.3984 -53.3656 -27.8199 -27.7820 -27.7551 -27.7260
   -27.5965 -27.5620 -27.5347 -27.5259 -27.5024 -27.4891 -27.4620 -27.4320
    -4.9723  -4.9209  -4.8923  -4.8444  -4.7660  -4.7157  -4.6803  -4.6386
     1.5812   1.6305   1.6711   1.7245   2.5179   2.5738   2.6342   2.7076
     3.2302   3.3055   3.3989   3.4806   4.2300   4.2879   4.3110   4.3399
     5.2413   5.3752   5.5477   5.6739   6.3414   6.3975   6.4410   6.4916
     6.5213   6.5931   6.6590   6.7183   9.5950   9.6359   9.6626   9.6988
     9.9090   9.9894  10.0914  10.1890  10.9949  11.1170

          k = 0.0000-0.5774 0.0000 ( 21006 PWs)   bands (ev):

   -53.4579 -53.4243 -53.3968 -53.3640 -27.8346 -27.7967 -27.7697 -27.7407
   -27.5934 -27.5589 -27.5316 -27.5293 -27.4993 -27.4925 -27.4654 -27.4354
    -4.8704  -4.8196  -4.7962  -4.7541  -4.7231  -4.6773  -4.6458  -4.6087
     1.4893   1.5363   1.5727   1.6242   2.4332   2.4833   2.5356   2.6079
     3.1824   3.2573   3.3484   3.4279   4.1833   4.2412   4.2643   4.2934
     5.2139   5.3442   5.5099   5.6284   6.3923   6.4491   6.4962   6.5492
     6.6393   6.6985   6.7504   6.8047   9.6225   9.6632   9.6895   9.7213
    10.0684  10.1256  10.1714  10.2274  11.0564  11.1611

          k = 0.0625 0.1083 0.0000 ( 21269 PWs)   bands (ev):

   -53.4945 -53.4607 -53.4333 -53.4006 -27.6651 -27.6302 -27.6029 -27.5709
   -27.4823 -27.4481 -27.4456 -27.4185 -27.4115 -27.3884 -27.3844 -27.3542
    -6.6641  -6.6036  -6.5374  -6.4693  -5.5255  -5.4335  -5.3273  -5.2468
     1.5574   1.7381   2.0272   2.2580   4.3815   4.4125   4.4464   4.4718
     4.4824   4.7174   4.9404   5.0043   5.0267   5.0369   5.0524   5.2422
     5.5664   5.6237   5.6474   5.6644   6.0858   6.1702   6.3533   6.6609
     6.9574   7.2768   7.5019   7.6072   9.8862   9.9232   9.9340   9.9668
    10.0188  10.0206  10.0639  10.1185  10.1434  10.1899

          k = 0.0625 0.1804 0.0000 ( 21194 PWs)   bands (ev):

   -53.4889 -53.4552 -53.4278 -53.3950 -27.6542 -27.6194 -27.5921 -27.5601
   -27.5359 -27.4990 -27.4719 -27.4618 -27.4420 -27.4252 -27.3981 -27.3679
    -6.4403  -6.3804  -6.3158  -6.2484  -5.4222  -5.3349  -5.2368  -5.1604
     1.7891   1.9614   2.2425   2.4718   4.0008   4.0586   4.0731   4.0943
     4.1278   4.3656   4.6286   4.7787   5.1573   5.1977   5.2237   5.2383
     5.2525   5.2622   5.2859   5.2985   6.1338   6.2393   6.4312   6.6914
     6.8803   7.0939   7.2124   7.2758   9.4815   9.5900   9.7070   9.8194
     9.8606   9.9146   9.9579   9.9910  10.0217  10.0626

          k = 0.0625 0.2526 0.0000 ( 21202 PWs)   bands (ev):

   -53.4817 -53.4480 -53.4206 -53.3878 -27.6400 -27.6052 -27.6052 -27.5780
   -27.5681 -27.5459 -27.5410 -27.5113 -27.4798 -27.4431 -27.4160 -27.3859
    -6.1295  -6.0708  -6.0094  -5.9433  -5.2792  -5.1987  -5.1123  -5.0417
     2.0356   2.1863   2.4350   2.6390   3.6167   3.6651   3.6964   3.7128
     3.8009   3.9821   4.1554   4.2500   4.8247   4.8805   4.9065   4.9362
     5.4275   5.4879   5.5104   5.5303   6.0299   6.1466   6.3301   6.5298
     6.6749   6.7737   6.8195   6.8670   9.2076   9.3615   9.5409   9.6678
     9.7722   9.8219   9.8586   9.8934   9.9821  10.1448

          k = 0.0625 0.3248 0.0000 ( 21194 PWs)   bands (ev):

   -53.4738 -53.4401 -53.4127 -53.3799 -27.6794 -27.6420 -27.6246 -27.6150
   -27.5899 -27.5855 -27.5626 -27.5305 -27.4992 -27.4625 -27.4354 -27.4053
    -5.7632  -5.7065  -5.6509  -5.5875  -5.1121  -5.0399  -4.9683  -4.9051
     2.1268   2.2330   2.3956   2.5235   3.2911   3.3465   3.4193   3.4931
     3.5780   3.6764   3.7052   3.7479   4.5216   4.5792   4.6167   4.6584
     5.6666   5.7166   5.7440   5.7729   5.8193   5.9317   6.1001   6.2554
     6.4472   6.5009   6.5335   6.5744   9.1687   9.3253   9.4889   9.5811
     9.7067   9.7582   9.8021   9.9321  10.2318  10.3967

          k = 0.0625 0.3969 0.0000 ( 21151 PWs)   bands (ev):

   -53.4665 -53.4328 -53.4054 -53.3726 -27.7472 -27.7096 -27.6826 -27.6533
   -27.6103 -27.5757 -27.5484 -27.5171 -27.5162 -27.4803 -27.4532 -27.4232
    -5.3877  -5.3335  -5.2873  -5.2284  -4.9436  -4.8806  -4.8255  -4.7707
     1.9699   2.0381   2.1224   2.1988   2.9195   2.9890   3.0737   3.1611
     3.4005   3.4797   3.5749   3.6640   4.3232   4.3815   4.4206   4.4620
     5.5587   5.6734   5.8071   5.8165   5.8769   5.8956   5.9237   6.0024
     6.4546   6.5031   6.5339   6.5691   9.3068   9.4285   9.5381   9.6092
     9.7480   9.8007   9.8694  10.0125  10.5680  10.7150

          k = 0.0625 0.4691 0.0000 ( 21105 PWs)   bands (ev):

   -53.4609 -53.4273 -53.3999 -53.3670 -27.7987 -27.7608 -27.7339 -27.7047
   -27.5993 -27.5648 -27.5375 -27.5307 -27.5052 -27.4939 -27.4668 -27.4368
    -5.0667  -5.0146  -4.9809  -4.9291  -4.8026  -4.7487  -4.7086  -4.6630
     1.7298   1.7827   1.8313   1.8887   2.6029   2.6603   2.7204   2.7892
     3.3029   3.3771   3.4733   3.5597   4.2152   4.2701   4.3010   4.3359
     5.3685   5.4854   5.6344   5.7481   5.9426   5.9925   6.0302   6.0835
     6.6281   6.6770   6.7124   6.7533   9.5067   9.5761   9.6304   9.6829
     9.8844   9.9417  10.0251  10.1333  10.8803  11.0013

          k = 0.0625 0.5413 0.0000 ( 21084 PWs)   bands (ev):

   -53.4579 -53.4243 -53.3968 -53.3640 -27.8263 -27.7884 -27.7614 -27.7324
   -27.5934 -27.5589 -27.5380 -27.5316 -27.5012 -27.4993 -27.4741 -27.4442
    -4.8758  -4.8250  -4.8008  -4.7575  -4.7206  -4.6741  -4.6420  -4.6043
     1.5694   1.6167   1.6539   1.7062   2.4246   2.4734   2.5210   2.5872
     3.2142   3.2888   3.3815   3.4630   4.1702   4.2236   4.2479   4.2728
     5.2643   5.3836   5.5320   5.6393   6.0352   6.0873   6.1277   6.1809
     6.7828   6.8336   6.8740   6.9200   9.6228   9.6577   9.6864   9.7197
    10.0618  10.1204  10.1767  10.2413  11.1051  11.1944

          k = 0.1250 0.2165 0.0000 ( 21179 PWs)   bands (ev):

   -53.4828 -53.4491 -53.4217 -53.3889 -27.6422 -27.6074 -27.5912 -27.5801
   -27.5541 -27.5481 -27.5270 -27.4973 -27.4807 -27.4440 -27.4169 -27.3868
    -6.1786  -6.1197  -6.0576  -5.9913  -5.3013  -5.2197  -5.1314  -5.0599
     2.0159   2.1727   2.4329   2.6476   3.6844   3.7323   3.7601   3.7765
     3.8933   4.1150   4.3286   4.4381   4.6863   4.7427   4.7680   4.7944
     5.3479   5.4079   5.4306   5.4482   6.2164   6.3160   6.4735   6.6562
     6.7432   6.8544   6.8902   6.9366   9.1974   9.3415   9.5018   9.6268
     9.7721   9.7914   9.8309   9.8594   9.9182  10.0853

          k = 0.1250 0.2887 0.0000 ( 21199 PWs)   bands (ev):

   -53.4755 -53.4418 -53.4144 -53.3816 -27.6547 -27.6279 -27.6173 -27.5932
   -27.5903 -27.5660 -27.5608 -27.5338 -27.5040 -27.4673 -27.4401 -27.4101
    -5.8469  -5.7897  -5.7324  -5.6681  -5.1486  -5.0743  -4.9990  -4.9339
     2.1752   2.2981   2.4944   2.6489   3.4458   3.4877   3.5224   3.5915
     3.6800   3.8114   3.8859   3.9330   4.2590   4.3244   4.4041   4.4811
     5.4560   5.5095   5.5343   5.5621   6.1445   6.2357   6.3647   6.4890
     6.5561   6.5875   6.6150   6.6479   9.0340   9.1960   9.3778   9.5012
     9.7662   9.7893   9.8311   9.8914   9.9954  10.1782

          k = 0.1250 0.3608 0.0000 ( 21195 PWs)   bands (ev):

   -53.4682 -53.4346 -53.4071 -53.3743 -27.7170 -27.6795 -27.6525 -27.6231
   -27.6137 -27.5790 -27.5518 -27.5277 -27.5195 -27.4909 -27.4638 -27.4338
    -5.4833  -5.4283  -5.3789  -5.3184  -4.9822  -4.9164  -4.8564  -4.7991
     2.1271   2.2087   2.3215   2.4142   3.1191   3.1781   3.2418   3.3144
     3.4905   3.5588   3.6380   3.7328   4.0607   4.1642   4.2721   4.3478
     5.4032   5.4515   5.4796   5.5163   5.9275   6.0067   6.1102   6.2061
     6.5079   6.5506   6.5762   6.6072   9.0703   9.2344   9.4325   9.5707
     9.8373   9.8706   9.9088   9.9972  10.2260  10.3836

          k = 0.1250 0.4330 0.0000 ( 21113 PWs)   bands (ev):

   -53.4620 -53.4284 -53.4010 -53.3681 -27.7693 -27.7316 -27.7046 -27.6754
   -27.6015 -27.5670 -27.5479 -27.5397 -27.5111 -27.5074 -27.4840 -27.4541
    -5.1413  -5.0886  -5.0505  -4.9960  -4.8274  -4.7705  -4.7261  -4.6775
     1.9440   2.0040   2.0690   2.1347   2.7034   2.7531   2.7965   2.8490
     3.4295   3.4969   3.5901   3.6855   4.0326   4.1287   4.2229   4.2916
     5.3527   5.4046   5.4474   5.5020   5.6548   5.7295   5.8233   5.9094
     6.6458   6.6915   6.7177   6.7487   9.2814   9.4262   9.6091   9.7396
     9.9452   9.9852  10.0201  10.0726  10.5381  10.6588

          k = 0.1250 0.5052 0.0000 ( 21081 PWs)   bands (ev):

   -53.4579 -53.4243 -53.3968 -53.3640 -27.8039 -27.7661 -27.7391 -27.7100
   -27.5934 -27.5615 -27.5589 -27.5316 -27.5246 -27.4993 -27.4975 -27.4676
    -4.8888  -4.8377  -4.8115  -4.7656  -4.7146  -4.6664  -4.6330  -4.5936
     1.7796   1.8294   1.8715   1.9270   2.4074   2.4518   2.4877   2.5384
     3.3112   3.3856   3.4797   3.5637   4.0852   4.1552   4.2178   4.2720
     5.3505   5.4191   5.4596   5.4862   5.5214   5.5574   5.6077   5.6961
     6.8334   6.8821   6.9151   6.9546   9.5097   9.5913   9.6716   9.7369
    10.0952  10.1469  10.1998  10.2731  10.8227  10.8955

          k = 0.1250 0.5774 0.0000 ( 21108 PWs)   bands (ev):

   -53.4565 -53.4228 -53.3954 -53.3625 -27.8160 -27.7781 -27.7512 -27.7221
   -27.5906 -27.5662 -27.5561 -27.5293 -27.5288 -27.5022 -27.4965 -27.4723
    -4.7939  -4.7436  -4.7217  -4.6839  -4.6711  -4.6292  -4.5989  -4.5643
     1.7162   1.7621   1.7973   1.8504   2.3020   2.3449   2.3789   2.4301
     3.2509   3.3262   3.4203   3.5020   4.1327   4.1822   4.2194   4.2620
     5.2915   5.3913   5.4316   5.4837   5.5038   5.5464   5.5648   5.6380
     6.9262   6.9776   7.0165   7.0613   9.5901   9.6236   9.6528   9.6890
    10.2055  10.2692  10.3166  10.3694  10.9429  11.0078

          k = 0.1875 0.3248 0.0000 ( 21195 PWs)   bands (ev):

   -53.4688 -53.4352 -53.4077 -53.3749 -27.7034 -27.6659 -27.6389 -27.6148
   -27.6095 -27.5802 -27.5529 -27.5345 -27.5207 -27.4977 -27.4706 -27.4406
    -5.5165  -5.4613  -5.4108  -5.3497  -4.9953  -4.9285  -4.8668  -4.8085
     2.1937   2.2826   2.4103   2.5117   3.2488   3.2951   3.3365   3.3858
     3.5350   3.5943   3.6579   3.7292   3.9148   4.0464   4.1891   4.2756
     5.2292   5.2772   5.3047   5.3422   6.0939   6.1570   6.2360   6.3147
     6.5142   6.5585   6.5844   6.6204   8.9802   9.1578   9.3794   9.5480
     9.8610   9.8805   9.9225   9.9686  10.0855  10.2552

          k = 0.1875 0.3969 0.0000 ( 21153 PWs)   bands (ev):

   -53.4626 -53.4290 -53.4016 -53.3687 -27.7454 -27.7078 -27.6808 -27.6515
   -27.6027 -27.5682 -27.5654 -27.5409 -27.5285 -27.5086 -27.5014 -27.4715
    -5.1822  -5.1292  -5.0888  -5.0328  -4.8398  -4.7812  -4.7341  -4.6839
     2.1060   2.1742   2.2575   2.3322   2.7902   2.8268   2.8574   2.8883
     3.5693   3.6208   3.6793   3.7696   3.9167   4.0424   4.1708   4.2490
     4.9135   4.9630   4.9966   5.0426   5.8723   5.9166   5.9642   6.0286
     6.6161   6.6654   6.6932   6.7312   9.1360   9.3141   9.5604   9.7860
     9.9723  10.0063  10.0344  10.0656  10.2626  10.4025

          k = 0.1875 0.4691 0.0000 ( 21101 PWs)   bands (ev):

   -53.4579 -53.4243 -53.3968 -53.3640 -27.7760 -27.7382 -27.7113 -27.6821
   -27.5934 -27.5904 -27.5589 -27.5534 -27.5316 -27.5263 -27.4993 -27.4965
    -4.9014  -4.8501  -4.8218  -4.7738  -4.7087  -4.6589  -4.6239  -4.5830
     2.0190   2.0755   2.1321   2.1947   2.3923   2.4325   2.4614   2.4921
     3.4835   3.5581   3.6412   3.7116   3.9785   4.0915   4.2063   4.2848
     4.7328   4.7927   4.8576   4.9279   5.5702   5.6310   5.6769   5.7407
     6.8168   6.8650   6.8909   6.9235   9.3629   9.4831   9.6288   9.7399
    10.1374  10.1824  10.2268  10.3090  10.4837  10.5715

          k = 0.1875 0.5413 0.0000 ( 21112 PWs)   bands (ev):

   -53.4553 -53.4217 -53.3943 -53.3614 -27.7920 -27.7542 -27.7272 -27.6981
   -27.6043 -27.5884 -27.5673 -27.5539 -27.5402 -27.5266 -27.5104 -27.4943
    -4.7371  -4.6873  -4.6664  -4.6369  -4.6235  -4.5897  -4.5602  -4.5276
     1.9815   2.0284   2.0636   2.1242   2.1758   2.2194   2.2479   2.2804
     3.3390   3.4171   3.5109   3.5865   4.1159   4.1869   4.2554   4.3201
     4.6903   4.7628   4.8449   4.9174   5.3589   5.4233   5.4769   5.5394
     7.0020   7.0508   7.0821   7.1216   9.4412   9.4890   9.5281   9.5740
    10.3238  10.3872  10.4573  10.5496  10.6090  10.6663

          k = 0.2500 0.4330 0.0000 ( 21125 PWs)   bands (ev):

   -53.4579 -53.4243 -53.3968 -53.3640 -27.7615 -27.7238 -27.6968 -27.6676
   -27.6053 -27.5934 -27.5683 -27.5589 -27.5412 -27.5316 -27.5114 -27.4993
    -4.9065  -4.8551  -4.8259  -4.7772  -4.7063  -4.6558  -4.6202  -4.5786
     2.1284   2.1900   2.2576   2.3223   2.3882   2.4269   2.4544   2.4730
     3.6682   3.7095   3.7361   3.7931   3.9851   4.0965   4.2198   4.2999
     4.4111   4.4577   4.4872   4.5211   5.6485   5.6813   5.7048   5.7743
     6.8000   6.8493   6.8747   6.9067   9.3014   9.4337   9.6011   9.7337
    10.1483  10.1898  10.2227  10.3156  10.3561  10.4815

          k = 0.2500 0.5052 0.0000 ( 21117 PWs)   bands (ev):

   -53.4547 -53.4211 -53.3937 -53.3608 -27.7662 -27.7285 -27.7015 -27.6723
   -27.6379 -27.6008 -27.5872 -27.5737 -27.5528 -27.5440 -27.5255 -27.4931
    -4.7089  -4.6593  -4.6388  -4.6127  -4.5962  -4.5662  -4.5370  -4.5052
     2.0836   2.1255   2.1503   2.1763   2.2407   2.2972   2.3483   2.4030
     3.5106   3.5897   3.6599   3.7050   4.0618   4.1034   4.1509   4.2029
     4.2377   4.3012   4.3657   4.4141   5.3685   5.4121   5.4459   5.5135
     7.0413   7.0880   7.1134   7.1445   9.3084   9.3649   9.4189   9.4756
    10.2928  10.3344  10.3812  10.4003  10.5612  10.6156

          k = 0.2500 0.5774 0.0000 ( 21116 PWs)   bands (ev):

   -53.4536 -53.4200 -53.3926 -53.3597 -27.7661 -27.7283 -27.7013 -27.6722
   -27.6512 -27.6141 -27.5870 -27.5851 -27.5573 -27.5506 -27.5233 -27.4910
    -4.6358  -4.5896  -4.5758  -4.5645  -4.5410  -4.5302  -4.5070  -4.4792
     1.9829   2.0243   2.0497   2.0749   2.3279   2.3689   2.4037   2.4508
     3.3541   3.4316   3.5122   3.5737   4.0280   4.0872   4.1615   4.2369
     4.2864   4.3487   4.4052   4.4506   5.2493   5.2868   5.3113   5.3762
     7.1687   7.2150   7.2422   7.2778   9.2343   9.2773   9.3041   9.3305
    10.3162  10.3640  10.4010  10.4358  10.7136  10.7566

          k = 0.3125 0.5413 0.0000 ( 21100 PWs)   bands (ev):

   -53.4530 -53.4194 -53.3920 -53.3591 -27.7450 -27.7072 -27.6803 -27.6796
   -27.6511 -27.6425 -27.6154 -27.5857 -27.5839 -27.5494 -27.5221 -27.4898
    -4.6001  -4.5598  -4.5485  -4.5296  -4.5178  -4.5027  -4.4880  -4.4610
     1.9135   1.9569   1.9827   2.0049   2.5538   2.6032   2.6423   2.6954
     3.3608   3.3741   3.4055   3.4401   3.8385   3.8605   3.8845   3.9050
     4.3400   4.4057   4.4534   4.5065   5.1620   5.2085   5.2372   5.3058
     7.2510   7.2951   7.3204   7.3519   9.1170   9.1630   9.1894   9.2148
    10.2527  10.2839  10.3065  10.3563  10.8107  10.8735

     the Fermi energy is     8.3567 ev

!    total energy              =   -1978.37239407 Ry
     total all-electron energy =    -38771.693239 Ry
     estimated scf accuracy    <          2.0E-09 Ry
     smearing contrib. (-TS)   =       0.00003969 Ry
     internal energy E=F+TS    =   -1978.37243376 Ry

     The total energy is F=E-TS. E is the sum of the following terms:
     one-electron contribution =   -1577.87697686 Ry
     hartree contribution      =     831.20531340 Ry
     xc contribution           =    -119.24683115 Ry
     ewald contribution        =     157.39782046 Ry
     one-center paw contrib.   =   -1269.85175961 Ry

     convergence has been achieved in  34 iterations

     Forces acting on atoms (cartesian axes, Ry/au):

     atom    1 type  2   force =     0.00000000    0.00000000   -0.00096779
     atom    2 type  1   force =     0.00000000    0.00000000    0.00006862
     atom    3 type  2   force =     0.00000000    0.00000000    0.00239754
     atom    4 type  2   force =     0.00000000    0.00000000   -0.00027737
     atom    5 type  1   force =     0.00000000    0.00000000    0.00224960
     atom    6 type  2   force =     0.00000000    0.00000000   -0.00119068
     atom    7 type  2   force =     0.00000000    0.00000000    0.00014776
     atom    8 type  1   force =     0.00000000    0.00000000    0.00065751
     atom    9 type  2   force =     0.00000000    0.00000000   -0.00160479
     atom   10 type  2   force =     0.00000000    0.00000000   -0.00251294
     atom   11 type  1   force =     0.00000000    0.00000000   -0.00015144
     atom   12 type  2   force =     0.00000000    0.00000000    0.00118399

     Total force =     0.004900     Total SCF correction =     0.000196
     Energy error            =      2.8E-04 Ry
     Gradient error          =      2.5E-03 Ry/Bohr

     number of scf cycles    =  28
     number of bfgs steps    =  24

     energy             old  =   -1978.3721118606 Ry
     energy             new  =   -1978.3723940703 Ry

     CASE: energy            _new < energy            _old

     new trust radius        =       0.1137141923 bohr
     new conv_thr            =       0.0000000028 Ry


ATOMIC_POSITIONS (crystal)
S                0.3333329176        0.6666668352       -0.1073206923
Mo               0.0000000000        0.0000000000       -0.0549564234
S                0.3333329176        0.6666668352       -0.0025852006
S                0.6666668352        0.3333329176        0.1018867500
Mo               0.3333329176        0.6666668352        0.1543552776
S                0.6666668352        0.3333329176        0.2068904693
S                0.0000000000        0.0000000000        0.3126816551
Mo               0.6666668352        0.3333329176        0.3651962596
S                0.0000000000        0.0000000000        0.4177100140
S                0.3333329176        0.6666668352        0.5213468144
Mo               0.0000000000        0.0000000000        0.5737280781
S                0.3333329176        0.6666668352        0.6260662279



     Writing config-only to output data dir ./tmp/relax2/mos2_slab2.save/ :
     XML data file
     NEW-OLD atomic charge density approx. for the potential

     total cpu time spent up to now is    72173.3 secs

     Self-consistent Calculation

     iteration #  1     ecut=    80.00 Ry     beta= 0.20
     Davidson diagonalization with overlap
     ethr =  1.00E-06,  avg # of iterations =  9.4

     total cpu time spent up to now is    72543.7 secs

     total energy              =   -1978.37348648 Ry
     estimated scf accuracy    <       0.00419656 Ry

     iteration #  2     ecut=    80.00 Ry     beta= 0.20
     Davidson diagonalization with overlap
     ethr =  4.04E-06,  avg # of iterations =  1.0

     negative rho (up, down):  3.057E-08 0.000E+00

     total cpu time spent up to now is    72642.9 secs

     total energy              =   -1978.37242810 Ry
     estimated scf accuracy    <       0.00308079 Ry

     iteration #  3     ecut=    80.00 Ry     beta= 0.20
     Davidson diagonalization with overlap
     ethr =  2.96E-06,  avg # of iterations =  2.7

     total cpu time spent up to now is    72761.0 secs

     total energy              =   -1978.37272133 Ry
     estimated scf accuracy    <       0.00011599 Ry

     iteration #  4     ecut=    80.00 Ry     beta= 0.20
     Davidson diagonalization with overlap
     ethr =  1.12E-07,  avg # of iterations =  3.9

     total cpu time spent up to now is    72897.6 secs

     total energy              =   -1978.37274525 Ry
     estimated scf accuracy    <       0.00004190 Ry

     iteration #  5     ecut=    80.00 Ry     beta= 0.20
     Davidson diagonalization with overlap
     ethr =  4.03E-08,  avg # of iterations =  2.4

     total cpu time spent up to now is    73009.4 secs

     total energy              =   -1978.37274627 Ry
     estimated scf accuracy    <       0.00001902 Ry

     iteration #  6     ecut=    80.00 Ry     beta= 0.20
     Davidson diagonalization with overlap
     ethr =  1.83E-08,  avg # of iterations =  2.4

     total cpu time spent up to now is    73120.3 secs

     total energy              =   -1978.37274701 Ry
     estimated scf accuracy    <       0.00000521 Ry

     iteration #  7     ecut=    80.00 Ry     beta= 0.20
     Davidson diagonalization with overlap
     ethr =  5.01E-09,  avg # of iterations =  2.5

     total cpu time spent up to now is    73238.5 secs

     total energy              =   -1978.37274778 Ry
     estimated scf accuracy    <       0.00000126 Ry

     iteration #  8     ecut=    80.00 Ry     beta= 0.20
     Davidson diagonalization with overlap
     ethr =  1.21E-09,  avg # of iterations =  3.5

     total cpu time spent up to now is    73351.6 secs

     total energy              =   -1978.37274777 Ry
     estimated scf accuracy    <       0.00000081 Ry

     iteration #  9     ecut=    80.00 Ry     beta= 0.20
     Davidson diagonalization with overlap
     ethr =  7.80E-10,  avg # of iterations =  2.3

     total cpu time spent up to now is    73465.5 secs

     total energy              =   -1978.37274799 Ry
     estimated scf accuracy    <       0.00000052 Ry

     iteration # 10     ecut=    80.00 Ry     beta= 0.20
     Davidson diagonalization with overlap
     ethr =  5.04E-10,  avg # of iterations =  1.0

     total cpu time spent up to now is    73564.2 secs

     total energy              =   -1978.37274807 Ry
     estimated scf accuracy    <       0.00000047 Ry

     iteration # 11     ecut=    80.00 Ry     beta= 0.20
     Davidson diagonalization with overlap
     ethr =  4.56E-10,  avg # of iterations =  1.1

     total cpu time spent up to now is    73664.0 secs

     total energy              =   -1978.37274812 Ry
     estimated scf accuracy    <       0.00000050 Ry

     iteration # 12     ecut=    80.00 Ry     beta= 0.20
     Davidson diagonalization with overlap
     ethr =  4.56E-10,  avg # of iterations =  1.0

     total cpu time spent up to now is    73762.7 secs

     total energy              =   -1978.37274810 Ry
     estimated scf accuracy    <       0.00000047 Ry

     iteration # 13     ecut=    80.00 Ry     beta= 0.20
     Davidson diagonalization with overlap
     ethr =  4.54E-10,  avg # of iterations =  1.4

     total cpu time spent up to now is    73865.4 secs

     total energy              =   -1978.37274817 Ry
     estimated scf accuracy    <       0.00000025 Ry

     iteration # 14     ecut=    80.00 Ry     beta= 0.20
     Davidson diagonalization with overlap
     ethr =  2.42E-10,  avg # of iterations =  2.0

     total cpu time spent up to now is    73976.9 secs

     total energy              =   -1978.37274819 Ry
     estimated scf accuracy    <       0.00000020 Ry

     iteration # 15     ecut=    80.00 Ry     beta= 0.20
     Davidson diagonalization with overlap
     ethr =  1.88E-10,  avg # of iterations =  1.0

     total cpu time spent up to now is    74075.5 secs

     total energy              =   -1978.37274815 Ry
     estimated scf accuracy    <       0.00000015 Ry

     iteration # 16     ecut=    80.00 Ry     beta= 0.20
     Davidson diagonalization with overlap
     ethr =  1.48E-10,  avg # of iterations =  2.6

     total cpu time spent up to now is    74195.0 secs

     total energy              =   -1978.37274817 Ry
     estimated scf accuracy    <       0.00000008 Ry

     iteration # 17     ecut=    80.00 Ry     beta= 0.20
     Davidson diagonalization with overlap
     ethr =  7.84E-11,  avg # of iterations =  2.4

     total cpu time spent up to now is    74309.6 secs

     total energy              =   -1978.37274819 Ry
     estimated scf accuracy    <       0.00000007 Ry

     iteration # 18     ecut=    80.00 Ry     beta= 0.20
     Davidson diagonalization with overlap
     ethr =  6.64E-11,  avg # of iterations =  1.2

     total cpu time spent up to now is    74410.4 secs

     total energy              =   -1978.37274820 Ry
     estimated scf accuracy    <       0.00000004 Ry

     iteration # 19     ecut=    80.00 Ry     beta= 0.20
     Davidson diagonalization with overlap
     ethr =  3.89E-11,  avg # of iterations =  2.0

     total cpu time spent up to now is    74519.2 secs

     total energy              =   -1978.37274821 Ry
     estimated scf accuracy    <       0.00000003 Ry

     iteration # 20     ecut=    80.00 Ry     beta= 0.20
     Davidson diagonalization with overlap
     ethr =  3.00E-11,  avg # of iterations =  1.2

     total cpu time spent up to now is    74619.6 secs

     total energy              =   -1978.37274821 Ry
     estimated scf accuracy    <       0.00000003 Ry

     iteration # 21     ecut=    80.00 Ry     beta= 0.20
     Davidson diagonalization with overlap
     ethr =  2.67E-11,  avg # of iterations =  1.5

     total cpu time spent up to now is    74724.1 secs

     total energy              =   -1978.37274821 Ry
     estimated scf accuracy    <       0.00000003 Ry

     iteration # 22     ecut=    80.00 Ry     beta= 0.20
     Davidson diagonalization with overlap
     ethr =  2.67E-11,  avg # of iterations =  1.0

     total cpu time spent up to now is    74822.7 secs

     total energy              =   -1978.37274822 Ry
     estimated scf accuracy    <       0.00000003 Ry

     iteration # 23     ecut=    80.00 Ry     beta= 0.20
     Davidson diagonalization with overlap
     ethr =  2.54E-11,  avg # of iterations =  1.0

     total cpu time spent up to now is    74921.5 secs

     total energy              =   -1978.37274824 Ry
     estimated scf accuracy    <       0.00000003 Ry

     iteration # 24     ecut=    80.00 Ry     beta= 0.20
     Davidson diagonalization with overlap
     ethr =  2.41E-11,  avg # of iterations =  1.4

     total cpu time spent up to now is    75024.5 secs

     total energy              =   -1978.37274824 Ry
     estimated scf accuracy    <       0.00000002 Ry

     iteration # 25     ecut=    80.00 Ry     beta= 0.20
     Davidson diagonalization with overlap
     ethr =  2.22E-11,  avg # of iterations =  1.1

     total cpu time spent up to now is    75123.9 secs

     total energy              =   -1978.37274825 Ry
     estimated scf accuracy    <       0.00000002 Ry

     iteration # 26     ecut=    80.00 Ry     beta= 0.20
     Davidson diagonalization with overlap
     ethr =  1.96E-11,  avg # of iterations =  1.0

     total cpu time spent up to now is    75222.9 secs

     total energy              =   -1978.37274824 Ry
     estimated scf accuracy    <       0.00000002 Ry

     iteration # 27     ecut=    80.00 Ry     beta= 0.20
     Davidson diagonalization with overlap
     ethr =  1.75E-11,  avg # of iterations =  2.1

     total cpu time spent up to now is    75342.8 secs

     total energy              =   -1978.37274825 Ry
     estimated scf accuracy    <       0.00000002 Ry

     iteration # 28     ecut=    80.00 Ry     beta= 0.20
     Davidson diagonalization with overlap
     ethr =  1.46E-11,  avg # of iterations =  2.0

     total cpu time spent up to now is    75453.9 secs

     total energy              =   -1978.37274823 Ry
     estimated scf accuracy    <       0.00000001 Ry

     iteration # 29     ecut=    80.00 Ry     beta= 0.20
     Davidson diagonalization with overlap
     ethr =  1.18E-11,  avg # of iterations =  2.1

     total cpu time spent up to now is    75568.3 secs

     End of self-consistent calculation

          k = 0.0000 0.0000 0.0000 ( 21311 PWs)   bands (ev):

   -53.5028 -53.4665 -53.4340 -53.4003 -27.6777 -27.6406 -27.6082 -27.5750
   -27.4410 -27.4410 -27.4023 -27.4023 -27.3700 -27.3700 -27.3385 -27.3385
    -6.8520  -6.7822  -6.7125  -6.6392  -5.6208  -5.5121  -5.3965  -5.3070
     1.3337   1.5376   1.8327   2.0765   4.7275   4.7558   4.7558   4.8176
     4.8176   4.8477   4.8477   4.8607   4.8607   5.1604   5.7440   5.8746
     5.8746   5.9302   5.9302   5.9606   5.9606   5.9811   5.9811   6.3174
     6.9585   7.3697   7.7034   7.8770  10.1197  10.1197  10.1625  10.1625
    10.1933  10.1933  10.2390  10.2390  10.3344  10.3344

          k = 0.0000 0.0722 0.0000 ( 21283 PWs)   bands (ev):

   -53.5012 -53.4649 -53.4325 -53.3988 -27.6747 -27.6375 -27.6051 -27.5720
   -27.4566 -27.4445 -27.4178 -27.4058 -27.3855 -27.3735 -27.3541 -27.3420
    -6.7924  -6.7227  -6.6533  -6.5800  -5.5930  -5.4858  -5.3723  -5.2840
     1.4029   1.6054   1.8999   2.1445   4.5964   4.6223   4.6817   4.7121
     4.7264   4.8182   4.8798   4.9097   4.9234   4.9755   5.3863   5.6024
     5.7775   5.8332   5.8635   5.8852   5.9861   6.0513   6.1884   6.5293
     6.9637   7.3536   7.6460   7.7943  10.0461  10.0832  10.1153  10.1543
    10.1848  10.2054  10.2264  10.2478  10.2592  10.2801

          k = 0.0000 0.1443 0.0000 ( 21263 PWs)   bands (ev):

   -53.4968 -53.4605 -53.4280 -53.3943 -27.6660 -27.6289 -27.5965 -27.5633
   -27.5007 -27.4619 -27.4546 -27.4296 -27.4159 -27.3982 -27.3836 -27.3521
    -6.6184  -6.5493  -6.4808  -6.4079  -5.5122  -5.4090  -5.3017  -5.2169
     1.5957   1.7930   2.0839   2.3298   4.2658   4.2997   4.3294   4.3629
     4.3812   4.6026   4.9067   4.9978   5.0587   5.0853   5.0883   5.1043
     5.5264   5.5824   5.6124   5.6366   6.0418   6.1467   6.3496   6.6664
     6.9405   7.2458   7.4376   7.5327   9.7593   9.8316   9.8894   9.9267
     9.9974  10.0523  10.0623  10.0815  10.1206  10.1278

          k = 0.0000 0.2165 0.0000 ( 21233 PWs)   bands (ev):

   -53.4901 -53.4539 -53.4214 -53.3877 -27.6530 -27.6159 -27.5835 -27.5662
   -27.5503 -27.5272 -27.4949 -27.4696 -27.4637 -27.4308 -27.3986 -27.3671
    -6.3448  -6.2769  -6.2106  -6.1386  -5.3854  -5.2887  -5.1917  -5.1124
     1.8580   2.0416   2.3168   2.5547   3.8341   3.8896   3.9037   3.9346
     3.9786   4.1850   4.4044   4.5340   5.2004   5.2534   5.2742   5.2856
     5.3129   5.3343   5.3642   5.3817   5.9493   6.0872   6.3086   6.5742
     6.8026   6.9728   7.0635   7.1229   9.3678   9.5040   9.6697   9.8408
     9.8537   9.9027   9.9565   9.9637  10.0205  10.1196

          k = 0.0000 0.2887 0.0000 ( 21197 PWs)   bands (ev):

   -53.4823 -53.4460 -53.4135 -53.3798 -27.6427 -27.6376 -27.6034 -27.6006
   -27.5712 -27.5682 -27.5402 -27.5349 -27.4872 -27.4485 -27.4162 -27.3847
    -5.9973  -5.9315  -5.8694  -5.7993  -5.2253  -5.1375  -5.0541  -4.9822
     2.0628   2.2118   2.4288   2.6117   3.4413   3.4960   3.5534   3.5773
     3.6790   3.7992   3.9156   3.9874   4.8723   4.9288   4.9583   4.9876
     5.5987   5.6574   5.6869   5.7142   5.7309   5.8895   6.1090   6.3211
     6.5321   6.6147   6.6605   6.7107   9.2244   9.3974   9.6214   9.6523
     9.7131   9.7654   9.8277   9.8617  10.1745  10.3502

          k = 0.0000 0.3608 0.0000 ( 21187 PWs)   bands (ev):

   -53.4744 -53.4382 -53.4057 -53.3720 -27.7182 -27.6787 -27.6465 -27.6221
   -27.6157 -27.5852 -27.5528 -27.5194 -27.5048 -27.4660 -27.4337 -27.4023
    -5.6144  -5.5517  -5.4968  -5.4305  -5.0513  -4.9741  -4.9069  -4.8435
     2.0310   2.1279   2.2479   2.3513   3.0782   3.1597   3.2586   3.3889
     3.4327   3.5466   3.6084   3.6814   4.5840   4.6408   4.6705   4.7010
     5.4959   5.6571   5.8619   5.9207   5.9787   6.0110   6.0384   6.0483
     6.3122   6.3859   6.4305   6.4789   9.3400   9.5052   9.5488   9.6041
     9.6486   9.7060   9.7243   9.9472  10.4992  10.6702

          k = 0.0000 0.4330 0.0000 ( 21140 PWs)   bands (ev):

   -53.4677 -53.4315 -53.3990 -53.3653 -27.7816 -27.7419 -27.7097 -27.6790
   -27.6090 -27.5722 -27.5397 -27.5197 -27.5063 -27.4808 -27.4485 -27.4172
    -5.2511  -5.1926  -5.1482  -5.0881  -4.8896  -4.8242  -4.7733  -4.7193
     1.7994   1.8657   1.9287   1.9978   2.7419   2.8187   2.9022   2.9946
     3.3240   3.4110   3.5093   3.6010   4.3633   4.4203   4.4501   4.4814
     5.3231   5.4756   5.6644   5.8180   6.1777   6.2368   6.2760   6.3233
     6.3282   6.4104   6.4758   6.5343   9.5428   9.5906   9.6060   9.6261
     9.6746   9.7358   9.9069  10.0741  10.8032  10.9547

          k = 0.0000 0.5052 0.0000 ( 21078 PWs)   bands (ev):

   -53.4632 -53.4270 -53.3945 -53.3608 -27.8236 -27.7838 -27.7516 -27.7210
   -27.6002 -27.5634 -27.5310 -27.5296 -27.4975 -27.4907 -27.4584 -27.4271
    -4.9800  -4.9257  -4.8922  -4.8411  -4.7717  -4.7180  -4.6787  -4.6338
     1.5715   1.6257   1.6692   1.7280   2.5066   2.5691   2.6307   2.7118
     3.2214   3.3052   3.3995   3.4869   4.2256   4.2827   4.3126   4.3444
     5.2298   5.3745   5.5490   5.6832   6.3333   6.3950   6.4421   6.4964
     6.5161   6.5936   6.6602   6.7229   9.5905   9.6336   9.6655   9.7037
     9.9044   9.9902  10.0931  10.1957  10.9931  11.1198

          k = 0.0000-0.5774 0.0000 ( 21006 PWs)   bands (ev):

   -53.4617 -53.4255 -53.3930 -53.3592 -27.8382 -27.7984 -27.7662 -27.7357
   -27.5972 -27.5604 -27.5330 -27.5279 -27.4945 -27.4941 -27.4619 -27.4305
    -4.8772  -4.8252  -4.7957  -4.7514  -4.7275  -4.6804  -4.6443  -4.6040
     1.4799   1.5311   1.5710   1.6280   2.4225   2.4783   2.5324   2.6122
     3.1732   3.2568   3.3490   3.4342   4.1789   4.2360   4.2659   4.2979
     5.2021   5.3435   5.5114   5.6377   6.3837   6.4468   6.4973   6.5540
     6.6343   6.6981   6.7512   6.8088   9.6184   9.6607   9.6924   9.7262
    10.0635  10.1256  10.1736  10.2323  11.0538  11.1631

          k = 0.0625 0.1083 0.0000 ( 21269 PWs)   bands (ev):

   -53.4982 -53.4620 -53.4295 -53.3958 -27.6688 -27.6317 -27.5993 -27.5661
   -27.4860 -27.4518 -27.4472 -27.4149 -27.4131 -27.3835 -27.3808 -27.3493
    -6.6755  -6.6062  -6.5374  -6.4644  -5.5387  -5.4342  -5.3249  -5.2389
     1.5344   1.7337   2.0262   2.2720   4.3748   4.3977   4.4402   4.4721
     4.4880   4.7186   4.9373   4.9983   5.0277   5.0425   5.0558   5.2522
     5.5627   5.6181   5.6485   5.6698   6.0807   6.1703   6.3531   6.6717
     6.9564   7.2942   7.5136   7.6218   9.8865   9.9193   9.9347   9.9700
    10.0200  10.0252  10.0667  10.1232  10.1376  10.1902

          k = 0.0625 0.1804 0.0000 ( 21194 PWs)   bands (ev):

   -53.4927 -53.4564 -53.4239 -53.3902 -27.6580 -27.6209 -27.5885 -27.5553
   -27.5396 -27.5006 -27.4684 -27.4655 -27.4371 -27.4268 -27.3945 -27.3630
    -6.4516  -6.3832  -6.3159  -6.2434  -5.4347  -5.3355  -5.2344  -5.1529
     1.7660   1.9565   2.2408   2.4850   3.9961   4.0521   4.0678   4.0948
     4.1233   4.3682   4.6327   4.7885   5.1539   5.1931   5.2187   5.2384
     5.2536   5.2620   5.2872   5.3042   6.1282   6.2389   6.4307   6.6989
     6.8799   7.1051   7.2188   7.2833   9.4826   9.5924   9.7096   9.8191
     9.8615   9.9127   9.9590   9.9921  10.0261  10.0700

          k = 0.0625 0.2526 0.0000 ( 21202 PWs)   bands (ev):

   -53.4854 -53.4492 -53.4167 -53.3830 -27.6438 -27.6089 -27.6068 -27.5743
   -27.5697 -27.5411 -27.5375 -27.5064 -27.4835 -27.4447 -27.4124 -27.3810
    -6.1405  -6.0737  -6.0095  -5.9385  -5.2907  -5.1991  -5.1099  -5.0349
     2.0132   2.1811   2.4324   2.6495   3.6087   3.6588   3.6939   3.7115
     3.7982   3.9870   4.1600   4.2577   4.8210   4.8769   4.9083   4.9407
     5.4237   5.4820   5.5117   5.5352   6.0241   6.1464   6.3303   6.5368
     6.6739   6.7770   6.8223   6.8716   9.2071   9.3640   9.5431   9.6707
     9.7682   9.8217   9.8617   9.8970   9.9857  10.1576

          k = 0.0625 0.3248 0.0000 ( 21194 PWs)   bands (ev):

   -53.4776 -53.4413 -53.4088 -53.3751 -27.6831 -27.6437 -27.6283 -27.6115
   -27.5914 -27.5806 -27.5590 -27.5256 -27.5029 -27.4641 -27.4318 -27.4004
    -5.7737  -5.7095  -5.6511  -5.5830  -5.1223  -5.0404  -4.9661  -4.8990
     2.1079   2.2288   2.3932   2.5289   3.2753   3.3382   3.4156   3.4894
     3.5827   3.6799   3.7145   3.7543   4.5171   4.5776   4.6178   4.6626
     5.6615   5.7110   5.7446   5.7774   5.8143   5.9318   6.1009   6.2634
     6.4436   6.5006   6.5362   6.5790   9.1661   9.3270   9.4889   9.5845
     9.7036   9.7603   9.8060   9.9408  10.2326  10.4052

          k = 0.0625 0.3969 0.0000 ( 21151 PWs)   bands (ev):

   -53.4703 -53.4340 -53.4016 -53.3678 -27.7509 -27.7113 -27.6791 -27.6484
   -27.6141 -27.5772 -27.5447 -27.5207 -27.5114 -27.4819 -27.4496 -27.4183
    -5.3973  -5.3369  -5.2876  -5.2244  -4.9521  -4.8814  -4.8235  -4.7653
     1.9564   2.0348   2.1204   2.2021   2.9062   2.9839   3.0693   3.1646
     3.3949   3.4809   3.5761   3.6711   4.3181   4.3797   4.4215   4.4663
     5.5502   5.6732   5.8054   5.8120   5.8738   5.8996   5.9269   6.0114
     6.4510   6.5019   6.5361   6.5738   9.3028   9.4291   9.5375   9.6129
     9.7453   9.8032   9.8723  10.0220  10.5680  10.7201

          k = 0.0625 0.4691 0.0000 ( 21105 PWs)   bands (ev):

   -53.4647 -53.4285 -53.3960 -53.3622 -27.8023 -27.7626 -27.7304 -27.6998
   -27.6031 -27.5663 -27.5344 -27.5338 -27.5004 -27.4955 -27.4632 -27.4319
    -5.0750  -5.0189  -4.9809  -4.9255  -4.8091  -4.7504  -4.7069  -4.6582
     1.7194   1.7786   1.8293   1.8921   2.5919   2.6559   2.7171   2.7932
     3.2939   3.3764   3.4736   3.5660   4.2102   4.2663   4.3018   4.3403
     5.3589   5.4851   5.6353   5.7557   5.9358   5.9895   6.0319   6.0887
     6.6241   6.6761   6.7141   6.7579   9.5022   9.5759   9.6306   9.6868
     9.8811   9.9435  10.0274  10.1408  10.8792  11.0035

          k = 0.0625 0.5413 0.0000 ( 21084 PWs)   bands (ev):

   -53.4617 -53.4255 -53.3930 -53.3592 -27.8300 -27.7902 -27.7580 -27.7274
   -27.5972 -27.5604 -27.5417 -27.5279 -27.5028 -27.4945 -27.4705 -27.4392
    -4.8828  -4.8304  -4.8003  -4.7547  -4.7252  -4.6770  -4.6405  -4.5996
     1.5599   1.6115   1.6521   1.7099   2.4146   2.4684   2.5183   2.5915
     3.2044   3.2879   3.3819   3.4691   4.1658   4.2175   4.2486   4.2781
     5.2538   5.3833   5.5336   5.6477   6.0266   6.0845   6.1290   6.1859
     6.7783   6.8328   6.8754   6.9245   9.6189   9.6555   9.6886   9.7242
    10.0571  10.1209  10.1786  10.2465  11.1027  11.1947

          k = 0.1250 0.2165 0.0000 ( 21179 PWs)   bands (ev):

   -53.4865 -53.4503 -53.4178 -53.3841 -27.6459 -27.6089 -27.5949 -27.5765
   -27.5557 -27.5432 -27.5235 -27.4924 -27.4844 -27.4456 -27.4133 -27.3819
    -6.1896  -6.1225  -6.0578  -5.9865  -5.3130  -5.2202  -5.1290  -5.0529
     1.9931   2.1675   2.4304   2.6589   3.6788   3.7253   3.7589   3.7790
     3.8835   4.1193   4.3331   4.4458   4.6829   4.7392   4.7706   4.7994
     5.3442   5.4018   5.4317   5.4534   6.2115   6.3157   6.4732   6.6587
     6.7448   6.8584   6.8939   6.9410   9.1968   9.3436   9.5034   9.6313
     9.7680   9.7896   9.8302   9.8632   9.9226  10.1028

          k = 0.1250 0.2887 0.0000 ( 21199 PWs)   bands (ev):

   -53.4793 -53.4430 -53.4105 -53.3768 -27.6583 -27.6317 -27.6190 -27.5947
   -27.5868 -27.5623 -27.5558 -27.5290 -27.5077 -27.4689 -27.4366 -27.4052
    -5.8576  -5.7927  -5.7326  -5.6636  -5.1591  -5.0747  -4.9967  -4.9276
     2.1546   2.2935   2.4919   2.6559   3.4337   3.4777   3.5225   3.5864
     3.6823   3.8173   3.8891   3.9376   4.2546   4.3261   4.4071   4.4879
     5.4512   5.5040   5.5353   5.5670   6.1402   6.2356   6.3648   6.4918
     6.5549   6.5859   6.6175   6.6524   9.0313   9.1977   9.3794   9.5063
     9.7634   9.7887   9.8343   9.8906   9.9999  10.1929

          k = 0.1250 0.3608 0.0000 ( 21195 PWs)   bands (ev):

   -53.4720 -53.4358 -53.4033 -53.3695 -27.7207 -27.6812 -27.6490 -27.6182
   -27.6174 -27.5805 -27.5481 -27.5314 -27.5147 -27.4925 -27.4602 -27.4289
    -5.4932  -5.4316  -5.3792  -5.3142  -4.9912  -4.9170  -4.8543  -4.7935
     2.1113   2.2054   2.3196   2.4181   3.1062   3.1719   3.2376   3.3166
     3.4861   3.5590   3.6382   3.7384   4.0545   4.1670   4.2757   4.3549
     5.3971   5.4470   5.4807   5.5210   5.9225   6.0065   6.1103   6.2114
     6.5037   6.5474   6.5788   6.6123   9.0655   9.2356   9.4343   9.5767
     9.8342   9.8706   9.9120  10.0025  10.2266  10.3917

          k = 0.1250 0.4330 0.0000 ( 21113 PWs)   bands (ev):

   -53.4658 -53.4296 -53.3971 -53.3634 -27.7729 -27.7333 -27.7011 -27.6704
   -27.6053 -27.5685 -27.5516 -27.5360 -27.5127 -27.5026 -27.4804 -27.4491
    -5.1500  -5.0925  -5.0507  -4.9923  -4.8346  -4.7718  -4.7242  -4.6725
     1.9321   2.0005   2.0670   2.1380   2.6942   2.7482   2.7939   2.8528
     3.4195   3.4947   3.5889   3.6903   4.0248   4.1301   4.2252   4.2975
     5.3442   5.4017   5.4481   5.5066   5.6487   5.7298   5.8243   5.9155
     6.6418   6.6886   6.7203   6.7539   9.2753   9.4269   9.6108   9.7453
     9.9418   9.9851  10.0239  10.0785  10.5364  10.6620

          k = 0.1250 0.5052 0.0000 ( 21081 PWs)   bands (ev):

   -53.4617 -53.4255 -53.3930 -53.3592 -27.8076 -27.7678 -27.7356 -27.7050
   -27.5972 -27.5651 -27.5604 -27.5279 -27.5262 -27.4945 -27.4939 -27.4627
    -4.8961  -4.8427  -4.8112  -4.7628  -4.7195  -4.6689  -4.6313  -4.5889
     1.7696   1.8246   1.8695   1.9306   2.3996   2.4462   2.4859   2.5427
     3.3000   3.3839   3.4795   3.5690   4.0771   4.1543   4.2183   4.2764
     5.3387   5.4141   5.4567   5.4840   5.5246   5.5609   5.6106   5.7034
     6.8291   6.8807   6.9172   6.9594   9.5044   9.5917   9.6725   9.7410
    10.0909  10.1474  10.2018  10.2786  10.8173  10.8945

          k = 0.1250 0.5774 0.0000 ( 21108 PWs)   bands (ev):

   -53.4602 -53.4240 -53.3915 -53.3578 -27.8197 -27.7799 -27.7477 -27.7171
   -27.5943 -27.5699 -27.5576 -27.5309 -27.5251 -27.4986 -27.4916 -27.4674
    -4.8004  -4.7494  -4.7212  -4.6848  -4.6716  -4.6324  -4.5975  -4.5596
     1.7068   1.7565   1.7954   1.8542   2.2945   2.3390   2.3775   2.4346
     3.2396   3.3247   3.4204   3.5075   4.1261   4.1781   4.2195   4.2665
     5.2807   5.3887   5.4254   5.4822   5.5050   5.5482   5.5701   5.6460
     6.9215   6.9767   7.0183   7.0660   9.5862   9.6215   9.6550   9.6934
    10.2004  10.2690  10.3179  10.3739  10.9321  11.0064

          k = 0.1875 0.3248 0.0000 ( 21195 PWs)   bands (ev):

   -53.4726 -53.4364 -53.4039 -53.3701 -27.7071 -27.6677 -27.6354 -27.6186
   -27.6046 -27.5817 -27.5493 -27.5382 -27.5159 -27.4993 -27.4670 -27.4357
    -5.5265  -5.4645  -5.4111  -5.3454  -5.0045  -4.9291  -4.8647  -4.8029
     2.1769   2.2792   2.4084   2.5160   3.2360   3.2880   3.3326   3.3860
     3.5312   3.5944   3.6579   3.7278   3.9128   4.0519   4.1952   4.2853
     5.2233   5.2724   5.3056   5.3469   6.0900   6.1563   6.2353   6.3184
     6.5095   6.5554   6.5871   6.6254   8.9751   9.1589   9.3814   9.5555
     9.8575   9.8790   9.9256   9.9693  10.0885  10.2667

          k = 0.1875 0.3969 0.0000 ( 21153 PWs)   bands (ev):

   -53.4664 -53.4302 -53.3977 -53.3640 -27.7491 -27.7095 -27.6773 -27.6466
   -27.6065 -27.5697 -27.5691 -27.5372 -27.5301 -27.5038 -27.4978 -27.4666
    -5.1912  -5.1329  -5.0890  -5.0290  -4.8473  -4.7823  -4.7322  -4.6788
     2.0927   2.1712   2.2559   2.3356   2.7844   2.8194   2.8554   2.8927
     3.5574   3.6152   3.6744   3.7650   3.9168   4.0476   4.1769   4.2583
     4.9064   4.9595   4.9976   5.0473   5.8667   5.9156   5.9641   6.0328
     6.6116   6.6630   6.6960   6.7364   9.1287   9.3143   9.5621   9.7970
     9.9685  10.0035  10.0371  10.0705  10.2618  10.4090

          k = 0.1875 0.4691 0.0000 ( 21101 PWs)   bands (ev):

   -53.4617 -53.4255 -53.3930 -53.3592 -27.7797 -27.7400 -27.7078 -27.6771
   -27.5972 -27.5940 -27.5604 -27.5550 -27.5280 -27.5227 -27.4945 -27.4916
    -4.9091  -4.8548  -4.8217  -4.7708  -4.7140  -4.6610  -4.6222  -4.5783
     2.0076   2.0718   2.1301   2.1980   2.3872   2.4255   2.4605   2.4969
     3.4700   3.5554   3.6393   3.7124   3.9703   4.0931   4.2093   4.2917
     4.7227   4.7906   4.8584   4.9339   5.5636   5.6307   5.6787   5.7454
     6.8128   6.8624   6.8938   6.9288   9.3558   9.4830   9.6298   9.7457
    10.1330  10.1821  10.2283  10.3139  10.4807  10.5740

          k = 0.1875 0.5413 0.0000 ( 21112 PWs)   bands (ev):

   -53.4591 -53.4229 -53.3904 -53.3567 -27.7957 -27.7560 -27.7238 -27.6931
   -27.6080 -27.5922 -27.5689 -27.5554 -27.5367 -27.5230 -27.5055 -27.4895
    -4.7435  -4.6932  -4.6660  -4.6406  -4.6212  -4.5927  -4.5588  -4.5228
     1.9712   2.0223   2.0612   2.1278   2.1710   2.2130   2.2474   2.2856
     3.3262   3.4153   3.5107   3.5906   4.1064   4.1850   4.2552   4.3246
     4.6777   4.7608   4.8458   4.9236   5.3540   5.4242   5.4794   5.5445
     6.9977   7.0492   7.0846   7.1267   9.4365   9.4880   9.5296   9.5784
    10.3168  10.3853  10.4567  10.5538  10.6015  10.6676

          k = 0.2500 0.4330 0.0000 ( 21125 PWs)   bands (ev):

   -53.4617 -53.4255 -53.3930 -53.3592 -27.7651 -27.7255 -27.6933 -27.6626
   -27.6090 -27.5972 -27.5699 -27.5604 -27.5377 -27.5280 -27.5065 -27.4945
    -4.9143  -4.8598  -4.8259  -4.7742  -4.7116  -4.6578  -4.6184  -4.5739
     2.1160   2.1868   2.2559   2.3240   2.3845   2.4206   2.4538   2.4781
     3.6548   3.6967   3.7353   3.7871   3.9838   4.1001   4.2247   4.3086
     4.4052   4.4546   4.4892   4.5260   5.6409   5.6775   5.7093   5.7790
     6.7960   6.8467   6.8778   6.9121   9.2936   9.4332   9.6019   9.7401
    10.1438  10.1883  10.2243  10.3194  10.3536  10.4880

          k = 0.2500 0.5052 0.0000 ( 21117 PWs)   bands (ev):

   -53.4585 -53.4223 -53.3898 -53.3561 -27.7699 -27.7302 -27.6980 -27.6674
   -27.6416 -27.6025 -27.5910 -27.5702 -27.5542 -27.5391 -27.5218 -27.4883
    -4.7153  -4.6652  -4.6386  -4.6164  -4.5941  -4.5687  -4.5356  -4.5004
     2.0778   2.1169   2.1490   2.1805   2.2318   2.2940   2.3474   2.4071
     3.4967   3.5878   3.6579   3.7043   4.0487   4.0964   4.1482   4.2021
     4.2376   4.3040   4.3723   4.4220   5.3615   5.4106   5.4502   5.5187
     7.0375   7.0855   7.1165   7.1498   9.3030   9.3643   9.4200   9.4800
    10.2851  10.3303  10.3818  10.3948  10.5644  10.6196

          k = 0.2500 0.5774 0.0000 ( 21116 PWs)   bands (ev):

   -53.4574 -53.4212 -53.3887 -53.3549 -27.7697 -27.7301 -27.6979 -27.6672
   -27.6549 -27.6157 -27.5888 -27.5835 -27.5524 -27.5521 -27.5196 -27.4861
    -4.6414  -4.5954  -4.5804  -4.5638  -4.5441  -4.5279  -4.5057  -4.4743
     1.9778   2.0162   2.0485   2.0796   2.3197   2.3630   2.4024   2.4548
     3.3415   3.4301   3.5122   3.5765   4.0126   4.0816   4.1581   4.2375
     4.2814   4.3496   4.4102   4.4566   5.2438   5.2863   5.3169   5.3811
     7.1646   7.2129   7.2452   7.2830   9.2307   9.2740   9.3062   9.3356
    10.3078  10.3609  10.3949  10.4378  10.7157  10.7598

          k = 0.3125 0.5413 0.0000 ( 21100 PWs)   bands (ev):

   -53.4568 -53.4206 -53.3881 -53.3543 -27.7487 -27.7090 -27.6833 -27.6768
   -27.6461 -27.6441 -27.6119 -27.5877 -27.5808 -27.5509 -27.5185 -27.4850
    -4.6053  -4.5646  -4.5541  -4.5303  -4.5211  -4.4995  -4.4864  -4.4560
     1.9090   1.9489   1.9817   2.0101   2.5441   2.5984   2.6407   2.6994
     3.3526   3.3646   3.4021   3.4431   3.8311   3.8575   3.8824   3.9070
     4.3334   4.4054   4.4550   4.5109   5.1554   5.2088   5.2431   5.3111
     7.2471   7.2927   7.3237   7.3571   9.1134   9.1596   9.1915   9.2199
    10.2462  10.2820  10.2996  10.3583  10.8125  10.8771

     the Fermi energy is     8.3634 ev

!    total energy              =   -1978.37274821 Ry
     total all-electron energy =    -38771.693593 Ry
     estimated scf accuracy    <          1.7E-09 Ry
     smearing contrib. (-TS)   =       0.00004644 Ry
     internal energy E=F+TS    =   -1978.37279465 Ry

     The total energy is F=E-TS. E is the sum of the following terms:
     one-electron contribution =   -1640.38877105 Ry
     hartree contribution      =     862.46355547 Ry
     xc contribution           =    -119.25309899 Ry
     ewald contribution        =     188.65749977 Ry
     one-center paw contrib.   =   -1269.85197985 Ry

     convergence has been achieved in  29 iterations

     Forces acting on atoms (cartesian axes, Ry/au):

     atom    1 type  2   force =     0.00000000    0.00000000   -0.00078397
     atom    2 type  1   force =     0.00000000   -0.00000000    0.00007069
     atom    3 type  2   force =     0.00000000    0.00000000    0.00206735
     atom    4 type  2   force =     0.00000000    0.00000000   -0.00028478
     atom    5 type  1   force =     0.00000000    0.00000000    0.00180238
     atom    6 type  2   force =     0.00000000    0.00000000   -0.00107776
     atom    7 type  2   force =     0.00000000    0.00000000    0.00017375
     atom    8 type  1   force =     0.00000000    0.00000000    0.00052637
     atom    9 type  2   force =    -0.00000000   -0.00000000   -0.00142991
     atom   10 type  2   force =     0.00000000    0.00000000   -0.00201859
     atom   11 type  1   force =     0.00000000    0.00000000   -0.00007159
     atom   12 type  2   force =     0.00000000    0.00000000    0.00102606

     Total force =     0.004107     Total SCF correction =     0.000168
     Energy error            =      3.5E-04 Ry
     Gradient error          =      2.1E-03 Ry/Bohr

     number of scf cycles    =  29
     number of bfgs steps    =  25

     energy             old  =   -1978.3723940703 Ry
     energy             new  =   -1978.3727482126 Ry

     CASE: energy            _new < energy            _old

     new trust radius        =       0.1705712884 bohr
     new conv_thr            =       0.0000000035 Ry


ATOMIC_POSITIONS (crystal)
S                0.3333328794        0.6666667587       -0.1049804806
Mo               0.0000000000        0.0000000000       -0.0525997820
S                0.3333328794        0.6666667587       -0.0002047389
S                0.6666667587        0.3333328794        0.1036093881
Mo               0.3333328794        0.6666667587        0.1560756186
S                0.6666667587        0.3333328794        0.2085606048
S                0.0000000000        0.0000000000        0.3116437123
Mo               0.6666667587        0.3333328794        0.3641318557
S                0.0000000000        0.0000000000        0.4165955380
S                0.3333328794        0.6666667587        0.5183380664
Mo               0.0000000000        0.0000000000        0.5707384029
S                0.3333328794        0.6666667587        0.6230906873



     Writing config-only to output data dir ./tmp/relax2/mos2_slab2.save/ :
     XML data file
     NEW-OLD atomic charge density approx. for the potential

     total cpu time spent up to now is    75623.2 secs

     Self-consistent Calculation

     iteration #  1     ecut=    80.00 Ry     beta= 0.20
     Davidson diagonalization with overlap
     ethr =  1.00E-06,  avg # of iterations = 10.4

     total cpu time spent up to now is    76031.9 secs

     total energy              =   -1978.37500339 Ry
     estimated scf accuracy    <       0.00939114 Ry

     iteration #  2     ecut=    80.00 Ry     beta= 0.20
     Davidson diagonalization with overlap
     ethr =  9.03E-06,  avg # of iterations =  1.0

     negative rho (up, down):  1.059E-07 0.000E+00

     total cpu time spent up to now is    76130.8 secs

     total energy              =   -1978.37238972 Ry
     estimated scf accuracy    <       0.00680552 Ry

     iteration #  3     ecut=    80.00 Ry     beta= 0.20
     Davidson diagonalization with overlap
     ethr =  6.54E-06,  avg # of iterations =  2.5

     total cpu time spent up to now is    76248.9 secs

     total energy              =   -1978.37302472 Ry
     estimated scf accuracy    <       0.00030075 Ry

     iteration #  4     ecut=    80.00 Ry     beta= 0.20
     Davidson diagonalization with overlap
     ethr =  2.89E-07,  avg # of iterations =  4.1

     total cpu time spent up to now is    76385.8 secs

     total energy              =   -1978.37309590 Ry
     estimated scf accuracy    <       0.00011088 Ry

     iteration #  5     ecut=    80.00 Ry     beta= 0.20
     Davidson diagonalization with overlap
     ethr =  1.07E-07,  avg # of iterations =  3.0

     total cpu time spent up to now is    76500.0 secs

     total energy              =   -1978.37310189 Ry
     estimated scf accuracy    <       0.00003151 Ry

     iteration #  6     ecut=    80.00 Ry     beta= 0.20
     Davidson diagonalization with overlap
     ethr =  3.03E-08,  avg # of iterations =  3.4

     total cpu time spent up to now is    76614.3 secs

     total energy              =   -1978.37310114 Ry
     estimated scf accuracy    <       0.00001084 Ry

     iteration #  7     ecut=    80.00 Ry     beta= 0.20
     Davidson diagonalization with overlap
     ethr =  1.04E-08,  avg # of iterations =  2.7

     total cpu time spent up to now is    76743.5 secs

     total energy              =   -1978.37310396 Ry
     estimated scf accuracy    <       0.00000266 Ry

     iteration #  8     ecut=    80.00 Ry     beta= 0.20
     Davidson diagonalization with overlap
     ethr =  2.56E-09,  avg # of iterations =  2.8

     total cpu time spent up to now is    76859.2 secs

     total energy              =   -1978.37310347 Ry
     estimated scf accuracy    <       0.00000258 Ry

     iteration #  9     ecut=    80.00 Ry     beta= 0.20
     Davidson diagonalization with overlap
     ethr =  2.48E-09,  avg # of iterations =  1.9

     total cpu time spent up to now is    76967.2 secs

     total energy              =   -1978.37310362 Ry
     estimated scf accuracy    <       0.00000140 Ry

     iteration # 10     ecut=    80.00 Ry     beta= 0.20
     Davidson diagonalization with overlap
     ethr =  1.35E-09,  avg # of iterations =  1.7

     total cpu time spent up to now is    77073.1 secs

     total energy              =   -1978.37310376 Ry
     estimated scf accuracy    <       0.00000104 Ry

     iteration # 11     ecut=    80.00 Ry     beta= 0.20
     Davidson diagonalization with overlap
     ethr =  1.00E-09,  avg # of iterations =  1.7

     total cpu time spent up to now is    77178.4 secs

     total energy              =   -1978.37310390 Ry
     estimated scf accuracy    <       0.00000105 Ry

     iteration # 12     ecut=    80.00 Ry     beta= 0.20
     Davidson diagonalization with overlap
     ethr =  1.00E-09,  avg # of iterations =  1.0

     total cpu time spent up to now is    77277.2 secs

     total energy              =   -1978.37310394 Ry
     estimated scf accuracy    <       0.00000089 Ry

     iteration # 13     ecut=    80.00 Ry     beta= 0.20
     Davidson diagonalization with overlap
     ethr =  8.52E-10,  avg # of iterations =  1.9

     total cpu time spent up to now is    77384.0 secs

     total energy              =   -1978.37310387 Ry
     estimated scf accuracy    <       0.00000080 Ry

     iteration # 14     ecut=    80.00 Ry     beta= 0.20
     Davidson diagonalization with overlap
     ethr =  7.71E-10,  avg # of iterations =  2.4

     total cpu time spent up to now is    77498.9 secs

     total energy              =   -1978.37310380 Ry
     estimated scf accuracy    <       0.00000062 Ry

     iteration # 15     ecut=    80.00 Ry     beta= 0.20
     Davidson diagonalization with overlap
     ethr =  5.97E-10,  avg # of iterations =  2.0

     total cpu time spent up to now is    77609.8 secs

     total energy              =   -1978.37310396 Ry
     estimated scf accuracy    <       0.00000032 Ry

     iteration # 16     ecut=    80.00 Ry     beta= 0.20
     Davidson diagonalization with overlap
     ethr =  3.10E-10,  avg # of iterations =  2.0

     total cpu time spent up to now is    77736.5 secs

     total energy              =   -1978.37310389 Ry
     estimated scf accuracy    <       0.00000027 Ry

     iteration # 17     ecut=    80.00 Ry     beta= 0.20
     Davidson diagonalization with overlap
     ethr =  2.57E-10,  avg # of iterations =  2.1

     total cpu time spent up to now is    77869.6 secs

     total energy              =   -1978.37310395 Ry
     estimated scf accuracy    <       0.00000021 Ry

     iteration # 18     ecut=    80.00 Ry     beta= 0.20
     Davidson diagonalization with overlap
     ethr =  2.05E-10,  avg # of iterations =  1.2

     total cpu time spent up to now is    77969.9 secs

     total energy              =   -1978.37310394 Ry
     estimated scf accuracy    <       0.00000015 Ry

     iteration # 19     ecut=    80.00 Ry     beta= 0.20
     Davidson diagonalization with overlap
     ethr =  1.48E-10,  avg # of iterations =  1.4

     total cpu time spent up to now is    78072.6 secs

     total energy              =   -1978.37310394 Ry
     estimated scf accuracy    <       0.00000011 Ry

     iteration # 20     ecut=    80.00 Ry     beta= 0.20
     Davidson diagonalization with overlap
     ethr =  1.08E-10,  avg # of iterations =  1.7

     total cpu time spent up to now is    78178.6 secs

     total energy              =   -1978.37310394 Ry
     estimated scf accuracy    <       0.00000008 Ry

     iteration # 21     ecut=    80.00 Ry     beta= 0.20
     Davidson diagonalization with overlap
     ethr =  8.17E-11,  avg # of iterations =  1.1

     total cpu time spent up to now is    78278.2 secs

     total energy              =   -1978.37310394 Ry
     estimated scf accuracy    <       0.00000008 Ry

     iteration # 22     ecut=    80.00 Ry     beta= 0.20
